163
11 Eopt=-23.7335423948 (Eh) Einter=-36.275509 (kcal/mol)
Si 3.55619755793589753523 33.84476441938809188059 7.82276357958916346291
Si 3.55590021747957596432 30.76676464365587193583 7.82284079878443172618
O  2.14725500330387220060 34.47991501842562911406 8.40973852943614552657
O  2.14683493723324048119 30.13191591072868291690 8.40984764407588336610
O  3.71004511051316132608 32.30576445323000456256 8.41280327249921633381
O  3.55520841114087282619 33.84672284733991887151 6.16676352341109801358
O  3.55491063267864682018 30.76472336580123112526 6.16684084249866248939
Si 6.21945436125552486573 26.15150720538959916439 7.82297308166328875245
Si 8.88330595321935234665 24.61424971398631811326 7.82302827327248095912
O  4.81038912298865195538 25.51665837090154909106 8.40997994590851227770
O  7.47536352333358511402 25.24940041072466812011 8.41000351825004521800
O  9.03815422602054141521 23.07524947493374156693 8.41306749375302409533
O  6.21946467113374357183 26.14946602948453246995 6.16697313187818441094
O  8.88331682515749676554 24.61620855294292198323 6.16702822414699092235
Si 6.21975165039688260293 29.22950713100071951089 7.82289629909156669640
Si 6.22034606498613129588 35.38150693373536626041 7.82274214777311804880
Si 8.88419748889267069103 33.84424962246483659101 7.82279785048561659977
Si 8.88390009128768909363 30.76624970640336442784 7.82287494367433833276
O  4.81080926527974206408 29.86465800473120779657 8.40987141395408421829
O  4.81128092637717674762 34.74665786422830393576 8.40974902240498778383
O  7.47625510597463449614 34.47940034914638829378 8.40977289031422614585
O  7.47583500528124833551 30.13140044243453274930 8.40988179672728541902
O  6.37359925340682842432 27.69050701062437269684 8.41293572078419771287
O  9.03904502136382959065 32.30524946873353542287 8.41283743710047460240
O  6.21976243143436491323 29.23146574697222632722 6.16689624611902864615
O  6.22035653869046978315 35.37946534264703046802 6.16674219854528438134
O  8.88420829649156118535 33.84620807370027506522 6.16679780013781098091
O  8.88391050800672132937 30.76420830534067718531 6.16687499264677541078
Si 6.22064342873910014475 38.45950675857493195053 7.82266469600823288744
Si 8.88479196009652305577 39.99624949763396131175 7.82264305087172751030
O  4.81170078726446881490 39.09465713689084509497 8.40963963101836675662
O  7.47672682150096967746 39.36140026732669383591 8.40965003220272677709
O  6.37449096667123971116 36.92050681768618858314 8.41270448552025307265
O  9.03993734303665874563 41.53524934019419134756 8.41260523447153474308
O  6.22065423085483182319 38.46146494224905154624 6.16666464606978514951
O  8.88480247288079638679 39.99420773058333367089 6.16664310185363717665
Si 11.54845427077908048830 26.15099232281819752188 7.82300714767146487816
Si 14.21330580154661049619 24.61373504663329825348 7.82306249492121708045
O  10.13938922975783718528 25.51614301128226358628 8.41001392838463068813
O  12.80436339617987684392 25.24888564602967733208 8.41003765933206892669
O  14.36715409784240904401 23.07473485579912164667 8.41310184345602607436
O  11.54846468026640415871 26.14895111228063839803 6.16700719653399076492
O  14.21231681060002927097 24.61569388348182485515 6.16706249423294305956
Si 11.54875151385563114559 29.22899224541317764192 7.82293042158767271133
Al 11.54934589499954888936 35.38099217738655255516 7.82277631921826088757
Si 14.21419727504461327783 33.84373477008952590950 7.82283191307439906836
Si 14.21389991651617457080 30.76573493788678703709 7.82290907160218029759
O  10.13980914070721084386 29.86414304719425061307 8.40990555219052104974
O  10.14028082866952829022 34.74614303109803614689 8.40978326711897494761
O  12.80525495579825268067 34.47888559918659723280 8.40980700527986435588
O  12.80483480585305144928 30.13088565803531437837 8.40991593913332735610
O  11.70259912151413672632 27.68999213562966588142 8.41296980492963264453
O  14.36804483388754505313 32.30473471594866907708 8.41287147011320080026
O  11.54876229932635212094 29.23095091985256743783 6.16693037083917161567
O  11.54935627424746691361 35.37895056831030871081 6.16677637196833483557
O  14.21320800703856157554 33.84569330394274544460 6.16683184592480149178
O  14.21291020971457719213 30.76369352522359790214 6.16690907311705238669
Si 11.54964334516387225449 38.45899207812611564350 7.82269886844265638359
Si 14.21479182686107378686 39.99573458205012599365 7.82267713262974062616
O  10.14070098893112437111 39.09414297092085632812 8.40967387687999057277
O  12.80572673849387754785 39.36088552407377960662 8.40968415756609388723
O  11.70349086280861605758 36.91999209265515702327 8.41273861841568049158
O  14.36893717595961739164 41.53473449885453305797 8.41263927809039380179
O  11.54965410740889986130 38.46095034700485371104 6.16669881850260015455
O  14.21380227429517262294 39.99369288773812769477 6.16667717660836256499
Si 16.87745362556737660498 26.15047779902558033882 7.82304101511045590911
O  15.46838913420757677386 25.51562820319524860224 8.41004834288105129758
O  18.13336280709959780211 25.24837056755992037438 8.41007184797808093890
O  16.87746416522047354647 26.14843619084886938708 6.16704141027382846119
Si 16.87775108403021562253 29.22847781291221025413 7.82296413292379089199
Si 16.87834565520488894208 35.38047741569216952939 7.82281020122828962826
Si 19.54219698506786073722 33.84322009352203508570 7.82286558142616073042
Si 19.54189949990979613403 30.76522017525404351090 7.82294273736351275517
O  15.46880878772335421445 29.86362810408570922505 8.40993953895400814247
O  15.46928064339216213341 34.74562827978456880373 8.40981724035274602613
O  18.13425471412164924345 34.47837082658669061175 8.40984083062726739399
O  18.13383471228290133581 30.13037058775773502362 8.40994995453646332351
O  17.03159910328464476947 27.68947737469634517993 8.41300417988552773352
O  19.69704455439632795333 32.30421986327999661626 8.41290515224431167951
O  16.87776194176224464627 29.23043609804318521128 6.16696443054435849973
O  16.87835593869139927392 35.37843578696190860455 6.16681025232601243147
O  19.54220750760368119359 33.84517861524989967847 6.16686553339090526293
O  19.54190971103354002025 30.76317840848358997619 6.16694281253948695110
Si 16.87864312455695880999 38.45847737781140551760 7.82273276702505437896
O  15.46970084687225366338 39.09362819330336691337 8.40970792183273729847
O  18.13472631102511201107 39.36037116610577868414 8.40971797627652684071
O  17.03249067029662811024 36.91947736044957650847 8.41277248495793017469
O  16.87865370778776252791 38.46043573901292234041 6.16673271735290562390
O  20.79780835081266587849 29.86311286480689020095 8.40997325851487786963
O  20.79828007314652893456 34.74511392543042376246 8.40985083169919711565
H  4.07465742945882780646 24.98677204219590564094 8.03659115488084196954
H  1.41040896892005385155 29.60201496988366542951 8.03674925619786328923
H  1.41040900880656927541 35.00798498590303609035 8.03674926196980798920
H  4.07465743690254278420 39.62322797146796915513 8.03659115980064520102
H  8.94818084789162782045 22.17325470660060560135 8.03830168954357127120
H  8.94818087923338012502 42.43674530218802232184 8.03830168080136964193
H  14.27776169830562658092 22.17320385246173941596 8.03828218634777869056
H  14.27776173010003546437 42.43679616387437647518 8.03828219123347231800
H  18.96055657498187230203 24.87622777057401890488 8.03640576989115729134
H  18.96055653329053569678 39.73377222809561715167 8.03640577821912138745
H  21.62471722944517793508 29.49141993181171983451 8.03658340862626374701
H  21.62471723349124630431 35.11858007527627734135 8.03658341022291544675
H  13.39922795739042982177 34.28531247206837662134 5.85463176780633887120
H  10.85603170705764597415 34.89218232967269273104 5.71721595885505085022
H  8.79316677951504210853 32.97374190276627814455 5.76219940693129739628
H  9.66357961505238982625 30.35160700939480094007 5.76895568235939926183
H  12.30629749757546775868 29.68608881571499580332 5.77123880428757285443
H  14.17430145653504602876 31.65300279368086577847 5.78286317198567623166
H  13.45700859311049768507 39.52750482896647810094 5.78093078857708775331
H  10.82185198513013446586 38.95872177522764445712 5.76976940805446236737
H  8.14980839583021854367 39.50861002849753589317 5.76627385361576827449
H  6.23194667491323173181 37.58116492081251891477 5.76471310410016002379
H  5.44704955411753477534 34.95093754187198697991 5.77257540957469306164
H  3.60664936342605102482 32.96826993086777690678 5.76388710716463581463
H  4.32819223170570843706 30.34484056099459081679 5.76402041662937847377
H  6.20754699113749630612 28.34935900031685562794 5.76818373932867878295
H  7.00943285666735516060 25.75772182333171400614 5.76748914513385724234
H  9.64047060880444739439 25.06526887693839711346 5.76511829273455767009
H  12.31477063400323679332 25.70825778307045794691 5.77188275803236017225
H  14.95393929684812839298 25.09100721688763258044 5.76597661889912860289
H  16.85170394374666003046 27.02666100364479362383 5.76146800048394602811
H  17.64768340183270112220 29.66420706197614620692 5.77142433507408014748
H  19.48180901596269620768 31.64168672827195649688 5.76490010641726513541
H  18.77140968658659403445 34.27358367803819305664 5.76790924646957847699
H  16.89481965171612998233 36.26079389689895293714 5.76914703418217111874
H  16.09152697015782251810 38.86028470158127134937 5.76951241492096844610
P  12.91946426818401150172 32.93229929025509505891 11.39076453617491679893
O  12.22102158503015090218 32.23863370649106485644 10.24184711853552087746
O  13.78387366972395611242 34.09874607756432141059 10.97344852319854879852
O  11.78193705644489419626 33.43848332440126824849 12.39655316164904519383
O  13.84071127433622905301 31.86353837383906295599 12.18133645319982605315
C  14.52203352275642700420 31.04060760183577016846 11.28456393552716541251
C  15.25204403278272557998 29.91685539236835822408 12.04216309015616559464
O  14.40301352294640757634 29.35886454021064295716 13.04392802323753564053
C  15.65619300498945598576 28.72879634676881366318 11.13301482947113640876
O  16.78074190529276421557 28.05919900877798056626 11.64977518983915416584
C  14.41488091786542824480 27.80189711083692927218 11.18367547236856829329
O  14.79701623974861668387 26.44387057152055575671 11.23558406405582488219
C  13.69815343582395428257 28.23737408479293264918 12.49396886297749631467
N  12.28649840432896667153 28.55801805874789067730 12.27053388439801651089
C  11.71988285818736663657 29.81960575357134501928 12.24304363705644860261
N  10.47383790800223479778 29.78116923818229722087 11.86494534635342290585
C  10.19153116885797949465 28.47037185167678430275 11.62698530457011436567
C  9.07130806575658077406 27.88357701021893575444 11.01661204162043539156
N  8.04609304704279004739 28.64269471721662796426 10.56577388934890748828
N  9.18677681412538760242 26.54783812897538552988 10.77982331542859384399
C  10.31343464840693258111 25.84122898195387563192 11.13961967276977205188
N  11.38505682823307729734 26.33281596262331092362 11.67606573126506752658
C  11.31397572358255843028 27.66657714236864862301 11.88739806298327295053
H  11.11018356661863926149 33.89865907102182518429 11.86478064766941464825
H  13.76803198455496968222 30.62094501108877153683 10.59697937826903491043
H  15.21264017622814002095 31.66269152922004437301 10.69037802005632542546
H  16.12937079374798088338 30.31215932174014682232 12.57478819277350723382
H  15.91534222452195734832 29.05504492671295579953 10.11958606173354802138
H  16.47151282136448813276 27.37891505017809379297 12.28804761584413540731
H  13.73716730872330771263 27.96216220252274453628 10.33041537655771335835
H  15.08574708173153666735 26.13831662677080558410 10.34150176185466030176
H  13.75641296081091802250 27.42458072357047527134 13.22857024498846811866
H  12.25629244468768064280 30.74046345841717453595 12.41742415105553476451
H  8.16827510320652727671 29.64082479535121805725 10.43820728161798960798
H  7.41950316137527554616 28.26652958400912041270 9.86230831487261205837
H  10.34331176815201303043 24.79108390708590548002 10.89238011770978609150
H  8.52525953970483563182 26.12132447524021472418 10.12055471577750154211
