163
Coordinates from ORCA-job /data/Seafile/amp/protonated/frames/frame10/amp_prot10 E -13464.966594818046
  Si          3.50659734514836     33.90257632124741      7.80183880982858
  Si          3.46346123982564     30.79506405144651      7.81703598026780
  O           2.28928408069273     34.80277953020919      8.39979927614621
  O           2.17475927113542     30.03361590591676      8.45771269339398
  O           3.46274256898962     32.35328129936235      8.33425011481263
  O           3.53089668525046     33.89452082044235      6.16364701056139
  O           3.44124919587324     30.84729039327529      6.18119334270038
  Si          6.14234039147837     26.13818999965444      7.78922224619168
  Si          8.82099350491853     24.54190372994649      7.77760205095102
  O           4.80544171554190     25.48107682974727      8.44419651068356
  O           7.48787536442981     25.34952359859065      8.29028230971154
  O           8.76567177620123     23.04815916428870      8.42678415375194
  O           6.10767305035854     26.15285302832281      6.15223310329677
  O           8.77482047012496     24.52348653465907      6.14211438576610
  Si          6.13095973110977     29.23484080419676      7.71479909946071
  Si          6.17774097463212     35.44842301996106      7.72171852279278
  Si          8.90642529858240     33.85660546502407      7.70149453021530
  Si          8.87707435301681     30.78875862648550      7.69594951560552
  O           4.84838700010503     30.05658625646236      8.31061548935617
  O           4.89570663192540     34.62449943604698      8.30967259718726
  O           7.56334318952180     34.67536602137176      8.12334932476048
  O           7.50168446702706     30.03232340923569      8.11968616717059
  O           6.19687247110857     27.70697023873634      8.28123883235301
  O           8.84781726352827     32.32177982183980      8.27572421742120
  O           5.93592886386236     29.20485844555930      6.09058960752081
  O           6.03925428867899     35.57779717444430      6.09693330499758
  O           9.06494513013648     33.80570782002487      6.07343751290703
  O           9.00514960894756     30.90455585072500      6.07153225239691
  Si          6.19445650032774     38.54464930226709      7.79721587566816
  Si          8.91581733182897     40.06482985526181      7.80146817034831
  O           4.92066941058601     39.34014811919384      8.42930219418595
  O           7.55422565986510     39.30870164392425      8.31109478372047
  O           6.23322612927738     36.97763702399804      8.29990205526809
  O           9.04705953471061     41.55607977341086      8.43931350783339
  O           6.21693946886064     38.57294127165865      6.16157441332230
  O           8.93787891017840     40.07929620394558      6.16360296748011
  Si         11.51002269953511     26.06970962335525      7.66388234880204
  Si         14.20915397963550     24.53889398041732      7.78760589825892
  O          10.16598688441761     25.35753152984810      8.25984347839374
  O          12.87050177572651     25.37660020102075      8.24228571221645
  O          14.04877739612230     23.04374462603208      8.40813116994235
  O          11.44210516182687     25.86848383411947      6.04136626886516
  O          14.28246959212285     24.53730052663045      6.15655326176761
  Si         11.52393831037285     29.23414007417236      7.64655237408702
  Si         11.57629353563942     35.36539140378492      7.68468492761660
  Si         14.22518254072064     33.82262197965751      7.64756945595026
  Si         14.19258237853745     30.75246063131031      7.61953120159058
  O          10.17805832935195     29.95595749613017      8.27435548840515
  O          10.22215919750155     34.65362172907637      8.27178085845781
  O          12.93261897489965     34.63189060307167      8.24589157514184
  O          12.88133982352804     29.95835698802806      8.19886985381878
  O          11.49209896339176     27.65997946227793      8.03906068480402
  O          14.26902958786792     32.28014284699274      8.20286941604471
  O          11.44410353855542     29.43197417057493      6.02475594209156
  O          11.59882163700636     35.19942870562981      6.05682097235496
  O          14.08933346853839     33.72901575214011      6.02039769654174
  O          14.02048208808527     30.80956927127076      5.99409989980782
  Si         11.59422374557340     38.52378440319855      7.71117782072980
  Si         14.27645171828022     40.06230906582402      7.80985332256454
  O          10.23688188318562     39.21683443444572      8.29770816965492
  O          12.94818751729861     39.22678756676313      8.30119943338982
  O          11.61466815033059     36.93723378228024      8.10493717011088
  O          14.24447487071728     41.55723287674924      8.45427148229576
  O          11.64552806767889     38.72155349432719      6.08824722512726
  O          14.33905730916701     40.05939822009815      6.17400117364576
  Si         16.90087400778309     26.06153413345221      7.82028652903864
  O          15.54244783137908     25.31136535177966      8.37944066836254
  O          18.20001529018130     25.31754398316895      8.45621536653399
  O          16.84080746780234     25.97994717732383      6.18676188192736
  Si         16.91409959047756     29.14629099649366      7.64484808824333
  Si         16.96795711839188     35.39359757051503      7.68294034995540
  Si         19.63396162642666     33.82842108381480      7.78118754696603
  Si         19.61115268410080     30.71822180269363      7.73634432920884
  O          15.53266103614612     29.92781891391795      8.03609103004316
  O          15.60923739659150     34.57016630156056      8.06826735186182
  O          18.25795637217909     34.58288450555638      8.28098841774297
  O          18.20271561971923     29.99081060852797      8.16565823048498
  O          16.86495320288531     27.63867098123638      8.28341235775980
  O          19.60113667109357     32.26596996198895      8.28502670799098
  O          17.00829356699451     28.92548700282117      6.02634591313363
  O          17.17436071433730     35.44683517988302      6.06164871733043
  O          19.65822980943907     33.80864788392292      6.14576079871403
  O          19.70628741017379     30.72865226348611      6.10590624501183
  Si         16.95097684475714     38.48136721268970      7.78558469358182
  O          15.62966411412734     39.28771540734262      8.32447348327109
  O          18.33753918468893     39.07797397738410      8.39437587577714
  O          16.87976413472401     36.91166091614155      8.27651816155472
  O          16.93740649683668     38.48467094748484      6.14821025506965
  O          20.81189593415589     29.85926701049930      8.42253115953774
  O          20.96013391636169     34.52105671745695      8.42520093901459
  H           4.07465743278400     24.98677204053733      8.03659115528005
  H           1.41040896875927     29.60201496860370      8.03674925552713
  H           1.41040899330587     35.00798497353588      8.03674925920360
  H           4.07465743607546     39.62322797360595      8.03659116140905
  H           8.94818084402088     22.17325471017704      8.03830168965390
  H           8.94818087973630     42.43674530162775      8.03830168246818
  H          14.27776169869471     22.17320386948575      8.03828219133505
  H          14.27776175056922     42.43679618553145      8.03828218890920
  H          18.96055658545351     24.87622777489114      8.03640577738131
  H          18.96055651938519     39.73377221517233      8.03640577819368
  H          21.62471724221395     29.49141992632396      8.03658340735206
  H          21.62471722770400     35.11858006918123      8.03658341285176
  H          13.31147213895794     34.18729709958179      5.66282744503003
  H          10.80890430222992     34.76723416926131      5.69337657736151
  H           9.04509314417564     32.90957765629758      5.70134084993039
  H           9.76853764970906     30.43589730731624      5.69495714704907
  H          12.22207857238749     29.86753481841216      5.64093567613025
  H          14.04527351967621     31.70651199989177      5.62484635353017
  H          13.52695168474608     39.76332440013447      5.73902596607309
  H          10.83377881788436     39.07214654320101      5.69590405055205
  H           8.17795237929795     39.65420867619484      5.74382973728212
  H           6.10558624780904     37.70763424980258      5.74245145570072
  H           5.33764246684772     35.03937423426851      5.70437741014319
  H           3.52047546640260     33.01180232010823      5.76739637217934
  H           4.12182016985111     30.30715967841905      5.75409994876752
  H           6.04765212501554     28.33588427991014      5.68148302842969
  H           6.83528834843167     25.68142985915550      5.72543907975533
  H           9.57534075595474     24.85847276863211      5.71380171694549
  H          12.25607669860144     25.56821686761614      5.61817447556567
  H          15.05388568619673     24.99639130200250      5.79083306063681
  H          16.95614805831444     26.83080837240181      5.73793381990067
  H          17.62860292018713     29.48875762147645      5.54941157217179
  H          19.69044443155558     31.60792490935695      5.70450710559043
  H          18.95995924921882     34.33200207488954      5.72630396307478
  H          17.05362959681378     36.31772513962287      5.65890722802372
  H          16.17252075496057     38.92888102593907      5.75555466498172
  P           9.72031252312401     28.05475336234881     11.83141595826961
  O           9.61828874697592     28.19634867643601     13.30888467612161
  O           8.56096007116024     27.63811020914597     10.99726787105526
  O          10.28964159403625     29.47525779974783     11.28633769069184
  O          10.91190871877900     27.01474113291659     11.46343919612884
  C          12.03648747592804     26.87210145329522     12.30982789516662
  C          13.26950519538661     26.67017855272115     11.45973839563274
  O          13.58313915995842     27.86097476226336     10.71300498710857
  C          14.51380969451130     26.35385674714551     12.26786932798294
  O          15.44514455842950     25.53237342380935     11.59020901558516
  C          15.10750914225456     27.74374778365753     12.50637440671384
  O          16.46894445209126     27.73301896037009     12.80211428655982
  C          14.75080198414150     28.45596887442257     11.19213117641685
  N          14.51771704618734     29.88558632323132     11.33331848163978
  C          13.32297743947367     30.51715900548780     11.56300368012631
  N          13.43402390149740     31.82088720292138     11.61521253549026
  C          14.76487461056200     32.05472472960122     11.41360770986693
  C          15.48829643552692     33.24972437735954     11.30776303018482
  N          14.97593130684708     34.45621254684850     11.41542434142441
  N          16.81163422650567     33.06726002045988     11.06136452214866
  C          17.39828452067367     31.84957000872821     10.91544368766234
  N          16.77144627054746     30.71997570083670     10.99573108495071
  C          15.45748297489556     30.86223072045955     11.23568094906588
  H          10.16671204537110     29.56581817178144     10.33058583017830
  H          12.15350121770419     27.74241361179194     12.96167467528763
  H          11.90122688347370     25.98996242650012     12.94430821327496
  H          13.06706284036381     25.88121202816106     10.73162514867075
  H          14.28205702852455     25.85234865692306     13.20776810549979
  H          15.39423077221715     25.67294039756064     10.63547040222377
  H          14.58389487146956     28.23399072728614     13.33115876592915
  H          16.85253847645453     27.00440156710148     12.29214468044079
  H          15.57431390887936     28.35215437155076     10.47779362773016
  H          12.39617401649810     29.96847378520150     11.65078498613767
  H          13.98806475126746     34.55896459826318     11.58442176104886
  H          15.52910578662585     35.28970750574040     11.29457797857467
  H          18.46159974647031     31.88016622964622     10.71573307602316
  H          17.41013249787384     33.87957105686262     10.96907058815854
