162
4 Eopt=-407.0911862175 (Eh) Einter=9.492965 (kcal/mol)
Si 3.55619753774289737436 33.84476442309644994566 7.82276358271517668896
Si 3.55590020737703493836 30.76676463352560020326 7.82284080753098187699
O  2.14725498336322573323 34.47991501622009735684 8.40973852781331920880
O  2.14683493540727887705 30.13191591420802240009 8.40984763792132916649
O  3.71004513788705736488 32.30576444980819417196 8.41280327335132760425
O  3.55520841987780045201 33.84672284728211621996 6.16676352414678774494
O  3.55491063380679683803 30.76472336370042981457 6.16684084055903358745
Si 6.21945436057096934235 26.15150720192773903250 7.82297307809211517338
Si 8.88330595126205224688 24.61424971517629955997 7.82302827461803929054
O  4.81038912724008493882 25.51665836820000521357 8.40997994899537104629
O  7.47536352705865336787 25.24940041138422230915 8.41000351571835658149
O  9.03815422665932644009 23.07524947454496455634 8.41306749367011619256
O  6.21946467271573588675 26.14946603074227127195 6.16697313199207108880
O  8.88331682547099887870 24.61620855308686728335 6.16702822390307048295
Si 6.21975171264293269502 29.22950702512412846090 7.82289631315244982090
Si 6.22034606145088897478 35.38150691099148303920 7.82274215472784018033
Si 8.88419747318148722570 33.84424959573601654483 7.82279786606787563841
Si 8.88390012669321649241 30.76624966505118408122 7.82287493007992029703
O  4.81080924958143629766 29.86465803544884067833 8.40987142081663385795
O  4.81128092671459306473 34.74665786930115984887 8.40974901854334966345
O  7.47625511714370816208 34.47940037794937495619 8.40977288779151699316
O  7.47583493931061227045 30.13140054312393445457 8.40988178669213404248
O  6.37359923638257619416 27.69050703394299617344 8.41293571257678607367
O  9.03904503076540777329 32.30524947083734588205 8.41283744010773659738
O  6.21976243302631104370 29.23146576049600753322 6.16689624238086242514
O  6.22035654041809671355 35.37946534553856281491 6.16674219564930403692
O  8.88420829842596226911 33.84620807912462936429 6.16679779609826539399
O  8.88391049858673298445 30.76420830850505083731 6.16687500134202792879
Si 6.22064343144409637176 38.45950675883453584447 7.82266469542480358257
Si 8.88479196039012819597 39.99624949942001705949 7.82264305073057997220
O  4.81170078694835723354 39.09465713726507374304 8.40963963171967954224
O  7.47672682115927056401 39.36140026676349634727 8.40965003227423402166
O  6.37449096377172530481 36.92050682012648366026 8.41270448585674657238
O  9.03993734304459906070 41.53524934000667201417 8.41260523422250905412
O  6.22065423082172852531 38.46146494177321528696 6.16666464620158283338
O  8.88480247279845691821 39.99420773044781185490 6.16664310189621556191
Si 11.54845427641937050112 26.15099232787520122656 7.82300715443213157130
Si 14.21330584738382896148 24.61373497139692645419 7.82306254432236691798
O  10.13938923056471175244 25.51614300877255558930 8.41001392685844528785
O  12.80436339375756205072 25.24888564240997013144 8.41003767015857128797
O  14.36715410360539024737 23.07473485873515883782 8.41310182066335876527
O  11.54846467979031920947 26.14895111057840537683 6.16700719387825113671
O  14.21231681091469845057 24.61569388545805736612 6.16706248852325522591
Si 11.54875150620344292918 29.22899235661006045461 7.82293048210200314685
Al 11.54934579594089072430 35.38099224659287500572 7.82277635062584320025
Si 14.21419769502375451964 33.84373450997504306770 7.82283205976957063399
Si 14.21389984053673671838 30.76573499797389033006 7.82290934034526852514
O  10.13980912802862555111 29.86414301503131341065 8.40990552642477773304
O  10.14028084227531323336 34.74614303039354723524 8.40978326317326008166
O  12.80525487675923024256 34.47888561364972304091 8.40980701475069558626
O  12.80483486202897047690 30.13088549248833913907 8.40991586210313357697
O  11.70259911235183913902 27.68999212067316051389 8.41296980196212196290
O  14.36804476700215182916 32.30473472898675879605 8.41287131633483653559
O  11.54876230568510209196 29.23095090260058270815 6.16693035063985917077
O  11.54935627414515231237 35.37895056397794490977 6.16677636071744306179
O  14.21320796488722493223 33.84569332773368444123 6.16683183448203475763
O  14.21291019302364766475 30.76369349861444035810 6.16690897570679030792
Si 11.54964334286807492447 38.45899207809007691594 7.82269886419812987555
Si 14.21479182459999357491 39.99573457669404064063 7.82267712988100605287
O  10.14070098724620372366 39.09414296695718604724 8.40967387777073582811
O  12.80572673940374350821 39.36088551837254811971 8.40968416065389590131
O  11.70349087851281311146 36.91999208059221615486 8.41273860891252134309
O  14.36893718778362760702 41.53473455712723705346 8.41263927644128628458
O  11.54965410698871330908 38.46095034695952108450 6.16669881940114450458
O  14.21380227472890034335 39.99369288674952827023 6.16667717677192150916
Si 16.87745390456026228776 26.15047761048240460013 7.82304130790422025399
O  15.46838899844390624594 25.51562837332062372298 8.41004824079172763618
O  18.13336275101843497737 25.24837058433304193272 8.41007177117972481994
O  16.87746415393468879529 26.14843622901775432865 6.16704135748910609038
Si 16.87775123659143972077 29.22847756301644395194 7.82296448207916927942
Si 16.87834581643422637853 35.38047718014942688569 7.82281033173869921882
Si 19.54219697926959398160 33.84322010942336333983 7.82286558716871738284
Si 19.54189956347213552590 30.76522001841572517833 7.82294276103652563847
O  15.46880887843874496923 29.86362821242862963800 8.40993949712292021559
O  15.46928036445751430961 34.74562859583369345273 8.40981711312634416799
O  18.13425468790085659521 34.47837082470782377186 8.40984077516261407936
O  18.13383459140015929734 30.13037082588959592044 8.40994983079401769999
O  17.03159886042291759622 27.68947743181765375198 8.41300386887260209789
O  19.69704456903932054956 32.30421987037335185278 8.41290517008503968555
O  16.87776192557879539891 29.23043613175222077416 6.16696436448217610860
O  16.87835593450541438187 35.37843584894447701572 6.16681023695248597960
O  19.54220750505833592570 33.84517860815777368089 6.16686553331887665763
O  19.54190970999227516813 30.76317845045648624591 6.16694281316512160629
Si 16.87864310703867332109 38.45847738199383059055 7.82273277512584641613
O  15.46970085048933896132 39.09362819127028387811 8.40970792136522504734
O  18.13472631340459173543 39.36037116725763951308 8.40971797449884306275
O  17.03249067460954790931 36.91947738038755488788 8.41277247364618219194
O  16.87865370988666313679 38.46043573677152949131 6.16673271601271011377
O  20.79780834092173336103 29.86311288081815717987 8.40997325164483200410
O  20.79828007401270184573 34.74511392362498440889 8.40985083113530329513
H  4.07465742806036335111 24.98677204362073567268 8.03659115404760981960
H  1.41040897041839130566 29.60201496768005213767 8.03674925745253254661
H  1.41040900988602047050 35.00798498773006883766 8.03674926217235707782
H  4.07465743680749170608 39.62322797130397589171 8.03659115966295978239
H  8.94818084749209319284 22.17325470658354902298 8.03830168964465308079
H  8.94818087927771799173 42.43674530218110163560 8.03830168078774853768
H  14.27776169748756451838 22.17320385299426988013 8.03828218832939356275
H  14.27776173001680604102 42.43679615406293237356 8.03828219497130724847
H  18.96055658533344256966 24.87622777412109797979 8.03640577884923423824
H  18.96055653401187512941 39.73377222707087952358 8.03640577872585026853
H  21.62471722957341668803 29.49141993044412757285 8.03658340844664387248
H  21.62471723318525462787 35.11858007542185333705 8.03658341032218714872
H  13.39922797155438161099 34.28531246326215864428 5.85463175517128320280
H  10.85603170679031848067 34.89218233338575458902 5.71721596068302773119
H  8.79316678023673503617 32.97374190354881307030 5.76219940759731663604
H  9.66357961640684237636 30.35160701525754234353 5.76895568172467410051
H  12.30629750371224595540 29.68608882880344879140 5.77123880931516008985
H  14.17430146621549269526 31.65300279136887340314 5.78286318352415307231
H  13.45700859350207956311 39.52750482985482705089 5.78093078858626885363
H  10.82185198513286294997 38.95872177501426847357 5.76976940801797155700
H  8.14980839584032423772 39.50861002858307813312 5.76627385358457278386
H  6.23194667482314113016 37.58116492146429976628 5.76471310409006765241
H  5.44704955327796547238 34.95093754194252966272 5.77257541018422148937
H  3.60664935983164980371 32.96826993152299678513 5.76388710666253345494
H  4.32819223300304223301 30.34484056226575532378 5.76402041703303247289
H  6.20754698637012314322 28.34935899565356720586 5.76818374216420437506
H  7.00943285591761622300 25.75772182294050693940 5.76748914510444876669
H  9.64047060861620153105 25.06526887673225090225 5.76511829275655429683
H  12.31477063377311864656 25.70825778397845340351 5.77188275843169407153
H  14.95393929826883550049 25.09100721816973944556 5.76597661926201965343
H  16.85170393376551700726 27.02666099198509996882 5.76146800061755470779
H  17.64768340391429291003 29.66420704252936246803 5.77142433851001523948
H  19.48180900550075023148 31.64168672120758074584 5.76490010389802343127
H  18.77140969005726844898 34.27358368061150173389 5.76790924621386302817
H  16.89481963334520031594 36.26079389040940270661 5.76914703095595626792
H  16.09152696923264258544 38.86028470173488358341 5.76951241552092497500
P  17.34045858806842943522 30.71143218270763242117 11.00113703677001097958
O  17.00860545070591811623 29.32736495681610833230 10.53136020089785773735
O  18.70205977394036267469 31.05113812334227674228 11.46442888495200307375
O  16.80191254780912046840 31.82954194335573205876 9.94393512530787404557
O  16.31372528246223296833 31.03779112519400840142 12.28347977264319368373
C  14.94134648382568641978 30.95113805962131792171 12.04011364971104924848
C  14.38201984674451594515 29.55144120529331530633 12.35498749381354244292
O  13.16234075402026171275 29.64680605466401885906 13.11092933249770808857
C  14.07313325163076633828 28.67375147426156445363 11.12316700688757364901
O  15.06492777268836924520 27.73293925951420746401 10.86013265989427623026
C  12.78014036657710938982 27.93342782941629565130 11.52114568516589088176
O  13.09660764192809878637 26.70718581077025888248 12.12953149589943535602
C  12.13819078720882238542 28.89262948837442124272 12.53266831248554780132
N  11.14945124127570608152 29.76804589977470527629 11.93266369748331356959
C  11.34808314657308692119 31.01332790785536985823 11.38778868624545737021
N  10.25339685464361139111 31.62754925254865412398 11.07263029757255878849
C  9.24720017293037344075 30.75566809905016896209 11.38315726398252536455
C  7.84948191315135623825 30.81171493976480846300 11.26781351682609155773
N  7.20025969026785528371 31.91752534277471653468 10.82984254426953363293
N  7.13834988161524819361 29.76037053343414484630 11.69323310353870581935
C  7.78425592179134362425 28.71737948752886993020 12.19286633286681542643
N  9.08002201879099857251 28.53829496075002936095 12.36068498312051566757
C  9.79915294312559304046 29.57973125435374583958 11.92937253517166240613
H  17.42857115918714683289 32.54772758280346778292 9.96316856296122210779
H  14.45367126314930672493 31.66450351608248325874 12.71830543652547085287
H  14.72761655143385617350 31.22713513617302183434 11.00225623946157682553
H  15.12036303685528437768 29.03711208177330505009 12.98617308328759989422
H  13.88334880346080169033 29.31023805705981999381 10.25589726756055952706
H  15.89263629582562487030 28.27435380937551911984 10.65547793408131305171
H  12.11838084754514355268 27.76697781854049651429 10.66548266235649933265
H  13.98580094778626126129 26.51120650642814879916 11.77549380633813314034
H  11.61457535880774827319 28.32558880863237504855 13.31562616762222539535
H  12.32628155929175051142 31.42872087505687872522 11.25971551560759209565
H  7.77411060396799236116 32.55761411325631371483 10.29961500886677328026
H  6.26076176929243199965 31.77025906688806600187 10.49760096750359750217
H  7.15408448723918422019 27.89852406875647261586 12.52001745602621696207
