162
5 Eopt=-407.5369476228 (Eh) Einter=-20.932321 (kcal/mol)
Si 3.55625018837084461154 33.84481352237069984312 7.82283052355043562187
Si 3.55593639417478257769 30.76681374909467336920 7.82283149557598811441
O  2.14730565258402528173 34.47995712381360533527 8.40980825099974893533
O  2.14686231990360454347 30.13195801638390136645 8.40980966043557742751
O  3.71008409182756526690 32.30579812165868247575 8.41283351048562622054
O  3.55527628948953555721 33.84681297644051056750 6.16683050681132538529
O  3.55496202328117227864 30.76481349814618582172 6.16683148092664357165
Si 6.21946585182081346233 26.15154206547244797321 7.82287394205621566812
Si 8.88330922580066406624 24.61427034221618725951 7.82291554295733426727
O  4.81039181920441816231 25.51668623387381984458 8.40985212654779523689
O  7.47536479159326372468 25.24941400813899861078 8.40989357645144686160
O  9.03814384239129609000 23.07525463884190486397 8.41291806281602205786
O  6.21949137445829780546 26.14954191183396758902 6.16687394250140119567
O  8.88333532758132626839 24.61627018131178346039 6.16691554143865428017
Si 6.21977960320930023386 29.22954198889177845899 7.82287340523263985403
Si 6.22040680987387517575 35.38154190051047010002 7.82287174674175300737
Si 8.88425016913457810119 33.84427047965810686492 7.82291374166677133672
Si 8.88393626909397937652 30.76627031684018476199 7.82291460453655940199
O  4.81083522054264900447 29.86468585867935843225 8.40985130297417171619
O  4.81133301751786746081 34.74668570094350172894 8.40984983651799211657
O  7.47630564973362776726 34.47941371790130205000 8.40989156645043500760
O  7.47586238956636339736 30.13141403673524010287 8.40989279908250964013
O  6.37361355218141234502 27.69052643050837048122 8.41287612235470128041
O  9.03908398806576052209 32.30525459896283280159 8.41291667910832074995
O  6.21980562022518235210 29.23154162456486560018 6.16687340493474778214
O  6.22043262568462296258 35.37954120495801646484 6.16687163658115888865
O  8.88427616309149748020 33.84626964211314970044 6.16691377685305130996
O  8.88396189392726753908 30.76426992885363986829 6.16691461226397219519
Si 6.22072060538052262757 38.45954157841582343735 7.82287048344685764789
Si 8.88487751381975598974 39.99627007981929693869 7.82291135795407210907
O  4.81177610625829466073 39.09468496951329541389 8.40984813994911206692
O  7.47680355964744691732 39.36141388393906481724 8.40988966390928283090
O  6.37455488175704054754 36.92052624495329382626 8.41287343076622562421
O  9.04002568960242491869 41.53525449228354204934 8.41291308372573531926
O  6.22074682572978421291 38.46154081234983124205 6.16687043716218230571
O  8.88490322138076393799 39.99426934882532691518 6.16691135376921639732
Si 11.54846575560219257284 26.15099867925633958521 7.82295698222951596534
Si 14.21330911517978279335 24.61372707285234895380 7.82299879684381238576
O  10.13939192879411699266 25.51614235518550799497 8.40993508425253288863
O  12.80436466475346968252 25.24887074085531679657 8.40997670755352366712
O  14.36714371844782789367 23.07471152264264446785 8.41300136402081122355
O  11.54849138177237577452 26.14899848636620305342 6.16695698260632596543
O  14.21233531244604542110 24.61572701467508750284 6.16699878113707278260
Si 11.54877946131779431482 29.22899861705221979946 7.82295650472930681474
Si 11.54940671941391450162 35.38099862339561951785 7.82295479720912734223
Si 14.21424995760802900691 33.84372691531752508354 7.82299680956024179324
Si 14.21393602808849898622 30.76572695638378007743 7.82299768471877587928
O  10.13983509575818864334 29.86414239275268656115 8.40993441696363674964
O  10.14033293860963880206 34.74614225937487077545 8.40993309586890092078
O  12.80530554287473243846 34.47887061310404277492 8.40997468425859651120
O  12.80486220250005224841 30.13087072176119463052 8.40997590967202945933
O  11.70261341784486930351 27.68998304559908518740 8.41295918390461139325
O  14.36808379384168077308 32.30471137618822297100 8.41299968625394889443
O  11.54880548613330226715 29.23099828704547675784 6.16695650508289094915
O  11.54943233963083315530 35.37899791904492019512 6.16695480227954728747
O  14.21327586006493959303 33.84572640787250463745 6.16699678516037774756
O  14.21296158949921384362 30.76372664742850204789 6.16699767051835934240
Si 11.54972076291257288005 38.45899826876087956862 7.82295361628714847058
Si 14.21487766296521471077 39.99572685084762468932 7.82299453204245498483
O  10.14077628977129386101 39.09414232895345264751 8.40993138382825655697
O  12.80580331004594896172 39.36087079432802227075 8.40997272684976593382
O  11.70355454297604325120 36.91998302526297948134 8.41295661882271694765
O  14.36902545734455038939 41.53471114033337130422 8.41299609370637035966
O  11.54974662354755032823 38.46099772829099094906 6.16695359276917276503
O  14.21390293617538880255 39.99372599892186030957 6.16699440031740131474
Si 16.87746539953229785169 26.15045546517553987087 7.82304011479595118317
O  15.46839169466690044885 25.51559922186945783551 8.41001837203322821779
O  18.13336401829950617071 25.24832717949597693519 8.41005977549980165975
O  16.87749085146579020034 26.14845510358135882711 6.16704011562664167201
Si 16.87777917715725095604 29.22845538475631954611 7.82303947869537630311
Si 16.87840650308387679956 35.38045526258511586093 7.82303765291439923146
Si 19.54224959173097531107 33.84318370430783318170 7.82307944156629719856
Si 19.54193571794188599711 30.76518363242735887297 7.82308037308559178769
O  15.46883485911121525191 29.86359915454238134203 8.41001744368984027744
O  15.46933269281428025010 34.74559912857196763980 8.41001600959344663977
O  18.13430534232654522953 34.47832742311346265751 8.41005747752723920030
O  18.13386197183827874824 30.13032741265601188729 8.41005879152738167193
O  17.03161313489137995703 27.68943984298979188452 8.41304221916668026893
O  19.69708355253524700856 32.30416803685954363345 8.41308232304238678978
O  16.87780511103147418339 29.23045500101357418998 6.16703947997038692819
O  16.87843199491173606930 35.37845465846891102046 6.16703765282814053705
O  19.54227536176723134531 33.84518324212891116076 6.16707943860713037054
O  19.54196109144692528048 30.76318307697679088619 6.16708037236899464517
Si 16.87872056440007639821 38.45845545424958089598 7.82303652993877385313
O  15.46977589722758139601 39.09359863843106097647 8.41001426390269024580
O  18.13480301165373020922 39.36032777687501749142 8.41005551646394877707
O  17.03255432090688614721 36.91943976525992354709 8.41303949201826739568
O  16.87874620172742012869 38.46045453910585365520 6.16703645315457116283
O  20.79783428817276913492 29.86305522922278399278 8.41010005960973749950
O  20.79833211802321102368 34.74505628412266133864 8.41009857332249488593
H  4.07465742959493493203 24.98677204108059157761 8.03659115487376851661
H  1.41040896889830236205 29.60201496926546838040 8.03674925621510993778
H  1.41040900572364513721 35.00798498314961904043 8.03674926084161356243
H  4.07465744001326779511 39.62322797547680153230 8.03659116204507562031
H  8.94818084719643991320 22.17325470611314131020 8.03830168974601733112
H  8.94818088026654834266 42.43674530300145875117 8.03830168111150378252
H  14.27776169753014379182 22.17320385292775952735 8.03828218835422170230
H  14.27776176188056389549 42.43679616715430569229 8.03828218476154710004
H  18.96055657960028995035 24.87622777806803497924 8.03640577903133745963
H  18.96055653670634910668 39.73377222408146991484 8.03640578055051690853
H  21.62471722974710530707 29.49141993139616246822 8.03658340902989287713
H  21.62471723507557541666 35.11858007454284802407 8.03658341043058221942
H  13.43954241131666549336 34.27033906712679112161 5.76911863067098895641
H  10.79702478500649753812 34.91824967722160977246 5.76839602438552212504
H  8.90770700187112396407 32.96594597188566666546 5.76499475101805636257
H  9.65945432624430999624 30.34299409101862465832 5.76888004981077262556
H  12.30259136199988923011 29.68912269746807552906 5.76803922563153470549
H  14.18560353550311781134 31.64418152124556726790 5.76552258439532305800
H  13.46208431332027188887 39.53603767027414050972 5.76468153801680571746
H  10.78553468678991222873 38.90473307049930440371 5.77122838684156036493
H  8.14831461442522098082 39.50994490283179061407 5.76699955053052359943
H  6.23317384863125489858 37.58286575441943710985 5.76180503653320741364
H  5.45415702201456653597 34.93908510703117542562 5.77152547817270011876
H  3.60566386894034618393 32.96814933208308673329 5.76410508800360332771
H  4.32812544115846353776 30.34544671558801098854 5.76331957717331544444
H  6.21212642425992367379 28.34933201795213264518 5.76816829133324215917
H  7.00946743372198621813 25.75759721962167247966 5.76754704175134413902
H  9.64012207136760146398 25.06582757791873206088 5.76488469586435403613
H  12.31500792564943758123 25.70853944701774551618 5.77192568459140264991
H  14.95343799046209198877 25.09203406454160045769 5.76610003219589106749
H  16.85241664026586150271 27.02653749606614042023 5.76116217504405625505
H  17.64630213730474395106 29.66655897918050044382 5.77122747411973158194
H  19.48194552371979781924 31.64158903530000088722 5.76482831446892163285
H  18.77355784214870126902 34.27390176149904732483 5.76498788548969365308
H  16.88031298400663615666 36.26100720306116897973 5.76894103405726355049
H  16.09309775417261079156 38.86024085905182090528 5.76722976281821608779
P  16.92389995899817378699 32.49577777722704752250 9.99913440452530721814
O  18.06421445381196377866 33.10540851432568842938 10.71820149183222881106
O  16.83454442276804741141 32.34417375601346122949 8.52116647661435067107
O  16.61508501824265238156 31.04949336824156347348 10.69720905041647895928
O  15.52824398809438655178 33.28869461069029256350 10.58553358436255109609
C  15.73703655152691993635 34.17131560365402975776 11.62883866324685300242
C  16.03513557888733132017 35.59181118222026185549 11.12245992228946711577
O  14.97570791379674304267 36.22293533642652363369 10.39530824640265471714
C  16.34173946937423593795 36.61075941919666121294 12.21222348699679827178
O  17.09332120755363604303 37.69998579976041241935 11.71214524781979804402
C  14.93121124393640997141 37.12702508990353322815 12.59070973118536329594
O  14.97405182909872678465 38.41236084263991301668 13.12825768277280502616
C  14.20151589945651693370 37.03789483084618439079 11.21779896734827985938
N  12.84527973567463021709 36.54683547709332458453 11.30586777910719575857
C  12.40297099796830160301 35.25391349131216855994 11.20198458785239736812
N  11.11013289972497020131 35.14272353808334514724 11.18694992949044753061
C  10.63913958411153082295 36.42884244030896923050 11.24550407669584117798
C  9.36533753236842692047 37.00185367316142759364 11.13092328521187113211
N  8.23834795931472818609 36.25755316533659566858 10.96603647634791478538
N  9.25437398236164199261 38.32897640450928378186 11.23496056596493097857
C  10.35565233719144373481 39.05179455751508044159 11.36909140486746316867
N  11.61034667879384585376 38.64900159905552357031 11.40334435734802021045
C  11.72416785900654367936 37.32271239166478693505 11.32426887327511089154
H  16.08840964887642854819 30.57166307227786816725 10.06326747688084566335
H  14.85661366241182612669 34.15798101427789390527 12.28623629331967848088
H  16.62637758447570845988 33.85752257764966088871 12.19178829614314807372
H  16.86803608270846766004 35.46684773686774150292 10.42831411962658982873
H  16.88518696270375940571 36.20122401569419423595 13.06566850007057212224
H  17.00091001292826575764 37.70219518422463522711 10.74891634524203709589
H  14.44641045149222335908 36.47712261074878625777 13.32425765061139344425
H  15.70682647184708358168 38.85896427637643313346 12.67051531741529402098
H  14.11778963455162205776 38.04471063531322272411 10.77580786859227401919
H  13.07804323618270281315 34.42873350594165060556 11.09844842693641808751
H  8.39917359583734857154 35.32843238504914751275 10.60832092239001589462
H  7.44946264388372103582 36.74837578675470695089 10.57433713227591098871
H  10.20009638081765146467 40.11987102070190047698 11.44627658987128882018
