66        
1GID
P 31.280001 47.716999 65.418999
C 32.737000 45.550999 65.578003
O 31.624001 46.292000 66.031998
C 33.015999 44.421001 66.529999
O 33.174999 44.955002 67.859001
C 31.877001 43.446999 66.693001
O 31.959000 42.541000 65.612000
C 32.206001 42.807999 68.035004
O 33.185001 41.814999 67.940002
C 32.799000 43.983002 68.797997
N 30.319000 43.613998 73.228996
C 31.169001 42.789001 72.612999
N 31.782000 42.942001 71.461998
C 31.443001 44.116001 70.911003
C 30.590000 45.061001 71.427002
C 30.011999 44.782001 72.636002
N 29.173000 45.601002 73.238998
N 30.483999 46.146000 70.574997
C 31.266001 45.834999 69.573997
N 31.875999 44.619999 69.714996
O 31.205999 47.646000 63.939999
O 30.136999 48.226002 66.194000
P 30.784000 41.487999 65.349998
C 32.389999 39.450001 64.939003
O 31.389999 40.069000 65.730003
C 32.786999 38.139999 65.578003
O 33.092999 38.414001 66.962997
C 31.648001 37.153000 65.696999
O 31.483000 36.414001 64.510002
C 32.113998 36.280998 66.844002
O 33.151001 35.410000 66.445999
C 32.698002 37.327999 67.769997
N 30.184999 36.650002 72.237000
C 30.879000 35.800999 71.480003
N 31.490999 36.015999 70.316002
C 31.326000 37.285999 69.924004
C 30.632999 38.275002 70.595001
C 30.040001 37.924999 71.809998
N 29.334999 38.770000 72.566002
N 30.663000 39.458000 69.886002
C 31.372000 39.167999 68.821999
N 31.822001 37.881001 68.792999
O 30.524000 41.514999 63.896000
O 29.698000 41.763000 66.318001
P 30.011000 36.009998 64.031998
C 29.987000 33.724998 65.283997
O 29.464001 35.039001 65.174004
C 29.225000 32.919998 66.300003
O 29.606001 33.297001 67.635002
C 27.733000 33.063999 66.254997
O 27.236000 32.118000 65.342003
C 27.351000 32.755001 67.686996
O 27.412001 31.379999 67.987000
C 28.457001 33.507999 68.415001
N 26.636999 37.768002 70.679001
C 26.753000 36.495998 71.124001
N 27.249001 35.430000 70.507004
C 27.662001 35.763000 69.272003
C 27.613001 37.012001 68.679001
C 27.077000 38.056999 69.428001
N 26.988001 39.321999 68.963997
N 28.128000 36.966000 67.396004
C 28.466000 35.712002 67.240997
N 28.202999 34.931000 68.329002
O 30.285999 35.256001 62.778000
O 29.141001 37.201000 63.999001
