33
Coordinates from ORCA-job ump_geom E -1477.563271534425
  N          -2.20041006160673      0.21882627682402     -0.27080043994421
  C          -3.54620809074658      0.40918333908599     -0.50006425944762
  N          -4.36571262912021     -0.50707717005307      0.09916409232983
  C          -3.99580710916250     -1.58206567745806      0.89640642754956
  C          -2.57477391730178     -1.70532984864315      1.07315573860056
  C          -1.75007247498907     -0.81602259065470      0.48829702510145
  O          -3.96780434853632      1.32652148190445     -1.18199697433242
  O          -4.85182156655252     -2.31643311641578      1.36819823229992
  C          -1.29413359942774      1.18874288225723     -0.91890390260693
  C          -1.26741774302239      2.54127664148299     -0.19570124951543
  C          -0.04909143578542      2.36223499310841      0.71090694211343
  C           0.88146783929283      1.54447832720090     -0.16913595311703
  O           0.58380541241334      3.53523665315413      1.13356534703852
  O           0.00808348555721      0.68853089136855     -0.91519589833109
  C           1.87585372718372      0.73230518603606      0.60803336771529
  O           2.73747031699805      0.05840943417487     -0.28909568587954
  P           3.81361115587108     -0.99750000517957      0.31822667565778
  O           4.49445344560103     -0.39964249159594      1.49875431437629
  O           2.86160079955603     -2.17197312665066      0.90958501503682
  O           4.57769738199890     -1.49620173528064     -0.85683801216250
  H          -5.35617197053076     -0.37387227004756     -0.05952004364165
  H          -2.18567267089177     -2.51806091141447      1.66778591723504
  H          -0.67512494126065     -0.88152502330143      0.57683664377480
  H          -1.65402323187972      1.30898342223668     -1.94213387612273
  H          -0.35671546476035      1.74872935489433      1.56811260030644
  H           1.40797698731672      2.20885784989214     -0.86393898546605
  H           0.06009310588251      3.93078186031296      1.83762659055132
  H           2.44659953226398      1.40978865945457      1.25176237025934
  H           1.34929780147662      0.01513553527717      1.24778308566012
  H           2.48135774269918     -2.70363457724151      0.20101224880845
  O          -1.01150408837004      3.58172671436152     -1.10277732751399
  H          -2.18723449292320      2.71435311781066      0.36821899555321
  H          -1.80410889724339      3.71651592309887     -1.63294902188695
