162
Coordinates from ORCA-job /data/Seafile/amp/frames/frame12/dry/amp_frame12_dry E -13464.315662820502
  Si          3.46021966258212     33.87248474202775      7.85876293513538
  Si          3.46996390044555     30.76771535473981      7.87625464026106
  O           2.22895857614278     34.76039747154120      8.48111086582817
  O           2.23885381502849     29.86097240114783      8.46053747294994
  O           3.36599148043920     32.30427260951924      8.37869078452243
  O           3.33394111073369     33.81110404373488      6.21992344487803
  O           3.47221483572481     30.80342100982549      6.22863661597315
  Si          6.13960004789707     26.17033229010905      7.86133450947320
  Si          8.78079689708224     24.54850842325276      7.86414641959971
  O           4.74217242582166     25.56027525910630      8.43547284179674
  O           7.43879732120809     25.31928708106032      8.37858781817822
  O           8.69774322922173     23.02050613693591      8.43234745343820
  O           6.17721338050944     26.16399373534103      6.21342064008638
  O           8.76272924034587     24.59919114309836      6.21920708799322
  Si          6.14383851978482     29.25248975136397      7.77543083976609
  Si          6.18516932603125     35.53822071163290      8.29961825470250
  Si          8.96962290569869     33.90877785024843      7.76443570104095
  Si          8.90187285059331     30.82966516425411      7.73734059260360
  O           4.87056545029174     30.06738815885176      8.36862738263441
  O           4.83900585452631     34.54047492966696      8.31805725132545
  O           7.65073241284546     34.72740332351808      8.07487613172267
  O           7.51922378526421     30.05476714666511      8.10271472908963
  O           6.23846866990851     27.72237210526309      8.35125027585127
  O           8.88754173597817     32.35133011805886      8.30530304679285
  O           5.89015784986969     29.14605408730117      6.15182218289868
  O           6.01247859498917     35.92255817761730      6.61123704744466
  O           9.28437315366954     33.80562984930625      6.14094142259664
  O           9.07871717765801     30.94432621449020      6.10487369861553
  Si          6.26559990831164     38.68690985361623      7.89928933984983
  Si          9.01691760229284     40.05758635590426      7.87114799753091
  O           5.01148154501325     39.68297140561319      8.27526975848802
  O           7.59457878650269     39.51306987880559      8.43780546480983
  O           6.13651388425530     37.23921664803558      8.61534706950901
  O           9.36155074889010     41.60103653313539      8.28971824935505
  O           6.48262015636538     38.47646483356746      6.28891789743293
  O           9.00613854375370     39.85536962388599      6.23628689766469
  Si         11.47125377382923     26.05073328591697      7.77766329498251
  Si         14.15280813554909     24.54303654322653      7.84880106729053
  O          10.12867485425963     25.33393492842145      8.36759633589183
  O          12.83852003141216     25.36941381572895      8.35248735506610
  O          13.94885627653986     23.01451210919467      8.37985218363384
  O          11.41460375986081     25.77865565074027      6.15516078926614
  O          14.18722474485724     24.61642713405350      6.20401531244753
  Si         11.51021547242046     29.22421836495903      7.73386571995933
  Si         11.66750438864745     35.36562278240282      7.83877334411249
  Si         14.27454889354154     33.77872958174994      7.75110038807450
  Si         14.18129088610494     30.71590208142476      7.71220557914974
  O          10.17518561833246     29.96104848158229      8.30231988463962
  O          10.30604645668022     34.66067173538588      8.37343699609129
  O          13.03835389938304     34.63504419931264      8.37359508528505
  O          12.88804635976247     29.90443336601982      8.29121966506477
  O          11.46093936894383     27.63904853527927      8.11276389719153
  O          14.31781947287979     32.23450991845009      8.28992742011936
  O          11.49470028102670     29.40761983655696      6.09951019094525
  O          11.70343239193109     35.17601527547971      6.20035793969172
  O          14.04996465472711     33.67570766129207      6.12532454647884
  O          13.95144477918372     30.83385667607371      6.08596554744050
  Si         11.67347063845839     38.54031649559042      7.85670266806236
  Si         14.36257012725748     40.04318430134705      7.89009030318435
  O          10.30627904211467     39.20524179710721      8.43835210893290
  O          13.02250144253822     39.28023722504767      8.43274516113303
  O          11.73266794586688     36.95349667050184      8.21107335240594
  O          14.50304017871155     41.57881145801889      8.42616572575558
  O          11.72611728297318     38.79887262386113      6.23293743897865
  O          14.35947346662643     39.94812902565869      6.24695130029661
  Si         16.87282117350553     26.01478206085590      7.88604905463776
  O          15.52658613793006     25.23919845707259      8.39410682816502
  O          18.15060114736168     25.18261978206123      8.46576258516016
  O          16.81910912001901     26.01336925947771      6.24089127397292
  Si         16.92219028109714     29.08773110981588      7.77164402500895
  Si         17.05014552109430     35.33854374579306      7.79660624678654
  Si         19.67793865870801     33.74732441358287      7.84460239973127
  Si         19.56185561677390     30.65506326499031      7.82302658926659
  O          15.51922797470774     29.84900933699311      8.02174322412341
  O          15.70083982029635     34.49198343844157      8.07829140485382
  O          18.35235084399327     34.53591941927300      8.39574820417254
  O          18.16990838038605     29.97677743833655      8.33933947676374
  O          16.87356419902247     27.57371585749170      8.38530758313990
  O          19.68217679581163     32.19401905495279      8.36890850112789
  O          17.18163128462749     28.85670669360261      6.15892929839795
  O          17.35136433885141     35.43367607438761      6.17812845884274
  O          19.58671844154905     33.68706485334545      6.20521498817126
  O          19.53035477284534     30.71461049883424      6.18029995667715
  Si         16.98884682640659     38.40903533316055      7.84773966849291
  O          15.71499271382871     39.26665651807021      8.39668277833948
  O          18.43495737657312     38.98284916135368      8.34209417800759
  O          16.93928805186428     36.85904847935638      8.36789815486696
  O          16.88439300306148     38.37346965694686      6.20384062616162
  O          20.74409067136527     29.68342810792729      8.37876698693451
  O          21.07805023907437     34.39477347169552      8.37418893910978
  H           4.07465760640598     24.98677208929946      8.03659117686146
  H           1.41040897106356     29.60201496923295      8.03674925618757
  H           1.41040877722834     35.00798500712748      8.03674924745854
  H           4.07465744347748     39.62322796811861      8.03659116012196
  H           8.94818084892175     22.17325469589893      8.03830168668115
  H           8.94818076918331     42.43674538387415      8.03830168212926
  H          14.27776168870690     22.17320385468236      8.03828217691380
  H          14.27776172964667     42.43679616121158      8.03828219181355
  H          18.96055658741506     24.87622777612246      8.03640577908079
  H          18.96055669234576     39.73377209265953      8.03640578624987
  H          21.62471725311730     29.49141994701815      8.03658341381180
  H          21.62471724139253     35.11858007334009      8.03658341077734
  H          13.27239901592099     34.19675813017139      5.84587839479574
  H          10.88330547078580     34.75094412728326      5.88217545661123
  H           9.19330610182227     32.90184691896744      5.80183238454985
  H           9.81783541659862     30.41177577339202      5.77144077714331
  H          12.29732546992529     29.84825890270463      5.77254610196964
  H          13.98980311723230     31.75659572539081      5.77938122940988
  H          13.51137775674756     39.62132287624093      5.90157991833980
  H          10.86760744245646     39.06484275626771      5.86686076281746
  H           8.21193185930031     39.36681792143445      5.94874315922490
  H           6.33435204743131     37.50813359994842      6.11841936927321
  H           5.65715109253154     35.19828553301260      6.09355869193859
  H           3.37301225814032     32.90930045543146      5.87702350223838
  H           4.17205548405640     30.25537462355275      5.84479111820223
  H           6.03449379188572     28.26005373730975      5.79463552368958
  H           6.93812669612714     25.68355744528469      5.85786458591213
  H           9.59314642979869     24.93473183307794      5.84720730574697
  H          12.25870714491389     25.50254714314326      5.77449740951051
  H          14.98684508704553     25.04714198303311      5.86688877600970
  H          16.98024304984389     26.89487124132254      5.86647210712713
  H          17.83043835277627     29.45797585258843      5.77068255777624
  H          19.53921318121688     31.62137785807548      5.83828488677692
  H          18.89051377847830     34.26675930229081      5.85182514415111
  H          17.15534635929088     36.30092313411605      5.79683587066388
  H          16.10057169885962     38.83770930813582      5.87206051433934
  P           7.05795633177851     36.04196305126747     11.16109235464036
  O           7.27999628308360     35.32697237160055     12.42975560388288
  O           6.32118500002176     35.29267683202757     10.05131368642009
  O           6.25250470534621     37.38168142054447     11.44204208654649
  O           8.42235108437883     36.50407762153071     10.46660856169519
  C           9.62912935562484     36.62795451773658     11.19347308246307
  C          10.18090940470231     35.27478267016170     11.61150133416095
  O          11.53455806421169     35.15242092749278     11.17398093427847
  C          10.19292433911181     34.95098583079865     13.12004745842655
  O           9.27770588854530     33.95366645050468     13.46273992905033
  C          11.60847416146942     34.39418884586961     13.35126424934022
  O          11.65050493059961     33.32256005626793     14.23245015872335
  C          12.04145162157632     34.07327620829521     11.91477436108283
  N          13.45095649806272     33.96941471370933     11.69422944191567
  C          14.37145465050695     34.98138781679359     11.60632542778179
  N          15.58941848658107     34.56114385164777     11.39664777437912
  C          15.46864892411480     33.19104062976746     11.34966511121914
  C          16.38642747087968     32.15893725234096     11.11867213401160
  N          17.70381776572572     32.39599217220931     10.93032269858461
  N          15.94567525867063     30.89998516447657     11.10104416962070
  C          14.64317813179261     30.67671552183771     11.29253847715216
  N          13.67742612455530     31.55666083368108     11.50641224847304
  C          14.14530306713866     32.80073193050351     11.52644720924986
  H           5.92758468899713     37.70460595493893     10.58682118681562
  H          10.33768939624614     37.10480187049239     10.51723902087505
  H           9.48441069927563     37.27810036862013     12.06170328830174
  H           9.58669838974463     34.49621350072332     11.11892825783178
  H          10.01897273609613     35.85678043549725     13.71350805104741
  H           8.40039945748541     34.28544021405589     13.16295829739274
  H          12.27054336817902     35.18340686891522     13.72410083520767
  H          10.75235922193519     32.95807605794118     14.23330564053062
  H          11.60394422755486     33.11532744375173     11.60415663391971
  H          14.06752846874859     36.01496765667467     11.67099468290225
  H          17.96282661878937     33.33277312126786     10.67003667286475
  H          18.22878664042052     31.64719166552226     10.51254172524931
  H          14.33914211556862     29.63413533379623     11.25537267736830
