37
Coordinates from ORCA-job amp_prot_geom E -1530.365666090478
  P          -2.36492260170541     -1.41546971811179     -0.34755051392514
  O          -1.75267961455233     -0.74457920815378     -1.54424508113439
  O          -3.40842602464044     -2.44962977329199     -0.44527769773131
  O          -1.12493174510098     -2.03198316500560      0.52202690402234
  O          -2.87579106731033     -0.22202483496550      0.65116253807332
  C          -2.82754228871204      1.09689263308601      0.20962493280852
  C          -1.59003104232852      1.87012387039257      0.69824457307367
  O          -0.46657345648524      1.00152072690708      0.93030840578502
  C          -1.13586625731579      2.85419272966277     -0.36650970511276
  O          -0.50362590263494      3.96914091939484      0.21523088738696
  C          -0.11293075274121      2.00480136986527     -1.12261528125260
  O           0.81230956042971      2.76625009077331     -1.86532789948523
  C           0.56186354548880      1.33660120667028      0.06328934424602
  N           1.34594075142916      0.15753986216759     -0.26299944736784
  C           1.00707542471955     -0.91032781224895     -1.07606914216477
  N           1.95797524091892     -1.81143207875987     -1.14558114291088
  C           2.93553623568305     -1.33117662904800     -0.33519619673329
  C           4.15760320440410     -1.87534934268059      0.02034945309333
  N           4.61354928990282     -3.03810551442705     -0.44678979357245
  N           4.88444113959792     -1.11782789016615      0.88569616614018
  C           4.45048983845987      0.08728387283355      1.37454388783644
  N           3.31859850080161      0.62661834924100      1.07620836612314
  C           2.57387930429424     -0.10208309952104      0.22793656777750
  H          -1.43553616354842     -2.87707127685803      0.85876409236421
  H          -2.86069658592201      1.12371491399681     -0.88330370864100
  H          -3.71279639597140      1.61985501174257      0.58845534314279
  H          -1.79076849497207      2.38507902894540      1.63994754339623
  H          -1.97146179360166      3.16367422950714     -1.00615842493272
  H           0.09545844329367      4.32448369759528     -0.45258685518594
  H          -0.62763737397856      1.24303103345173     -1.71803543742742
  H           0.54966272056812      2.74955318768305     -2.78782307275351
  H           1.27588270287859      2.03304519812951      0.52017563645249
  H           0.00111884188698     -0.95529785235312     -1.52402913796538
  H           3.98174207467930     -3.56881317568506     -1.02615693931304
  H           5.42224527813489     -3.50013027979087     -0.07308904614304
  H           5.13500311053260      0.58146913150549      2.05360258847745
  H           5.79031235341733     -1.44323941248392      1.18790729355311
