126
Coordinates from ORCA-job flower_ring_geom E -11934.388059683119
  Si          3.55624898426171     33.84481286891359      7.82271026541819
  Si          3.55593593089338     30.76681309296314      7.82271042649865
  O           2.14730432052014     34.47995597089542      8.40968828471238
  O           2.14686206386447     30.13195685923630      8.40968854670955
  O           3.71008330730896     32.30579734695533      8.41271283116503
  O           3.55527492950368     33.84681276010455      6.16671024982262
  O           3.55496141752264     30.76481327693814      6.16671041108213
  Si          6.21946651806389     26.15154205988837      7.82275143100368
  Si          8.88331026314210     24.61427097140755      7.82279239916683
  O           4.81039269108631     25.51668572732190      8.40972956951593
  O           7.47536573060395     25.24941415914203      8.40977072141838
  O           9.03814531140104     23.07525516936514      8.41279450230200
  O           6.21949189914879     26.14954234100358      6.16675143085870
  O           8.88333622929514     24.61627126550356      6.16679239972563
  Si          6.21977951710637     29.22954198564243      7.82275170208117
  Si          6.22040533551708     35.38154178245832      7.82275156879437
  Si          8.88424891399923     33.84427087331176      7.82279304742735
  Si          8.88393580387674     30.76627096300151      7.82279308229012
  O           4.81083503001650     29.86468535547536      8.40972988785025
  O           4.81133161042791     34.74668521137585      8.40972971705571
  O           7.47630442560668     34.47941409197425      8.40977116584034
  O           7.47586213523508     30.13141418402213      8.40977122293836
  O           6.37361389303069     27.69052630789968      8.41275400209120
  O           9.03908321624856     32.30525515885783      8.41279551673225
  O           6.21980539177262     29.23154205468339      6.16675170236669
  O           6.22043088125317     35.37954164813461      6.16675156915365
  O           8.88427481157622     33.84627078107824      6.16679304751847
  O           8.88396129476543     30.76427101309815      6.16679308242581
  Si          6.22071840724008     38.45954160640795      7.82275117472613
  Si          8.88487478208301     39.99627074777850      7.82279226663113
  O           4.81177365974065     39.09468447880162      8.40972917706287
  O           7.47680105671216     39.36141400899543      8.40977052973539
  O           6.37455271753757     36.92052610991870      8.41275383804341
  O           9.04002265082150     41.53525502770299      8.41279439166873
  O           6.22074430233684     38.46154124616272      6.16675117449357
  O           8.88490036871746     39.99427043795122      6.16679226720303
  Si         11.54846642539331     26.15099997690361      7.82283401513240
  Si         14.21331016143576     24.61372901923371      7.82287520034607
  O          10.13939280349964     25.51614315724321      8.40981207092384
  O          12.80436560529250     25.24887219026436      8.40985339652681
  O          14.36714518757122     23.07471335119948      8.41287735160969
  O          11.54849191087546     26.14900021882694      6.16683401503635
  O          14.21233621818492     24.61572939455226      6.16687518526964
  Si         11.54877938001024     29.22899991656159      7.82283434623452
  Si         11.54940515902400     35.38099982554686      7.82283426275247
  Si         14.21424870868574     33.84372881953283      7.82287563260303
  Si         14.21393556763951     30.76572890645543      7.82287570482882
  O          10.13983490545635     29.86414319016559      8.40981254366755
  O          10.14033150919100     34.74614317660602      8.40981248201115
  O          12.80530427106473     34.47887214344390      8.40985380386963
  O          12.80486194965492     30.13087217318861      8.40985387993030
  O          11.70261376212535     27.68998422625295      8.41283660779373
  O          14.36808302036189     32.30471321199460      8.41287809299005
  O          11.54880526240854     29.23100002043497      6.16683434656223
  O          11.54943061326126     35.37899967420923      6.16683426313089
  O          14.21327452164168     33.84572881262302      6.16687561720833
  O          14.21296099479528     30.76372903271446      6.16687568951698
  Si         11.54971831960115     38.45899972777682      7.82283387029567
  Si         14.21487464116148     39.99572862585789      7.82287487865343
  O          10.14077385917648     39.09414311568958      8.40981194757868
  O          12.80580096822807     39.36087206649292      8.40985317821076
  O          11.70355260957674     36.91998418555777      8.41283649217842
  O          14.36902248111370     41.53471300141686      8.41287695530324
  O          11.54974417266399     38.46099945446149      6.16683387016742
  O          14.21390016212424     39.99372839481686      6.16687486371792
  Si         16.87746607265028     26.15045806409606      7.82291669784656
  O          15.46839257130161     25.51560132159742      8.40989490556727
  O          18.13336496319156     25.24832993300576      8.40993601710904
  O          16.87749138763825     26.14845813681378      6.16691669795223
  Si         16.87777910148401     29.22845797973240      7.82291687145705
  Si         16.87840491897428     35.38045787022395      7.82291666614445
  Si         19.54224839312936     33.84318695713610      7.82295782550862
  Si         19.54193527787719     30.76518687767155      7.82295794624496
  O          15.46883467250625     29.86360125597592      8.40989512092036
  O          15.46933131814370     34.74560123101027      8.40989497832546
  O          18.13430402809505     34.47833017699657      8.40993615013349
  O          18.13386171617117     30.13033017364582      8.40993631388843
  O          17.03161348165235     27.68944232538380      8.41291919217646
  O          19.69708276041247     32.30417117338815      8.41296029361432
  O          16.87780489233763     29.23045803814119      6.16691687172843
  O          16.87843027386115     35.37845769875626      6.16691666654564
  O          19.54227401788307     33.84518693392524      6.16695782567884
  O          19.54196049771909     30.76318676698685      6.16695794657068
  Si         16.87871809060882     38.45845783390246      7.82291628971104
  O          15.46977370989252     39.09360114145697      8.40989451479436
  O          18.13480052446419     39.36033052913069      8.40993551585149
  O          17.03255241150060     36.91944226033630      8.41291888078055
  O          16.87874376365056     38.46045765330291      6.16691628969195
  O          20.79783410460221     29.86305863642125      8.40997729140290
  O          20.79833074272855     34.74505968851621      8.40997709344308
  H           4.07465743016016     24.98677204173292      8.03659115488021
  H           1.41040896943247     29.60201496988944      8.03674925619147
  H           1.41040900946109     35.00798498389590      8.03674926205353
  H           4.07465743725754     39.62322797164203      8.03659115985903
  H           8.94818084709912     22.17325470753586      8.03830168972051
  H           8.94818087858338     42.43674530257651      8.03830168073974
  H          14.27776169787782     22.17320385373041      8.03828218834542
  H          14.27776172902345     42.43679616282635      8.03828219214652
  H          18.96055658322097     24.87622777372236      8.03640577882075
  H          18.96055653474792     39.73377222671071      8.03640577823740
  H          21.62471722910020     29.49141993110456      8.03658340869073
  H          21.62471723403585     35.11858007463289      8.03658341031467
  H          13.44055821260463     34.27232626529841      5.76922767594893
  H          10.79578493454237     34.92020364454783      5.76845624184974
  H           8.90596916317241     32.96584695758246      5.76508561209972
  H           9.65844452317637     30.34100214696034      5.76899057918277
  H          12.30383952832740     29.68714724968313      5.76810340046433
  H          14.18723712626299     31.64428711948377      5.76560980074921
  H          13.46166190959961     39.53671002502480      5.76467138342806
  H          10.78548778939829     38.90469301007033      5.77123099577719
  H           8.14727468707357     39.51156472888486      5.76692455267923
  H           6.23239602709225     37.58283858177607      5.76180595116505
  H           5.45399974693860     34.93927509370062      5.77157391043018
  H           3.60404607282855     32.96803545850715      5.76411548172905
  H           4.32773146802475     30.34463657002860      5.76336778950249
  H           6.21148204437046     28.34932087170711      5.76816718513434
  H           7.00872232160567     25.75606767254986      5.76753550518006
  H           9.64052462499061     25.06520849882563      5.76489986099570
  H          12.31506701727331     25.70861213918300      5.77191967488088
  H          14.95456118317636     25.09028235455561      5.76605759105132
  H          16.85302265884357     27.02656380292250      5.76114406084444
  H          17.64655980199169     29.66619899638911      5.77128316455518
  H          19.48346011972517     31.64169780999105      5.76479953672211
  H          18.77396126109795     34.27472824950608      5.76504422133201
  H          16.88064804165161     36.26102566927903      5.76893694997131
  H          16.09390894349352     38.86190735542154      5.76725513371496
