161
Coordinates from ORCA-job /data/Seafile/cmp/protonated/frames/frame09/cmp_prot09 E -13392.646793480862
  Si          3.50534924917599     33.90229898044323      7.79455178056226
  Si          3.46286929686620     30.79250410918165      7.80998923067992
  O           2.28785764237139     34.79718980928540      8.39980434766098
  O           2.17353707194172     30.03654319225026      8.45682293471198
  O           3.46759688999756     32.35180067090304      8.32375579448124
  O           3.52278063478532     33.89929778557657      6.15636237003337
  O           3.43523952911469     30.84103666226371      6.17429400674867
  Si          6.14731848156432     26.13592028622691      7.80008409563221
  Si          8.82803314346008     24.54604070991759      7.79276627001570
  O           4.80478859662760     25.48111129935157      8.44653875092389
  O           7.49084228157147     25.34739232849652      8.30835606207285
  O           8.77783791085268     23.04828538991350      8.43223802049887
  O           6.11948882195434     26.14764903245004      6.16264702079269
  O           8.78487818584214     24.54060146698009      6.15719055966620
  Si          6.12732956786627     29.22640664095865      7.70310232724603
  Si          6.17045390477319     35.45782687995077      7.70681120242631
  Si          8.90165498526770     33.86806634907732      7.67803357270381
  Si          8.87133495122532     30.79392496312536      7.65726580794328
  O           4.84672071343994     30.05058960212116      8.30116944845183
  O           4.89453352310926     34.62660678614503      8.29844737541416
  O           7.56063410958000     34.69136763984798      8.09828621445856
  O           7.49755845011909     30.03139835212804      8.08325008310406
  O           6.20650788468746     27.70540028395567      8.29198256313464
  O           8.81552152190273     32.32938772441110      8.22516300257300
  O           5.91403936839819     29.17218494510036      6.08183255990905
  O           6.02319972706282     35.59233556821482      6.08309338869993
  O           9.08334183229851     33.84203707796271      6.05102150939198
  O           8.99729035476732     30.90780016889283      6.03002394947090
  Si          6.19543522758324     38.55309730708748      7.79355335641194
  Si          8.92024358952729     40.06509710350571      7.80670180214385
  O           4.92771746659127     39.35786314379126      8.42556297783361
  O           7.55733747836178     39.30945511958731      8.31272232699106
  O           6.22356877896983     36.98478486824619      8.29121708296846
  O           9.05086383164997     41.55758379129074      8.44160056692220
  O           6.22164190535519     38.58562512540620      6.15801908635071
  O           8.95052157331848     40.07449780482408      6.16924528240749
  Si         11.51542657639286     26.08029398974549      7.69593742408240
  Si         14.19278750674173     24.53817914161574      7.78492197972949
  O          10.16858237316247     25.36371602778732      8.28560941816751
  O          12.87450143772314     25.38922990067891      8.28154877276524
  O          14.02006167241405     23.04003336612613      8.39701100121526
  O          11.46344494224161     25.88818134710711      6.07210906549026
  O          14.19155156930642     24.54274288102181      6.14710603583586
  Si         11.51948228881677     29.23952976038705      7.66126622052183
  Si         11.58118957299166     35.36487555314066      7.73011208314581
  Si         14.22960149388681     33.82134007850262      7.70818704414252
  Si         14.19221639847977     30.75474107842739      7.67128332317565
  O          10.17154337545137     29.97780551655298      8.23335163890631
  O          10.21310194093544     34.65085415909891      8.27655054832577
  O          12.93394324962151     34.63055484558318      8.30143047935842
  O          12.87729185181103     29.95479710309350      8.23694240512493
  O          11.48782540346568     27.66817190483885      8.08840450310022
  O          14.26536117222755     32.27917114662397      8.26730202156901
  O          11.48662106955992     29.40064729902064      6.03352204684833
  O          11.63231459523374     35.20882173781031      6.10078939027443
  O          14.09527067212351     33.72345888912222      6.08108527677066
  O          14.03539208402520     30.82274626636949      6.04534721686309
  Si         11.59691199636537     38.51998645123612      7.73622567909863
  Si         14.27771069108839     40.05873362236614      7.81752912610086
  O          10.23860539429192     39.21780107501863      8.31160890107055
  O          12.94892892198503     39.23215617602559      8.32496010639430
  O          11.62137269677265     36.93870050807089      8.15198607421524
  O          14.27937317515416     41.55616126518296      8.45434209794383
  O          11.65683951123345     38.70064869335985      6.11196535817338
  O          14.32998869949746     40.04685289665029      6.18254858145265
  Si         16.90544227021090     26.05912669101080      7.80352558475729
  O          15.55627008818291     25.27779003581811      8.31440291129659
  O          18.21316028598461     25.33994670009571      8.45350367866870
  O          16.87682322393763     26.00804407924827      6.16816988196380
  Si         16.91292515827952     29.15055709248178      7.70746505981634
  Si         16.97039107666720     35.37764922243628      7.70700915778644
  Si         19.64048542193388     33.81486571090266      7.79207566139494
  Si         19.58208207772141     30.69914520695412      7.80930844280086
  O          15.52900857946508     29.92565128516809      8.08835508653221
  O          15.61043280859464     34.57340020156555      8.13155382007498
  O          18.27070161268873     34.57701584232888      8.29199092556885
  O          18.18374805944897     29.98328877308599      8.33962345543688
  O          16.84560051157482     27.62879450653221      8.29489851916620
  O          19.61952477390966     32.25483306771956      8.30904902788212
  O          17.10258826748721     29.02909844656397      6.09192822417635
  O          17.14909970463625     35.39452608172621      6.08071048124783
  O          19.65037847668757     33.77372807134915      6.15703121941918
  O          19.53822666287706     30.65783117371272      6.17340273458873
  Si         16.95231498952355     38.47859448275231      7.77988583228928
  O          15.62155343436102     39.26629199950955      8.33967045226898
  O          18.32889457533215     39.08782186517964      8.39614104071025
  O          16.89919515989406     36.90892513249940      8.26431611683089
  O          16.92658126916288     38.50033286196064      6.14557879248105
  O          20.80250504209385     29.82754301314963      8.43346856109610
  O          20.97395051764222     34.50459542629508      8.42193481009549
  H           4.07465747678868     24.98677207572507      8.03659116125536
  H           1.41040897923920     29.60201498418833      8.03674926073589
  H           1.41040863656436     35.00798513495773      8.03674920455258
  H           4.07465743794570     39.62322798045442      8.03659115949497
  H           8.94818082338055     22.17325481378989      8.03830170232975
  H           8.94818078488689     42.43674520813700      8.03830168801603
  H          14.27776171662690     22.17320385512561      8.03828219283167
  H          14.27776173258336     42.43679616908673      8.03828219118673
  H          18.96055666862367     24.87622772880437      8.03640577147791
  H          18.96055645165685     39.73377215127591      8.03640579952553
  H          21.62471759522064     29.49141981134134      8.03658337380742
  H          21.62471723515122     35.11858007559572      8.03658341051327
  H          13.32333214063201     34.19171468703613      5.72225095766702
  H          10.84467019412419     34.78700200496031      5.72057290890150
  H           9.05046289863673     32.95335024027220      5.66375454262284
  H           9.75943617124232     30.43730328269795      5.65689987240096
  H          12.27087845419921     29.83386507039785      5.66113827878550
  H          14.04924062770174     31.72357585143875      5.68399633069163
  H          13.52366590524321     39.72360969878024      5.75526103345166
  H          10.84923402153287     39.05088666223279      5.71086948652352
  H           8.18957261221188     39.65459204155051      5.74615621760182
  H           6.10497771909858     37.72256092317173      5.73585562989024
  H           5.31840560763626     35.05626500289350      5.69294533305209
  H           3.51263305517818     33.01893072519140      5.75546887348012
  H           4.10736488246245     30.29194923480136      5.74549424273405
  H           6.02789932471663     28.29807700171188      5.68373135819123
  H           6.85427350388936     25.68360012670681      5.73965623883450
  H           9.58606319335740     24.87853090994360      5.73233225020675
  H          12.27426067521996     25.54123737763459      5.67512460413322
  H          14.95338545090985     24.98253986325858      5.74493414723950
  H          17.04002267456626     26.85422790831066      5.72929435080233
  H          17.82363161637312     29.56283104366791      5.72507085597796
  H          19.57433861070691     31.52232678657997      5.74164825880853
  H          18.94740563310010     34.29193090146150      5.73918646331761
  H          17.00843310572465     36.24960227749160      5.65396646339445
  H          16.15629871156961     38.94188960012041      5.76040568490766
  P          17.26186567966760     31.29424860965103     11.98031776933315
  O          13.33904920781361     32.16854196832351     13.16390366053733
  O          11.09578283388180     30.41200081315811     12.44426440846313
  O          10.63480082954326     32.55887545268347     10.99859490365847
  O          15.79145588798899     30.92076055663725     12.56346165688572
  O          11.56620072070538     35.22680391164643     11.16284455951596
  O          18.11507138786367     31.46461740151743     13.18495010238185
  O          17.13632313307005     32.37400130559377     10.95954993452210
  O          17.67485579295573     29.91746470467955     11.23269246403314
  N          13.41749166097273     34.21533168485611     12.01969656342233
  N          13.52993898008671     36.35291707242398     11.13221269056200
  N          15.47835983610253     37.57561317732767     11.07262021991293
  C          12.16937378046695     30.83857823273373     11.63942667031817
  C          11.98835971297975     32.29865338132102     11.22442124243987
  C          13.42516608259496     30.90207247497608     12.48281993010028
  C          12.57515356531017     33.05824918277335     12.43027879354398
  C          14.69926451668309     30.79503600242653     11.67670192421750
  C          14.74223209750862     34.27298481038802     12.27810029780473
  C          12.75417617494638     35.25648905928765     11.42106706213272
  C          15.49151027001715     35.35893736468726     11.97827833968558
  C          14.85406133448978     36.46429194455293     11.38191897393192
  H          12.29417183904919     30.18856107684138     10.76837105099163
  H          12.58741556993394     32.50168932362558     10.33086330812992
  H          13.41530856716019     30.13558529356710     13.25924828389954
  H          11.77626899930996     33.47641678319368     13.04833953733998
  H          14.74689639759133     31.57660644313836     10.91110466017240
  H          14.72005230278430     29.82105300013137     11.17442063525834
  H          10.30360591687586     30.85188202034158     12.10744072009869
  H          10.54791080358149     33.51427578930858     10.86692443119310
  H          15.16251132362452     33.39328917357656     12.74461693028614
  H          16.55127415717201     35.38034645035459     12.18012284694157
  H          16.47004978741946     37.64593560494112     11.23531911980857
  H          15.03020956844164     38.32964973120892     10.57456255587983
  H          17.85077901666413     30.07223951565100     10.29322574275606
  H          13.03125843950683     37.11920596407115     10.69643364584807
