163
Coordinates from ORCA-job amp_al_frame16 E -13418.097311264244
  Si          3.45815913719014     33.84838697245132      7.83142282366877
  Si          3.47305906723485     30.74885743138530      7.83111719020989
  O           2.22087696431298     34.69291584743864      8.46636463215624
  O           2.21375467082834     29.93701130379136      8.46879123772545
  O           3.45088568127780     32.29919034221336      8.36254625788960
  O           3.44557019538261     33.84877472839247      6.19273526498637
  O           3.43988021096085     30.82452357288321      6.19604559498756
  Si          6.15263588580924     26.09814681245312      7.80952464169872
  Si          8.84009640605340     24.53548193234015      7.79157171698855
  O           4.84536672819076     25.38824019323605      8.46899618103219
  O           7.50923090989779     25.33706441563402      8.31467322514545
  O           8.80149285515098     23.04436410641030      8.44648293318319
  O           6.11163185658638     26.11450728052325      6.17226685395711
  O           8.78410128680884     24.51060037721248      6.15670966231759
  Si          6.12316742315183     29.18211605069758      7.70335074284144
  Si          6.10684839471565     35.40494306563753      7.68870203923996
  Si          8.85653525857003     33.83603284728466      7.59819844735892
  Si          8.85744309278665     30.75158404275231      7.60831558478778
  O           4.86367180422238     30.02481652141120      8.31775276877130
  O           4.83469766824097     34.59340477569697      8.31933137434182
  O           7.47414356789226     34.61076967350616      8.04395812191106
  O           7.50500218422414     29.96336609126068      8.06458857666245
  O           6.18304051968930     27.66501339006394      8.30175485047809
  O           8.77336044718877     32.28123355306330      8.15407094714301
  O           5.87891120117907     29.12079640794450      6.08599468142412
  O           5.89708416891242     35.55308951269738      6.06937008151528
  O           8.92191863360446     33.76333401368398      5.95906679866102
  O           8.95444716433034     30.82326361491780      5.97305681030813
  Si          6.14734509959490     38.49469460276164      7.74713715549347
  Si          8.85323599847726     40.09326325377594      7.75102948219980
  O           4.91997622568017     39.33259368663370      8.42496050287295
  O           7.54770653560514     39.21560038959728      8.20167118436708
  O           6.17875641157340     36.93458822651105      8.27051125388400
  O           8.63747987232924     41.58323885141308      8.38089764985134
  O           6.05697828922380     38.50250580853171      6.11681354704328
  O           9.00037328250175     40.09807495254277      6.11681349147535
  Si         11.51549450843944     26.07308732208224      7.65772335339695
  Si         14.19097772307570     24.52634772428923      7.77241755222138
  O          10.17631023097317     25.36313762717455      8.26968647884957
  O          12.87191052069885     25.38359162333088      8.24181630239346
  O          13.99710819635029     23.03353786569020      8.39188076114211
  O          11.44288080017471     25.85710612137023      6.03647593980607
  O          14.22633054511905     24.51331571499551      6.13556763547433
  Si         11.53377063058635     29.23463974416937      7.60946813852273
  Al         11.62023064551867     35.39591056587162      7.69431240494262
  Si         14.27764889467575     33.81120459965772      7.70728837178020
  Si         14.21284443195036     30.73855736995817      7.67934241691995
  O          10.17447780899534     29.95429026196087      8.16520506214491
  O          10.11714158723240     34.61568929066758      8.19045511825521
  O          13.06803612643514     34.62383152670196      8.37331536668826
  O          12.87374535504216     29.94987015328106      8.20581539697128
  O          11.49665109826802     27.66052148045967      8.03001411551133
  O          14.35023889700859     32.25262782876581      8.25209682937464
  O          11.52608035449422     29.39675343718877      5.97946530206986
  O          11.81825465885325     35.14115711554407      5.95222225345170
  O          14.07719016101194     33.71219487733886      6.07921669324931
  O          14.07208343248839     30.82613482785406      6.04512538157178
  Si         11.59911983960204     38.65407598341932      7.73450623464518
  Si         14.33472415841325     40.08355693409045      7.81155654291619
  O          10.24360006819269     39.41959810695006      8.28738647292679
  O          12.94450494540514     39.40063063667689      8.33865585231930
  O          11.59483178878878     37.10609910505745      8.11568555183860
  O          14.55092685694851     41.58422319018764      8.41380147269097
  O          11.68095418736610     38.91443677116909      6.10629639985542
  O          14.34688495163679     40.05116620155820      6.17284278027843
  Si         16.90276205147396     26.03073480704028      7.82369335079817
  O          15.54317757767451     25.26511426064755      8.32532744457153
  O          18.17932489710459     25.25549853658872      8.47220780689888
  O          16.89129183885773     26.00020741951532      6.18700205892036
  Si         16.91766264403946     29.11330696606418      7.72975438947585
  Si         17.04839148079168     35.35677913015249      7.68611933388711
  Si         19.69037930131521     33.76937178561489      7.79182643928761
  Si         19.57580634626142     30.66634494144639      7.81655182559136
  O          15.52023641550335     29.85997147225936      8.09999212965946
  O          15.72774237243829     34.49840427552065      8.06208630264977
  O          18.35985473421013     34.58593011586704      8.29430915320427
  O          18.17994273927486     29.96270176731639      8.32538699986141
  O          16.87006517373809     27.59277026835041      8.33010418678683
  O          19.63160738920667     32.22027474084533      8.33069231144565
  O          17.09218289876870     28.96010993802889      6.10875108399535
  O          17.27202637361501     35.41836635302231      6.06293233904635
  O          19.68029101366049     33.70829169913137      6.15511918889983
  O          19.56434507763553     30.65069742826288      6.17786475855668
  Si         16.97522136550489     38.44811625246412      7.78485800253588
  O          15.63469352661858     39.21764648175814      8.32318912068069
  O          18.34885279948504     39.07162102149751      8.40013947975085
  O          16.93688494395622     36.87909047757332      8.27078344714387
  O          16.97140553911290     38.46468646776520      6.14662515900296
  O          20.78581475771642     29.77252924190252      8.43711978480026
  O          21.06426813342703     34.40726662720478      8.39169462539900
  H           4.07465744509625     24.98677204588000      8.03659115399427
  H           1.41040895666269     29.60201496409263      8.03674925302804
  H           1.41040907257111     35.00798494747582      8.03674926884915
  H           4.07465743721200     39.62322794030746      8.03659114432046
  H           8.94818085836346     22.17325469870953      8.03830168928178
  H           8.94818089523403     42.43674529841021      8.03830168616488
  H          14.27776170630507     22.17320383769127      8.03828218857586
  H          14.27776172782932     42.43679615502758      8.03828218959723
  H          18.96055646924462     24.87622782984208      8.03640577966115
  H          18.96055655300202     39.73377223575898      8.03640577881771
  H          21.62471723691104     29.49141992871715      8.03658340867637
  H          21.62471723579236     35.11858007554026      8.03658340992316
  H          13.24159815209010     34.19232309527956      5.83002997313166
  H          11.04255072777007     34.76307860869533      5.52670922078254
  H           8.91840280410907     32.85946541556284      5.61213316259710
  H           9.73585840013541     30.38188083302108      5.60593457091533
  H          12.31186658196281     29.85203698995018      5.63543306935807
  H          14.06261531284787     31.74856635056593      5.73135328941416
  H          13.50935069490945     39.73677966603250      5.79448177233872
  H          10.86784069184603     39.27645832319941      5.72583577525340
  H           8.20158360284215     39.93986783217883      5.60291607750250
  H           5.96641597842508     37.62177509828361      5.72414226436942
  H           5.18547314345146     35.00861128043475      5.70330695271342
  H           3.44181905393625     32.96689541466073      5.79360153832183
  H           4.09355681295835     30.26213473472027      5.75583659041247
  H           5.99718621038940     28.24665768082157      5.68910617766364
  H           6.83433993911267     25.63954807566639      5.74091991635893
  H           9.58063123916051     24.85125211264311      5.72447434519155
  H          12.25147696070980     25.52249513444922      5.62694972929704
  H          14.98605000179198     24.96941093616919      5.74745156058167
  H          17.02720809972800     26.86461349108622      5.77157370400339
  H          17.80043712987715     29.49728216079986      5.72553063816540
  H          19.58442656580842     31.52674374220250      5.76751380443365
  H          18.99491644882797     34.25424688366083      5.74175238144148
  H          17.15532104856367     36.29140254624236      5.66476460969275
  H          16.19608543220660     38.88958277022207      5.75360127949032
  P          13.40872532332678     27.59710402714064     12.37919299208638
  O          12.15504370101599     28.03892643711704     11.70188569481832
  O          13.40069181388361     27.32960970089557     13.84608548537848
  O          13.93949982822042     26.31562871227207     11.55529370391423
  O          14.62641049702783     28.61767338513496     12.03160252485377
  C          14.74191698448562     29.83432217958814     12.74864332575950
  C          14.91243877046331     30.96196185124313     11.75878514803964
  O          13.72776479313397     31.07854319824992     10.95561702103921
  C          15.13471226764055     32.33051685631441     12.38295603493551
  O          15.93149312157670     33.10783630821559     11.51763759984241
  C          13.71801579377085     32.89381407296579     12.44596657911507
  O          13.74449163543056     34.29512841107773     12.46458491408089
  C          13.11029585114852     32.29990466966548     11.17443776956909
  N          11.67074240793038     32.09138154425965     11.27190253741721
  C          10.96050261124301     30.91974660902069     11.27896141146249
  N           9.66245378596685     31.11787628866713     11.28086037513862
  C           9.52204628054425     32.47665112937416     11.27274577969690
  C           8.39316212134177     33.30499471305852     11.21421454797786
  N           7.14765296884577     32.89121352261357     11.14998441388573
  N           8.68686651388214     34.63431155661571     11.21719659946982
  C           9.94397803146973     35.14146986112442     11.27405871393222
  N          11.01817962506107     34.41754212026698     11.31542026951007
  C          10.76399255219247     33.09673196388427     11.28050605544644
  H          14.67895865223569     25.88684104332874     12.00088958094366
  H          13.86311936717374     30.01025778661341     13.37701757010972
  H          15.62277050169824     29.78732133762123     13.39676549471085
  H          15.74178221935789     30.72605685096092     11.08653872824039
  H          15.58900093534834     32.26027432084736     13.37692571679288
  H          15.62659824377547     34.02150896442243     11.60982098334770
  H          13.19809861545893     32.48630251139490     13.32126383198129
  H          12.90322981552410     34.62701795375784     12.10588529005375
  H          13.26356111531897     32.98198602201180     10.33206236101830
  H          11.45668612073618     29.95356678998084     11.29678755708882
  H           6.95893450079947     31.90257377228147     11.10597144105584
  H           6.37299374750540     33.53082273405932     11.06879851745518
  H          10.00515840445661     36.22210636095512     11.28466085399485
  H           7.92335920473303     35.29923017693645     11.16459503659987
