159
Coordinates from ORCA-job /data/Seafile/ump/al_surf/frames/frame14/dry/ump_al_frame14_dry E -13364.888946633517
  Si          3.43657864888098     33.80145693606399      7.89444780379320
  Si          3.49241492684297     30.71346069435341      7.91416673884471
  O           2.11876156541447     34.55209229850852      8.50422440043130
  O           2.22808034582745     29.84618465782355      8.48780231353779
  O           3.42255014807241     32.25247214681587      8.43197096440397
  O           3.40110914750652     33.75264365801672      6.24774191762496
  O           3.49019978948565     30.77410287133620      6.26774109121902
  Si          6.15809492831180     26.10528858514192      7.89944245972315
  Si          8.81998807555676     24.53937556432424      7.90563185404907
  O           4.79856502487723     25.42760529606053      8.49589280926670
  O           7.47264251284943     25.29395327749849      8.42695486763585
  O           8.76093346610991     23.01080098080546      8.48163555174996
  O           6.18074358428910     26.08341410474622      6.25208322858197
  O           8.78988852367892     24.57327482160809      6.25994402925121
  Si          6.14591190233436     29.18694144927095      7.80327302475920
  Si          6.08849379868805     35.39579130589723      7.76285094897609
  Si          8.87556751967524     33.86927440132477      7.71223160791893
  Si          8.89062392435186     30.77957825024329      7.73583508606864
  O           4.87012601336188     29.99760339991720      8.41517672283353
  O           4.78307746163581     34.57681460620412      8.35209971228614
  O           7.43260579766983     34.57574643348750      8.09776509563990
  O           7.52052231019892     29.96467336961386      8.12230392434207
  O           6.21391692282812     27.65789086161280      8.38018541721652
  O           8.79131028654435     32.29653259740628      8.26928537311381
  O           5.83577185822645     29.09122609628463      6.18698475755124
  O           5.84026923702028     35.56849990046624      6.14134542672728
  O           8.94986612514329     33.74814020252145      6.07130179976333
  O           9.05008118972371     30.79750383940663      6.10130408213497
  Si          6.15319361148890     38.48033189345244      7.83558281252230
  Si          8.83204123895543     40.07908372742423      7.77040452311363
  O           4.87007499286600     39.28528909710515      8.47393232470606
  O           7.54179963047017     39.17754907469777      8.28660785733301
  O           6.13014822122027     36.91456219669105      8.34058536919733
  O           8.45995533522907     41.58909939040272      8.20871087076685
  O           6.06416969745525     38.47673070047872      6.19178558460612
  O           8.92352317655608     39.85827337754645      6.13305744908243
  Si         11.48496907711324     26.07250978531204      7.80068830264783
  Si         14.15374723443644     24.53970375960101      7.85555785628467
  O          10.15148346373176     25.34268839142312      8.40472385696676
  O          12.84835998150449     25.37310758377189      8.36250696610808
  O          13.92819105534047     23.00687846453420      8.37701683476575
  O          11.40078807328665     25.78584898267584      6.17987762053130
  O          14.20227232397252     24.61331777975881      6.21169034942755
  Si         11.54437287516672     29.25470816941341      7.79764569858526
  Al         11.64893454921796     35.45707449057586      7.84423988112888
  Si         14.26624282022464     33.79198723703198      7.93139510466846
  Si         14.19661507597734     30.75288096501820      7.86956387484330
  O          10.17452651330345     29.95095711651186      8.34112074036691
  O          10.11058559649813     34.67800951263489      8.28758381717191
  O          13.08221003458108     34.65385465448772      8.55028700427287
  O          12.89464550439688     29.91083928247363      8.42934366471688
  O          11.47691274709907     27.65138326056826      8.13928840670681
  O          14.35993783842350     32.22456262831739      8.51482911461257
  O          11.59094219610530     29.46515906025589      6.17001863998521
  O          11.90145083453995     35.06283770802708      6.12644171377869
  O          14.03466442808974     33.58968492169408      6.31041132533383
  O          13.97277638486209     30.91055032650474      6.25123038431548
  Si         11.64044258438483     38.74064935857766      7.80759190206843
  Si         14.42734125217184     40.07895093169078      7.87851308831671
  O          10.26075722916699     39.50875477356315      8.33204229586659
  O          13.00440916375883     39.46314458928209      8.40310273686926
  O          11.61242691913824     37.18270893151512      8.15420551820291
  O          14.77725059540745     41.60273446407163      8.29021571305292
  O          11.73513327531717     39.03365125446356      6.18099061953420
  O          14.47370534982853     39.81327270006958      6.24335367830742
  Si         16.87039584740364     26.00249616569079      7.90709801652995
  O          15.52780918600940     25.21705643013004      8.41537912938928
  O          18.12890673666745     25.11907914448831      8.46295056414985
  O          16.81100654395506     26.02885368773234      6.26206603710769
  Si         16.90493900989036     29.07875754793231      7.83685216991528
  Si         17.07197925029027     35.31022436415770      7.85833610353069
  Si         19.69705195064881     33.71798647751062      7.87051534145286
  Si         19.54993810548266     30.63481587802886      7.86339305083167
  O          15.51374825814357     29.82034821979220      8.17272252692492
  O          15.75975483411061     34.44223422965570      8.20436736296775
  O          18.40847748460977     34.52724394608794      8.43736388508948
  O          18.16979186356583     29.93968625221242      8.39871280735141
  O          16.88690625577058     27.54638912818004      8.43300560330507
  O          19.72011571745743     32.16192238774470      8.40480133347659
  O          17.12048530445438     28.86035192388396      6.21648182600803
  O          17.34985553815156     35.39203303893260      6.23300708728418
  O          19.55983031001173     33.63084010536896      6.23097869226492
  O          19.47278071760761     30.70096753562749      6.21986167130819
  Si         16.99506282131671     38.37842867282220      7.87967110177714
  O          15.72560406064094     39.20776555835971      8.44646266254808
  O          18.46926766397210     38.95349231002354      8.32915535532452
  O          16.99989979628618     36.82879122566538      8.43169889720076
  O          16.86571245738316     38.29988723914396      6.23903940150919
  O          20.72934309955478     29.62023408989926      8.36943297613252
  O          21.14341888294152     34.33277218570179      8.33439997075341
  H           4.07465745326917     24.98677204425219      8.03659115241968
  H           1.41040897089180     29.60201496186122      8.03674925252359
  H           1.41040907714951     35.00798495794381      8.03674927074658
  H           4.07465745426523     39.62322796611272      8.03659115678652
  H           8.94818086718181     22.17325469798298      8.03830168976472
  H           8.94818082651883     42.43674531096894      8.03830168309980
  H          14.27776171900943     22.17320378256291      8.03828218812108
  H          14.27776177594701     42.43679617394376      8.03828218780874
  H          18.96055642485484     24.87622785140447      8.03640577995172
  H          18.96055653667184     39.73377223090814      8.03640577952145
  H          21.62471724545551     29.49141992588383      8.03658340872178
  H          21.62471724437118     35.11858008072338      8.03658341014131
  H          13.21640542013260     34.12302918241726      6.05064041282433
  H          11.10088472838850     34.80440650779009      5.66424808526325
  H           8.94256157544494     32.83734772490793      5.75309058672503
  H           9.87297527755092     30.37770928610860      5.80354130541402
  H          12.38590431230521     29.96975138033272      5.90444842696721
  H          13.97942293536628     31.87634222791883      6.02149138560238
  H          13.59129123300324     39.60412484389541      5.89199614660676
  H          10.88763836648237     39.29218217514205      5.79547419719292
  H           8.10384771554728     39.53807753668679      5.74267504906809
  H           5.97779087449683     37.58172269482458      5.83221243836785
  H           5.19589340278302     34.95500279333177      5.77163447170026
  H           3.40985650896920     32.84721884594807      5.90604561217333
  H           4.19007405115698     30.22427176118772      5.88141438199639
  H           6.03578717204072     28.23117488498512      5.79811828653727
  H           6.95005654991772     25.61379043350994      5.89892006967176
  H           9.61303232363374     24.92957284114913      5.88755572001990
  H          12.24521048992353     25.54668694964876      5.77765928356228
  H          14.99616242108237     25.06567721458392      5.88728007287024
  H          16.94391118012527     26.92693061818443      5.91144800421584
  H          17.75201837585086     29.47813152513778      5.82311018925438
  H          19.46790148970811     31.61773143088827      5.89710551749572
  H          18.85074657646061     34.21554251011177      5.90420039267380
  H          17.13550946021665     36.26292113252483      5.86328583268567
  H          16.04881108578539     38.74792743693862      5.94313949152672
  N          13.93134055450465     42.81165703510558     12.50168017346533
  C          14.29758612803076     43.61210084083967     13.54858165435896
  N          15.06673097639331     44.68599844323329     13.20977912333679
  C          15.53475613550168     45.04688963940414     11.93766887740877
  C          15.12231065190163     44.12640815874303     10.91432657768350
  C          14.36168541697692     43.05743699013696     11.22880131658323
  O          13.96708947348702     43.39217758107040     14.70934008919945
  O          16.21676602053537     46.04628608295577     11.81708742522078
  C          13.12647766227996     41.60449643348019     12.83165346865144
  C          11.78117751465805     41.95292194048103     13.50082149316731
  C          10.82243724416284     40.97711435848915     12.81507803623294
  C          11.43768070182384     40.88225556246690     11.43257940345669
  O          10.84850101064752     39.73213430152430     13.45942547978870
  O          12.85237266867903     40.90704298270754     11.67935271251935
  C          10.97720831151982     42.04017989809442     10.56074381288061
  O          11.88980664300708     42.22243483620846      9.51523314780077
  P          11.73544046520743     43.49813770353818      8.52283514125840
  O          10.38231698679257     43.50357411125009      7.91219847145692
  O          11.78246779432345     44.74981315214514      9.56633218534166
  O          13.00781222148093     43.50702765219792      7.73989105640626
  H          15.33284176501017     45.28937557567732     13.97301151162501
  H          15.44415543189237     44.28256005860575      9.89562432140204
  H          14.03884299858965     42.33556496513891     10.48866853802233
  H          13.73759527049582     40.99801570382525     13.50940965536972
  H           9.80202598002779     41.38022825983737     12.77328016960842
  H          11.23486452882993     39.92884082186954     10.94760056078348
  H          11.03299442640055     39.91614233428010     14.38875155063411
  H           9.97615357854023     41.81140757663879     10.18065940470669
  H          10.90413506456637     42.96574153229581     11.14809620477585
  H          12.70787510957662     44.97118333294709      9.71320837119782
  O          11.76892000760798     41.75772394144811     14.88693922593309
  H          11.50671879855293     42.98306949458049     13.24677097246181
  H          12.52737551207171     42.26933549656458     15.21309216150768
