159
Coordinates from ORCA-job /data/Seafile/ump/al_surf/frames/frame14/ump_al_frame14 E -13365.186069583044
  Si          3.45453725741823     33.84439932668892      7.82906588319263
  Si          3.47524408433063     30.74213987629702      7.82922738648374
  O           2.20564862058262     34.66514007200849      8.47274992307480
  O           2.21125853788924     29.94008690910576      8.47039858053331
  O           3.46069773045019     32.29367668939353      8.35479127502050
  O           3.44115686352209     33.85375312448941      6.19066017423458
  O           3.44196947424701     30.80805696193059      6.19397877648433
  Si          6.15947610911355     26.08406524890023      7.81261087852941
  Si          8.85572784979113     24.53405985116195      7.80281959005513
  O           4.87341735319806     25.33171383070701      8.46662879079429
  O           7.52399747763046     25.33849358247689      8.31662767428372
  O           8.81006446077468     23.04169072313597      8.45451588422360
  O           6.12005835862396     26.11828457385506      6.17532218872566
  O           8.81697286471389     24.50850464622818      6.16798891081389
  Si          6.12467896745102     29.16881745904908      7.71973259772233
  Si          6.10936902206084     35.40523071975288      7.70906407146613
  Si          8.85085808085252     33.82208099005533      7.67040009659488
  Si          8.86010055012488     30.74363768889826      7.68258609980418
  O           4.86146519105239     30.01357132795810      8.32107074568945
  O           4.82386558613522     34.59968560460580      8.31858044367800
  O           7.46763126006543     34.60800633498731      8.09362224328635
  O           7.50634038854207     29.94043515075275      8.10580019911559
  O           6.16670341713152     27.64844426976852      8.31251698747405
  O           8.75982961947027     32.26893576111953      8.24148761893695
  O           5.90560719745953     29.11573242745490      6.09895902250383
  O           5.92949651140466     35.55251769325679      6.08610778583778
  O           8.92062179521920     33.72886625148075      6.03120108736748
  O           8.99115282226139     30.81697759009938      6.05112949615871
  Si          6.15467436552254     38.49738920259104      7.77369937489720
  Si          8.84440003864853     40.09276140715607      7.76909772804385
  O           4.91601493442723     39.33237175095822      8.43271338128741
  O           7.54787731450609     39.21574317675205      8.25211400894479
  O           6.17361162792223     36.93589764650415      8.28850710137340
  O           8.63452471407916     41.58807246407319      8.38860056046290
  O           6.10265686334855     38.51715623979789      6.13997194270269
  O           8.94152034951478     40.08392286699757      6.13027046061119
  Si         11.52802098496425     26.08135490342716      7.70496440232165
  Si         14.19388617399033     24.52986652729235      7.79233327231453
  O          10.18796410559013     25.35821512953783      8.29713715170550
  O          12.88268203780608     25.38540423348928      8.28909007136417
  O          14.01037952130664     23.03289855224299      8.40359529984726
  O          11.47206359190783     25.89550591847688      6.08015121372891
  O          14.20027817278997     24.53163380370082      6.15454569242053
  Si         11.53643041250271     29.24182921041974      7.70860068146599
  Al         11.61201653874420     35.38432279948467      7.72646462320424
  Si         14.26444486333306     33.80080049958905      7.81205662871218
  Si         14.20463621747925     30.74855927124878      7.75211353069462
  O          10.17475752833325     29.95704519644493      8.27280691806518
  O          10.11879678763831     34.60119291239490      8.24859181580590
  O          13.05525547653711     34.63748675617560      8.44606803004509
  O          12.88168221984398     29.94955372770128      8.31408333258598
  O          11.50163957014682     27.66256456756584      8.10803253309188
  O          14.33289415159152     32.24404488947864      8.38243363952357
  O          11.53186631488384     29.42427073356544      6.08143095711362
  O          11.81915702359361     35.06979471652111      5.99348713413922
  O          14.06715621042531     33.66829066378190      6.18328236101904
  O          14.02499784689990     30.87144494442979      6.12814290908364
  Si         11.59898260532381     38.66586012070453      7.74332752669984
  Si         14.34661321605221     40.08241599189800      7.81486991862671
  O          10.24410628443254     39.43481961822936      8.28917781019720
  O          12.96054313345645     39.39271389949553      8.33263430347815
  O          11.58013281457838     37.10621222418659      8.07063436616981
  O          14.55856430844332     41.58610236826463      8.41168473582822
  O          11.68260222063073     38.95526757736852      6.11578665212495
  O          14.36640306059124     40.04680187619165      6.17496763864545
  Si         16.90750163942570     26.03531623482651      7.82191761983576
  O          15.55247964184787     25.26581423306712      8.33045109309054
  O          18.18878958880909     25.27170774761516      8.47359622159713
  O          16.89164173141240     25.99701498054165      6.18589371515510
  Si         16.91506868655834     29.12145453600465      7.73159510673483
  Si         17.03312473283995     35.34574798206680      7.73630559790915
  Si         19.68546219553739     33.77347490565850      7.80550523878844
  Si         19.57894894283837     30.66986508150886      7.81510803748113
  O          15.52285543722393     29.86747495741859      8.12691069838292
  O          15.72074940798070     34.48691700480975      8.14419673193737
  O          18.35723585299871     34.58178158168236      8.32632817579675
  O          18.18246602354109     29.96568276605179      8.32062797446788
  O          16.87056514992183     27.59813463895743      8.32345912108410
  O          19.63554275318654     32.22106947432086      8.33601404696539
  O          17.06754914133243     28.98016151137137      6.10800413849196
  O          17.22517615341004     35.39347346341465      6.10820595239941
  O          19.66066251869789     33.72445279138144      6.16857897504734
  O          19.57029570624859     30.66003520324535      6.17676477430120
  Si         16.98040548572044     38.43640827484393      7.80020327096401
  O          15.64708934731593     39.22014492208261      8.33047593251227
  O          18.36416454771238     39.05578578092791      8.39708533029276
  O          16.93591238128132     36.87444611499121      8.30619612831596
  O          16.96702057712910     38.43020249104725      6.16092401017840
  O          20.78527033024168     29.77140933750697      8.43595084899712
  O          21.06365769086482     34.41026102226659      8.39652082579411
  H           4.07465745138632     24.98677204271151      8.03659115341706
  H           1.41040897768880     29.60201496832160      8.03674925189889
  H           1.41040908727166     35.00798494875129      8.03674927069910
  H           4.07465744636078     39.62322796411885      8.03659115699402
  H           8.94818086587013     22.17325468713092      8.03830168950003
  H           8.94818088158524     42.43674529394519      8.03830168047547
  H          14.27776170726155     22.17320384244544      8.03828218862557
  H          14.27776173089183     42.43679615523562      8.03828219195696
  H          18.96055642734783     24.87622784803686      8.03640577953629
  H          18.96055653749806     39.73377222994395      8.03640577801646
  H          21.62471724293072     29.49141992732825      8.03658340865350
  H          21.62471723949326     35.11858007657892      8.03658340983365
  H          13.22851584357027     34.14259292251712      5.92158310091590
  H          11.04702578568463     34.66711292577171      5.58371764886367
  H           8.92950072574109     32.82077545551978      5.69485291131328
  H           9.78836835746933     30.38757544638871      5.70152597376155
  H          12.31045665038828     29.89853195515345      5.74368817274067
  H          14.01457226652500     31.80687680959829      5.84118792710536
  H          13.52285667690274     39.74525918654178      5.79883930583180
  H          10.86068771482859     39.29466821393890      5.73530473930318
  H           8.14850475040860     39.80813619128819      5.65655941619035
  H           6.01085204505333     37.64099810020772      5.73797489984813
  H           5.22328658900862     35.01106044489187      5.70682156989743
  H           3.43187862261989     32.97517636244352      5.78543002099061
  H           4.10277439392145     30.25248632023013      5.75633494431283
  H           6.02122288827190     28.24061721629790      5.70291593050094
  H           6.82890017256530     25.63059668559015      5.73623321301092
  H           9.60891412703290     24.86692193313466      5.74248116725008
  H          12.28083428897992     25.54897400282857      5.67918238265537
  H          14.96264227432610     24.97327180600832      5.75542752418631
  H          17.02201140820058     26.85859026348105      5.76385327944949
  H          17.77340176313276     29.51583171658203      5.71906581767495
  H          19.58349034685723     31.53769912452876      5.76976930280545
  H          18.95786797087968     34.25836644719858      5.76829006223538
  H          17.11574867177812     36.26778617432159      5.70984484812771
  H          16.19391019200337     38.86088528681587      5.76929139084412
  N          13.98863415042243     38.22185544946046     11.36492845967188
  C          15.10410070330496     37.42727836433452     11.39311125894838
  N          16.28478849105187     38.08762193864810     11.55669769687512
  C          16.46722553364200     39.45478768736672     11.73365854547543
  C          15.24247091408899     40.20426201936539     11.72450478942259
  C          14.07075467656227     39.56924932328749     11.53176184676598
  O          15.04249348701805     36.20798830743687     11.28497768721780
  O          17.59455383257984     39.90487013535527     11.87818055258309
  C          12.70778106200561     37.53591456218533     11.08931420751406
  C          12.26200208936243     36.61307664266068     12.23677776748610
  C          10.75228362313144     36.84078981646621     12.27100531562873
  C          10.64683565968455     38.29268652126688     11.84761729252125
  O          10.10540639242562     36.03165496369088     11.31792573487862
  O          11.71030011592655     38.47955932186720     10.90473790240277
  C          10.75895026592293     39.26544071262914     12.99883264875345
  O          10.78305797234854     40.57403795556156     12.46482660346331
  P          10.88257555187028     41.84072354051459     13.47880733749928
  O           9.89886499497019     41.67869887071339     14.58342096088180
  O          12.34329638782026     41.64248947909124     14.15738487654219
  O          10.88286995575844     43.04026693970635     12.59872115596250
  H          17.11330218146803     37.50675276958902     11.57049392568407
  H          15.27926627482705     41.27574942751826     11.85154474443761
  H          13.12232331522594     40.08765022875971     11.49213633968146
  H          12.85642329911283     36.96377424210986     10.17024526270144
  H          10.34116708912655     36.67177224816540     13.27217292785033
  H           9.71696486988037     38.47332349892748     11.30442320910081
  H          10.65156884182429     35.24124605402892     11.20363659631369
  H           9.89789621550630     39.13302251732868     13.66153827835819
  H          11.66958665910697     39.07895477315127     13.58064368442648
  H          13.04740831479515     41.90918014059901     13.55537956698242
  O          12.54208094517345     35.26001130211787     12.00850098745313
  H          12.70578732232172     36.96074139180989     13.17692338050503
  H          13.46194153105578     35.23166283198294     11.69400189263050
