161
Coordinates from ORCA-job /data/Seafile/cmp/protonated/frames/frame11/dry/cmp_prot11 E -13392.485558488090
  Si          3.50578274875525     33.90725035507946      7.86665780934511
  Si          3.47038310614887     30.80803541322923      7.88193357946532
  O           2.27193448745078     34.81144745291054      8.42188144206061
  O           2.17141376322017     30.01784554817884      8.46574640473818
  O           3.44173586736568     32.35862931269230      8.39531234648720
  O           3.54796112501295     33.85581377378755      6.22148754073639
  O           3.49104541533833     30.87561899487565      6.23803763328876
  Si          6.14156646085923     26.14957416941830      7.86989617909470
  Si          8.80111922864177     24.55988362669011      7.85871522186505
  O           4.75463589588822     25.53229808032717      8.44940005003138
  O           7.45100739201343     25.31599347964358      8.38193409960819
  O           8.78633616991140     23.03980349020868      8.43931431647832
  O           6.18034825180003     26.17360531551702      6.22375312591708
  O           8.75739499239039     24.61426271317865      6.21563006716755
  Si          6.10521854860605     29.21885609360127      7.77895155893227
  Si          6.13323862956796     35.49818678991268      7.78053867391272
  Si          8.85882237666909     33.87177626496307      7.71892588183754
  Si          8.85586095744408     30.79754344681664      7.70072578848766
  O           4.84650434452715     30.06426174074856      8.37657229002135
  O           4.86469665424811     34.65667102036507      8.36908667539917
  O           7.49351437895340     34.67571291409536      8.08855215468275
  O           7.49973394782468     29.99924425778838      8.09381205840331
  O           6.20802778358141     27.70444671656988      8.37180550129290
  O           8.78180959626542     32.31492975104745      8.27278693863818
  O           5.82738007075297     29.12148111773367      6.16194492742315
  O           5.90365577265229     35.69687359740969      6.16159944612827
  O           9.03036690895944     33.80108282139206      6.08898621852597
  O           9.02867707903389     30.88661337879671      6.07393144449017
  Si          6.23431982729086     38.57907604586532      7.84512843021990
  Si          8.95546456034766     40.06236779937176      7.82550555737506
  O           4.96713404317184     39.45627212278439      8.37649539272524
  O           7.58457826889895     39.36041264854443      8.36091092305999
  O           6.20975430995282     37.02576756636055      8.36007891939743
  O           9.19939024903100     41.57065468202306      8.38342890840783
  O           6.34182200332086     38.55335532132007      6.20264946086145
  O           8.94178063756575     40.00464874720163      6.18301201926935
  Si         11.48310067925135     26.07756588256498      7.75878040310408
  Si         14.14368522747080     24.54424321609696      7.82278479426398
  O          10.13010190175479     25.39008812371761      8.34987252357188
  O          12.84084317419905     25.39069911835659      8.33927425355636
  O          13.92526430780556     23.01934480491876      8.34584660546066
  O          11.42893152851939     25.83192717907298      6.13629749128552
  O          14.15595641071864     24.64095517810488      6.17981366230103
  Si         11.51270012767139     29.25356539807385      7.71737809511266
  Si         11.63113119311133     35.38085940609393      8.24906419281967
  Si         14.27820134054399     33.79223882077662      7.80499271312893
  Si         14.20864775675423     30.73134849958958      7.71377208785715
  O          10.17598420477151     29.99872121733527      8.29565882604374
  O          10.12853909484280     34.62730902920384      8.33315450622097
  O          13.11206936344166     34.59749661513651      8.56882373193409
  O          12.86191265486235     29.99142493898361      8.33037497559545
  O          11.48713409325000     27.67812359767935      8.10198619570703
  O          14.35923822095054     32.21877309194370      8.39314428847436
  O          11.52679128715229     29.46029497021846      6.09479805647760
  O          11.79459812692247     35.01660841710889      6.55061661183944
  O          13.93098398827728     33.64220094204728      6.21939546727140
  O          13.96822736413915     30.90700039144834      6.11027121659478
  Si         11.67898412411894     38.60891335052173      7.70267311316443
  Si         14.38292569466870     40.07051294670107      7.83015867544624
  O          10.27145120472881     39.20600976075040      8.33482167812623
  O          13.00060713060980     39.35360601247414      8.33396276652246
  O          11.72330316062925     37.04754274558127      8.00498725053188
  O          14.54632329534197     41.58475951102691      8.40789241266474
  O          11.71664635462382     39.00672884514579      6.10985405161123
  O          14.42181848814889     40.00429583345149      6.18904626189422
  Si         16.86965845080814     26.00060138372949      7.85452143133011
  O          15.52235260502792     25.23043393887905      8.36522119203135
  O          18.14623895731200     25.18963027269922      8.45115021345913
  O          16.81275299915820     25.99620606468821      6.21126768129954
  Si         16.92457206307124     29.07522710201136      7.74360031593329
  Si         17.06882624931819     35.33614949842214      7.74089618302737
  Si         19.69122146596840     33.73664788245574      7.83048509853954
  Si         19.55137838932494     30.64958381655197      7.82770308556078
  O          15.50456470311704     29.82394803870780      8.05039735840128
  O          15.73065504230179     34.47506704936533      8.06295822785189
  O          18.36784741867112     34.55158884022559      8.34593812809262
  O          18.15317565288502     29.95883057366823      8.33973177905404
  O          16.85809481707207     27.56366414970172      8.34999054131321
  O          19.67159562786782     32.18767819287120      8.36211367682085
  O          17.14629871001424     28.89125959236440      6.12764775468715
  O          17.33816587106248     35.42679758249184      6.12230159475703
  O          19.61373015851548     33.65435569738020      6.18926685001299
  O          19.48224713467111     30.69902985284624      6.18441007423768
  Si         16.99037373465906     38.40991545345953      7.82131034622440
  O          15.68885995034436     39.23875065121552      8.36467426839815
  O          18.41174944492888     39.00226859183867      8.35200633452823
  O          16.93149180097576     36.85188309483016      8.32368459952526
  O          16.91117612794909     38.38603929977000      6.17872105252151
  O          20.73318591267477     29.66880807852200      8.36298429028750
  O          21.08555431772762     34.38492788984704      8.36518839811722
  H           4.07465741279723     24.98677203571282      8.03659115559144
  H           1.41040898123876     29.60201497497359      8.03674925914722
  H           1.41040893596422     35.00798502261448      8.03674925649633
  H           4.07465745109820     39.62322797057851      8.03659116043293
  H           8.94818084042515     22.17325472465783      8.03830168948570
  H           8.94818082820088     42.43674533521274      8.03830168766117
  H          14.27776169668098     22.17320382157097      8.03828218841642
  H          14.27776170183309     42.43679614904810      8.03828218417464
  H          18.96055669684676     24.87622771561269      8.03640577736109
  H          18.96055651865441     39.73377221845409      8.03640577774542
  H          21.62471721558120     29.49141993800190      8.03658340852453
  H          21.62471724311028     35.11858008168106      8.03658341061417
  H          13.07316564940322     34.15972084311406      6.09754504621005
  H          10.95540889532437     34.81424409957619      6.12363299046679
  H           8.99576517812435     32.90662951121733      5.72463730687560
  H           9.79466633075849     30.40196249030765      5.73165682056470
  H          12.32071668037575     29.91681212994759      5.76779694352247
  H          13.93903205361967     31.85587133657959      5.85468471399830
  H          13.57212874293071     39.74381977739926      5.79938393820397
  H          10.85902248354991     39.25310869129911      5.73678649904947
  H           8.15511534093052     39.55758928208685      5.83395047451395
  H           6.17062775058892     37.67335178352648      5.83129630066150
  H           5.24601962976778     35.09979375667056      5.78111540827432
  H           3.51852438479212     32.95333578384078      5.87202710273888
  H           4.15990245921680     30.29587951181599      5.84379793464014
  H           5.98875044261625     28.24315523312286      5.79052172720074
  H           6.92546842003802     25.67872491506942      5.85429495795611
  H           9.58278809843950     24.93327414381562      5.82171334496705
  H          12.26646190830291     25.52788817122487      5.75907773705783
  H          14.96557350948246     25.03996464388759      5.82896976258594
  H          16.98265293364662     26.86707193810160      5.82090572791153
  H          17.82065588192356     29.47901128455066      5.75678548515608
  H          19.53054495243881     31.60126482434123      5.83286520903060
  H          18.93929112512349     34.23933587963010      5.80981669843274
  H          17.14859399803314     36.29400227416112      5.73849334976859
  H          16.15174489833291     38.87294885977409      5.82564644014596
  P          10.37979966780796     36.17651255350629     10.92692788366590
  O          13.48818400239923     36.92187090328406     13.38588282129954
  O          15.53279677545060     38.92099900303132     12.87082555592347
  O          16.49498606904592     36.80411569569526     11.64253101355486
  O          11.18183542767275     37.13892146801228     11.94303595813930
  O          15.67435600583657     34.14360717455308     11.30627998919639
  O           9.62137469723122     35.19183587329126     11.69678149377475
  O          11.51261979811345     35.66332020428150     10.00259755158675
  O           9.40504639327973     37.11049429248230     10.10888678645072
  N          13.79371861616937     34.83377322111915     12.40127152767160
  N          13.78682153513180     32.91322234823435     11.10151400080067
  N          11.84784823234309     31.74813736334265     10.65357749913503
  C          14.67182860688834     38.31416251502532     11.94949908276475
  C          15.10431754911042     36.87085330558199     11.66232396115538
  C          13.31303097480523     38.09649665390917     12.58169466195918
  C          14.45219842504645     36.10217714368166     12.83424727737016
  C          12.25386737177690     37.93442068691872     11.49174839396933
  C          12.52931663133904     34.54703994737211     12.77988824037731
  C          14.50831312607871     33.98365378538482     11.59396692896173
  C          11.85303276122226     33.46944736116402     12.31641408180769
  C          12.47809183524527     32.68596515322071     11.33896716689371
  H          14.60464805904609     38.89110343973692     11.01908854605736
  H          14.67100189600445     36.53694096831413     10.71335226977047
  H          13.05114187790406     38.89128691972916     13.27906166815659
  H          15.20471708657865     35.83754057397451     13.58257245519364
  H          12.69659793826146     37.47989465620577     10.60233326579682
  H          11.89877913667343     38.93310109844717     11.21269771215137
  H          16.42456025409646     38.62273509673923     12.65357211972554
  H          16.72702995581832     35.89489763257016     11.41375559070870
  H          12.06718885331715     35.27747190957665     13.42759099882563
  H          10.80489488802186     33.35758205651634     12.54261248081121
  H          10.84706393231817     31.68168299865316     10.73751023737681
  H          12.27873993629160     31.24134653074153      9.89130723581376
  H           9.80220729088585     37.79096133803271      9.54388574527264
  H          14.24769662747993     32.43102523549656     10.33114953327124
