163
Coordinates from ORCA-job /data/Seafile/amp/protonated/frames/frame02/dry/amp_prot02 E -13464.791536776060
  Si          3.52442408066460     33.93503106677942      7.81738040081554
  Si          3.43064308470266     30.85295429656788      7.86345297268423
  O           2.32348163992194     34.90512778114810      8.33813810800240
  O           2.06269210677733     30.19196399393243      8.43720992495266
  O           3.44386732915871     32.40883229570367      8.38012748007944
  O           3.59933907183341     33.86659172202688      6.17730092701615
  O           3.50053076771321     30.90486200842916      6.22677576161574
  Si          6.12458235575784     26.20263281922639      7.84212612281743
  Si          8.73737138213383     24.55004507694040      7.82771083322031
  O           4.67332880889415     25.67247783284233      8.36100380265386
  O           7.39488953015996     25.33565629648018      8.37513199983479
  O           8.58148301992001     23.01262289042182      8.35433776356127
  O           6.20866889051195     26.26748255836991      6.20045333758917
  O           8.66973404726016     24.66946158927974      6.18709330788232
  Si          6.06467386619298     29.26149153449301      7.76528894249057
  Si          6.15512795118053     35.49277655888712      7.69234542798302
  Si          8.88918809873557     33.84539796361589      7.69202585199103
  Si          8.85803014365873     30.82041692653128      7.79489539263035
  O           4.77854309909147     30.08395759741900      8.41297246300731
  O           4.90391065700524     34.66762849063906      8.32638017957612
  O           7.55604952655992     34.75596149438668      8.01433120901880
  O           7.38503840210006     30.13647713946724      8.07163618398493
  O           6.19758507271118     27.76115619618066      8.37542620007732
  O           8.72073131167663     32.37691881049342      8.36084989122893
  O           5.71896638943217     29.15841430890423      6.16493264623608
  O           5.90557472920619     35.72073747755393      6.09002321145490
  O           9.08385577861371     33.68329327704231      6.07655339807873
  O           9.16276412100318     30.94467763046529      6.19565397888497
  Si          6.20401143121351     38.57708477489232      7.79901215058630
  Si          8.92375449396537     40.05606207649112      7.82789858516162
  O           4.93933468353666     39.39729520980057      8.40952542891075
  O           7.56875437215201     39.28430273138144      8.37022070620842
  O           6.20790124509967     37.01931418708150      8.32147861485891
  O           9.02232668211297     41.55674563570689      8.43291918842954
  O           6.27413299306328     38.59176643955638      6.16608576186354
  O           8.89993545174016     40.02451155632621      6.18901632886051
  Si         11.44782932219292     25.98960676557044      7.68416297833747
  Si         14.16418686001740     24.53696655587057      7.82959744573545
  O          10.10147408542765     25.28511961470706      8.33103562550831
  O          12.82477861322531     25.34163396152924      8.28966131615936
  O          14.00645193700731     23.02067216343823      8.41250047051437
  O          11.36409764318385     25.53465763928354      6.09482485658757
  O          14.21789289533225     24.54126267066952      6.18304567110271
  Si         11.50611451952153     29.20297600224342      8.20658106618001
  Si         11.57013946235481     35.33522092099380      7.66911588748299
  Si         14.23820054778400     33.80269260881222      7.68729970729247
  Si         14.27373373686037     30.72285200083443      7.73967731711674
  O          10.00650406510904     29.98148679351436      8.52861630023382
  O          10.18054611565398     34.68873718663249      8.23890472696797
  O          12.91809200247793     34.62710996093385      8.23001878038792
  O          13.04016989965007     29.91206201168471      8.35770128575432
  O          11.41037116253686     27.57247837752968      7.83705338766999
  O          14.33784520638086     32.29099899204071      8.25905711109390
  O          11.36930816455388     29.70814948387569      6.53897092484024
  O          11.57174209566001     35.17104606427671      6.03842667506218
  O          14.09445767019234     33.69183634119394      6.05486310282855
  O          14.11811059143280     30.77037838610355      6.10500514282977
  Si         11.59327023527116     38.51011622255776      7.73592328488387
  Si         14.24317668836827     40.06026290312379      7.84119604903761
  O          10.21944114747087     39.19360606572032      8.32851098024036
  O          12.94144526667665     39.19022642289448      8.33386038587984
  O          11.56308685614422     36.92271228179072      8.08634088552422
  O          14.05257727899572     41.57370964864614      8.41139277263878
  O          11.63735980858276     38.79328760581206      6.12124882774382
  O          14.31883497604522     39.99651815552038      6.19912979053692
  Si         16.88106662167886     26.04261927497967      7.86601646229195
  O          15.52312892491017     25.28121789673656      8.36024456473587
  O          18.16111877344398     25.21997410109998      8.45890332542340
  O          16.84677934544383     26.04363545971644      6.22146405430357
  Si         17.01544806393082     29.12490382171333      7.78504085476955
  Si         16.95230233225544     35.44651662031774      7.75695775326160
  Si         19.59786890751570     33.87070995724179      7.86684667971494
  Si         19.62291200060282     30.77660925346668      7.85558246568909
  O          15.68211236860943     29.98013084294036      8.12649903099937
  O          15.58252535208537     34.63546054404539      8.07807935190622
  O          18.23984488590987     34.64997944819896      8.35660344755090
  O          18.33653065386441     29.90527426822635      8.36160677669430
  O          16.89953499411070     27.60316685162117      8.36930776202412
  O          19.55749020878456     32.32271442721072      8.38011426668424
  O          17.22405533262799     28.92745915373857      6.16506339235163
  O          17.22236809391295     35.54703610498351      6.13783338613700
  O          19.59548878538967     33.82808003166385      6.22262052034138
  O          19.52830829723033     30.79018298977870      6.21046563504837
  Si         16.92645778063745     38.51965664722786      7.84483464077475
  O          15.63010328560470     39.38252905786658      8.36406696142423
  O          18.32426446785763     39.11824092582138      8.42100998265782
  O          16.83124745628455     36.96924792416858      8.34132530197034
  O          16.88577498786514     38.51819549241236      6.19999986035173
  O          21.01936168538742     30.14549690589981      8.40769426954577
  O          20.93694829768591     34.58541833903350      8.46017700676314
  H           4.07465750891009     24.98677209936815      8.03659118389097
  H           1.41040895936924     29.60201495740576      8.03674925619095
  H           1.41040902429841     35.00798500356412      8.03674926525151
  H           4.07465746021774     39.62322799175514      8.03659117304598
  H           8.94818084652964     22.17325470342872      8.03830168716690
  H           8.94818083160317     42.43674542885385      8.03830165057853
  H          14.27776173292824     22.17320382670334      8.03828215804307
  H          14.27776173759704     42.43679606821757      8.03828220364257
  H          18.96055659108145     24.87622777115170      8.03640577533526
  H          18.96055646498378     39.73377214402132      8.03640580345779
  H          21.62471720193541     29.49141995107029      8.03658341124211
  H          21.62471723183131     35.11858007562444      8.03658340996247
  H          13.34361571935093     34.18315474917839      5.69353254168168
  H          10.77805828939810     34.72025664255020      5.70636652754609
  H           9.11950240731690     32.73298720440617      5.82529450103322
  H          10.04974870635921     30.47045764362339      6.07927333745728
  H          12.21706724513135     29.87444099110462      6.11335015094729
  H          14.15344036513916     31.66367400068043      5.73752864483598
  H          13.48991317884301     39.72015891979226      5.78380746067284
  H          10.79780686572782     39.06491776054230      5.73027590618860
  H           8.10121438999197     39.63471648917194      5.80748319753786
  H           6.11908237995108     37.72266434023292      5.76290820899591
  H           5.24976471763225     35.12396811090248      5.70134858319682
  H           3.57290993039037     32.96069342920128      5.83260963150193
  H           4.17375369996287     30.30941873679311      5.85453119614235
  H           5.91651525216361     28.28930103630213      5.78248513976095
  H           6.98163313741235     25.79185667041977      5.85319784799267
  H           9.53164972642850     24.91448784451847      5.80731439124665
  H          12.21272639647062     25.27409703494639      5.71567864708439
  H          14.99779020784617     24.99379884070062      5.83256144528427
  H          17.00162978267312     26.92370562376788      5.84491655920736
  H          17.86316377410190     29.54087215964071      5.77853534911695
  H          19.61983493570513     31.67513200346781      5.83208639578185
  H          18.90117617109909     34.37794456945964      5.83052433780853
  H          17.06954656533759     36.42549909602949      5.76583857023207
  H          16.11899556154761     38.98583690775147      5.83898980005379
  P          11.76927786298098     29.50020894145204     11.24144861313471
  O          11.72928192919284     30.97309968665719     11.21257941943000
  O          11.58023844915245     28.75971130244026      9.91553175781630
  O          13.09685373993594     28.94915277589549     11.91760000375501
  O          10.68493623292346     28.83137230400159     12.20720349842012
  C           9.38434928632646     28.64565066984916     11.68559937921390
  C           8.33718413062784     29.18539072334521     12.63371688512852
  O           8.58841159497328     30.56534159052275     12.96153924349211
  C           6.96969516735902     29.15427182867426     11.97713876682193
  O           5.96589910660357     28.99850259696391     12.94647390770606
  C           6.88939990065444     30.55674978049187     11.37028553463102
  O           5.57765372128770     30.99312879252301     11.15646175236751
  C           7.57414981878378     31.36929221204655     12.46472223774755
  N           8.17061111243854     32.61461331807303     11.99738693532744
  C           9.48727997057293     32.83622798562963     11.64374956689878
  N           9.69613782699569     34.06283897486973     11.23281757760697
  C           8.47698815187770     34.65828380633623     11.30106832361582
  C           8.05417953897564     35.91388700280224     10.87122183673289
  N           8.83862843769559     36.82753715848068     10.31717992355149
  N           6.72678625245261     36.14340949295858     11.05699902767260
  C           5.86612526099295     35.22875989502946     11.59926859525232
  N           6.20644353822229     34.04627973310657     11.98279536247372
  C           7.50925041584748     33.77611053521328     11.78934691916811
  H          13.71876243394646     29.67371696567958     12.03253924114555
  H           9.29029388935610     29.11623263800917     10.70233430501315
  H           9.20876103251176     27.57343778254327     11.54864892064577
  H           8.33697229839581     28.62656542275908     13.57157146569468
  H           6.90720038049444     28.37362098069794     11.20808380344166
  H           5.18196188472354     29.44041028079061     12.59457776391354
  H           7.48764168339316     30.61288514174447     10.45854006656826
  H           5.31447004846089     30.77131399342321     10.25347578060138
  H           6.83766749513401     31.64378733637244     13.22978839248952
  H          10.24862375347449     32.05661115960829     11.68624509726831
  H           9.76939431672358     36.53246309598769     10.06166556351122
  H           8.46565921873425     37.63059029375215      9.83371441273289
  H           4.83780474612711     35.55919416968984     11.68054116803417
  H           6.32514388727283     36.98014696218463     10.65843610790947
