163
Coordinates from ORCA-job /data/Seafile/amp/al_surf/protonated_al_surf/frames/frame12/dry/amp_al_frame12_dry E -13417.891447133685
  Si          3.47357790935334     33.83130930785769      7.70083739217366
  Si          3.48782773607309     30.74396479145899      7.83884799004333
  O           2.12049324878751     34.43481467674747      8.35291566736510
  O           2.14894225862638     30.05768481565418      8.46674931611968
  O           3.60521014918191     32.29939162200812      8.30824086033723
  O           3.40927813337603     33.73080950387936      6.06049799880995
  O           3.46522257173709     30.70138628411922      6.19797941708248
  Si          6.14892971157652     26.12772727243517      7.87674190965668
  Si          8.78754461087441     24.53315591174723      7.89315500264040
  O           4.73384927467525     25.55990987108845      8.44496050778390
  O           7.43338095153157     25.28094887408741      8.41502234117387
  O           8.72357929442785     23.00920185270301      8.46556014374173
  O           6.19976969384964     26.12826947311197      6.23160165276502
  O           8.75541312266237     24.59095790645671      6.24912601877712
  Si          6.13761784972915     29.18646008171699      7.77722594286977
  Si          6.18445134427418     35.35462725791384      7.41821382691116
  Si          8.95597461649176     33.77769866077628      7.45626557952925
  Si          8.90578392685897     30.69751392697153      7.67060482836351
  O           4.84531036110661     29.98329503144659      8.36771060304788
  O           4.83922824450064     34.64317780559001      8.05450351223849
  O           7.46570775890086     34.38935824211251      7.73465303488395
  O           7.48258656874846     30.03504755373078      8.14325970629867
  O           6.25703822110254     27.67906697035226      8.37483072704539
  O           8.87888935744883     32.24851136135619      8.17216683257890
  O           5.89773173119390     29.09268429557531      6.15691587309858
  O           5.94173590460018     35.47986021535262      5.80224380219199
  O           9.20774837775027     33.54983780026913      5.85927983589903
  O           9.03273950998233     30.64601503240300      6.04331683209172
  Si          6.55448549436844     38.39017038164765      7.45892233358609
  Si          9.09698588001687     40.08006653554400      7.80424395125192
  O           5.21434659163342     39.15328445635470      7.62803301156976
  O           7.83805376375700     39.13768418442359      8.21020169873425
  O           6.49266115438314     36.81464871963680      8.02159693284151
  O           8.93288858210775     41.57229527142125      8.46810571812436
  O           7.14048792191120     38.28069776138824      5.90259560612008
  O           9.20792839580436     40.15082316040877      6.16192422600420
  Si         11.47148542865682     26.02791237294783      7.79712142640201
  Si         14.14125410124402     24.52919128003951      7.86464316257735
  O          10.11898268999418     25.33669373837811      8.39817840717484
  O          12.82640945813239     25.34484639808552      8.38355761018117
  O          13.92541361068532     23.00027313985781      8.38613552687993
  O          11.40154199173766     25.73944443174753      6.17901883235276
  O          14.16716928757465     24.61744684413499      6.22108085922418
  Si         11.55357118952038     29.20235369335518      7.77408270365652
  Al         11.70899316375574     35.36847271918882      7.69617051702294
  Si         14.30515695300138     33.71916490626110      7.87943659111111
  Si         14.21556226784762     30.68552910150781      7.83589961005454
  O          10.16873646480709     29.89104623320334      8.32015597320001
  O          10.12689544179219     34.63202436244791      8.11355201210578
  O          13.07099873253540     34.53587302970637      8.47328899984970
  O          12.89083863908971     29.88230168122305      8.40494125356844
  O          11.47716105821740     27.61446085271441      8.12426508814777
  O          14.39773600578438     32.16378030798742      8.46818879089214
  O          11.57910542146664     29.43264167255345      6.14955440885418
  O          11.99110656385189     35.01466674325109      5.98870924365677
  O          14.13029368554744     33.52593012389226      6.25194151775707
  O          13.98171274918959     30.82962533535233      6.21747135441783
  Si         11.79284743648284     38.63736881026825      7.78967717450127
  Si         14.49331428864471     40.07401439747106      7.86185556041430
  O          10.48216978241554     39.43129059006016      8.36611942730688
  O          13.15027919574111     39.34918990594673      8.41158843669618
  O          11.73945484089395     37.07517512498792      8.07965303333356
  O          14.67807818998474     41.62098097650367      8.36983273963684
  O          11.89056079331701     38.99390486162478      6.17137789788583
  O          14.50321856356967     39.95907446387706      6.21917455949092
  Si         16.86384570807849     25.97394624792667      7.89278021570880
  O          15.50850180085937     25.22357157617871      8.41632628819399
  O          18.10104865848722     25.06059415354803      8.43473821821443
  O          16.78042001189193     26.00588709666816      6.24954118355536
  Si         16.93150427022807     29.04429562535852      7.82116338665764
  Si         17.06981927291168     35.29141907696410      7.82460782522313
  Si         19.70351404002130     33.71527048702425      7.85983596955194
  Si         19.55285669056889     30.63171286915490      7.86155300625449
  O          15.51727674597301     29.75443097964536      8.15491847596054
  O          15.75784627209021     34.42993894579275      8.19728775610725
  O          18.40561787909331     34.53263522116833      8.40991159299499
  O          18.16949569466570     29.93549356916607      8.39179178115682
  O          16.92354515493591     27.51851973879640      8.41922693965324
  O          19.70536921149647     32.16450708805773      8.39833912586687
  O          17.14570563054290     28.84637449021572      6.20090736285181
  O          17.32667091227562     35.35713823988528      6.19831871252744
  O          19.58360271291993     33.62702550191639      6.22012923853148
  O          19.47758124203021     30.68896265478835      6.21827982689419
  Si         17.05008736884515     38.36490067799568      7.82405801468505
  O          15.83858568088336     39.29445671011192      8.38906159760064
  O          18.52803052003453     38.90406205519146      8.27462624404082
  O          16.97695219876193     36.82578527427091      8.37593766014735
  O          16.90267434200209     38.29711601257299      6.18613290206585
  O          20.73473922070201     29.63275228756218      8.37883123371310
  O          21.13176289982696     34.34406743305118      8.34457380911417
  H           4.07465744073338     24.98677203322329      8.03659115438795
  H           1.41040897761294     29.60201495571425      8.03674925596042
  H           1.41040897295966     35.00798500597604      8.03674926636189
  H           4.07465747460856     39.62322796533518      8.03659115653812
  H           8.94818085435586     22.17325472229244      8.03830168882578
  H           8.94818088533016     42.43674532074041      8.03830168927007
  H          14.27776170312258     22.17320384790397      8.03828218858519
  H          14.27776172000936     42.43679617526378      8.03828218095169
  H          18.96055658654930     24.87622776824271      8.03640577935389
  H          18.96055650723930     39.73377220349693      8.03640577787428
  H          21.62471721119116     29.49141993536323      8.03658340864006
  H          21.62471724122845     35.11858007691707      8.03658341098003
  H          13.33610557630273     34.06145154208082      5.95236144446923
  H          11.22410123334566     34.72313214195311      5.49136333706332
  H           9.04535949446552     32.65240555581505      5.54388990835146
  H           9.87092017396786     30.24416838569755      5.75315290743066
  H          12.38243600505746     29.91641993383164      5.87039903163880
  H          14.02972453246819     31.78302998879872      5.96167681125336
  H          13.63532603237429     39.65547820561206      5.88858348389624
  H          11.06315058194792     39.36179622060826      5.82619145875269
  H           8.53710843572630     39.57715560837841      5.74764374016752
  H           6.72926677288858     37.59524338062828      5.36787667152554
  H           5.17781094156198     34.98659926279985      5.48232076238410
  H           3.34036960724914     32.82911500413810      5.72319671435020
  H           4.19516830545177     30.18937516193866      5.81909176430905
  H           6.06888675792570     28.21811521207000      5.78214052952928
  H           6.96331150584397     25.64598229300450      5.88075854912787
  H           9.58964557646151     24.91203626706733      5.87092486131147
  H          12.24725058895018     25.47610886930946      5.79107735515738
  H          14.96476158444812     25.05343636523664      5.88353586385966
  H          16.93388850490059     26.89471207083485      5.88786973304169
  H          17.79203881702092     29.45426661908770      5.81513632797048
  H          19.49185756235529     31.59954371914186      5.88187568694234
  H          18.87637686798969     34.19918085941755      5.87470859818969
  H          17.11205300007813     36.21508011204214      5.80566586852561
  H          16.12601420715094     38.78742740454750      5.86900814964179
  P           2.85309743243365     39.74106917374665      9.93692831527097
  O           2.86785357234992     38.34602017260313     10.41868624391141
  O           3.13381474067002     40.03058629373935      8.46259956058930
  O           1.43810702583123     40.43423164879518     10.21665316339535
  O           3.79925941400194     40.70585270763551     10.80604027437962
  C           5.19814440631915     40.69593624615072     10.58360174618446
  C           5.91707468319178     40.38697907611673     11.87480924020063
  O           5.59303016011359     39.06254703489225     12.33814717195173
  C           7.42851041357433     40.42922452869735     11.74436856994827
  O           7.98778697477922     40.84608888967553     12.96906952725423
  C           7.78120470953982     38.97168030837215     11.47153036513635
  O           9.09143035624466     38.72108184907981     11.88991166596949
  C           6.70718519213235     38.24608170162269     12.28858856108420
  N           6.31160441800840     36.95602061937499     11.70839624859900
  C           5.03175544133862     36.49230661282350     11.47757665033849
  N           5.00943271410890     35.24379569606806     11.08399618945265
  C           6.32059925253007     34.88000298033711     11.02845657082553
  C           6.93454576098397     33.71603193225079     10.56783174828735
  N           6.30422164182834     32.63441342388066     10.13076343836833
  N           8.29528356887099     33.75260623206245     10.59744441618058
  C           9.01835124984752     34.83823385934191     10.98065012379423
  N           8.49610063058523     35.94060316258610     11.41296419029760
  C           7.14846913722626     35.93827105304452     11.41001742155896
  H           0.93405851345073     39.84439245975612     10.78396529781666
  H           5.47717152417856     39.99136152557284      9.79407528102845
  H           5.49828889709879     41.69392577410815     10.24719547365482
  H           5.58927728805219     41.08247359216661     12.65083950979129
  H           7.75516518633897     41.07204846239976     10.91904605875995
  H           8.86596741204845     40.44628141095646     13.00684101547718
  H           7.64687317370961     38.75310834858296     10.40842337790660
  H           9.28941321265275     37.79541858675015     11.68380006309852
  H           7.09173576279264     38.03442404030474     13.29553317347751
  H           4.17423924246117     37.15389731861306     11.54434377660880
  H           5.31386704365502     32.72062031333494      9.95132721577811
  H           6.79753536007003     31.95519764100655      9.56976125410995
  H          10.09089877670005     34.73791735857117     10.88226303535594
  H           8.79670981937783     33.00025235516360     10.13287771557871
