36
Coordinates from ORCA-job amp_geom E -1530.016808963277
  P          -3.52175813154241     -1.60165778413568      0.05397078706027
  O          -4.47680094711842     -1.35690536815089     -1.06089759704228
  O          -3.89785920826795     -2.40934163556446      1.24549135917668
  O          -2.18948682860298     -2.21836323279381     -0.64247015141841
  O          -2.98890444542803     -0.18829947755259      0.64989371846078
  C          -2.57658743220557      0.81870757099812     -0.25320334757149
  C          -1.59918188388754      1.73187977296906      0.44932999158957
  O          -0.45608218209104      0.99056645454914      0.90566012565518
  C          -1.05748930483008      2.81614798146735     -0.46345119939810
  O          -0.71470375271012      3.94640581272684      0.30528407395211
  C           0.20349854737261      2.15520332348276     -1.01977183983885
  O           1.19205709979787      3.06561821979375     -1.42166386091105
  C           0.69258284943038      1.36634690302036      0.19004618930551
  N           1.46558659451423      0.19676667198807     -0.13663270279768
  C           1.06787663947710     -0.88659271419847     -0.87646126781557
  N           1.98089150125212     -1.81513782772745     -0.96575778189761
  C           3.04437124469364     -1.32125428489405     -0.24279325945013
  C           4.32182389523609     -1.83056184517529      0.04799861709756
  N           4.74863057293780     -3.01575127447863     -0.39640998312694
  N           5.13973709249082     -1.08459942044379      0.80708204569402
  C           4.71071254827483      0.09698811876760      1.24945075567739
  N           3.53872885769179      0.68242849354838      1.04142657244829
  C           2.74114487066163     -0.07334924299663      0.28624302326214
  H          -1.56906206413868     -2.54064271058008      0.02143645264000
  H          -2.10851433749401      0.37401985846265     -1.13832719574554
  H          -3.43948647894249      1.40657059865093     -0.58353207374459
  H          -2.07699198775332      2.17514523621788      1.32704463383879
  H          -1.76732227448938      3.07760416194681     -1.25604505114557
  H           0.00159714343536      4.39412286985982     -0.16552777483963
  H          -0.06380034554729      1.47258084730204     -1.83137973083304
  H           1.05215621547622      3.28918053621678     -2.34776597135197
  H           1.34897979809118      1.99741738873392      0.79760382031787
  H           0.08009727503767     -0.93905515790587     -1.31203212595743
  H           4.15639443211345     -3.59500733953176     -0.96450327657646
  H           5.67064225877463     -3.33799795238841     -0.15800178553195
  H           5.41852216828984      0.65081644781557      1.86066581081814
