161
12 Eopt=-23.1886295639 (Eh) Einter=-35.620778 (kcal/mol)
Si 3.55625017946235733035 33.84481351564844686663 7.82283052109614196468
Si 3.55593639392336502425 30.76681374687867531748 7.82283149517390707928
O  2.14730574024244980080 34.47995714071941364409 8.40980828668075908183
O  2.14686232117690778409 30.13195801570498488786 8.40980966008559782665
O  3.71008408176917292565 32.30579811824957658928 8.41283350597459467224
O  3.55527628754700852909 33.84681298142855609967 6.16683050552873890382
O  3.55496202344108525040 30.76481349776040730148 6.16683148092169819421
Si 6.21946584914633771035 26.15154206662212388323 7.82287394217126408336
Si 8.88330921965580522226 24.61427032460072084064 7.82291554205405592626
O  4.81039180372313968093 25.51668621490076205305 8.40985212117859326497
O  7.47536479355789129642 25.24941401176327104849 8.40989357709959861609
O  9.03814384298159012587 23.07525464021697203520 8.41291806237770067867
O  6.21949137533552587342 26.14954191126209082086 6.16687394212327522069
O  8.88333532779133072665 24.61627018265870248115 6.16691554147453224743
Si 6.21977961706349979920 29.22954198030408434761 7.82287340368811623392
Si 6.22040688410996800428 35.38154172628040328163 7.82287160242622103823
Si 8.88425004047547872688 33.84427011252770967076 7.82291361273999807935
Si 8.88393609359393110481 30.76627022344025874645 7.82291457247388866136
O  4.81083522160471765972 29.86468586420139814663 8.40985130580837925152
O  4.81133299991153862152 34.74668568448425531869 8.40984985438116972034
O  7.47630579249575077938 34.47941409649423150086 8.40989166561425527391
O  7.47586239261290774749 30.13141405464996225305 8.40989279097573749766
O  6.37361355293370390740 27.69052643232656762962 8.41287612017575625600
O  9.03908416793512969889 32.30525468085609475111 8.41291665641903563255
O  6.21980561687166577656 29.23154162730259741920 6.16687340556171115225
O  6.22043262205596114711 35.37954121382833250209 6.16687165882659638072
O  8.88427604959925254491 33.84626968311857808658 6.16691382172142610330
O  8.88396190909281990855 30.76426993395853060065 6.16691463053395416694
Si 6.22072074619829518127 38.45954160679517030985 7.82287044140725651431
Si 8.88487748137287525196 39.99627008889149237802 7.82291135585386676610
O  4.81177610601128247225 39.09468497702329869981 8.40984815184692813261
O  7.47680356793450684449 39.36141385856272023602 8.40988966096237255954
O  6.37455463447412729039 36.92052622404122530497 8.41287353953848793253
O  9.04002571323862014196 41.53525448478625037296 8.41291307980804781153
O  6.22074678633977207198 38.46154080501696626015 6.16687043903256704169
O  8.88490323181840047084 39.99426934486525198054 6.16691135317274330419
Si 11.54846577652589800778 26.15099867879811768034 7.82295697895900676855
Si 14.21330911129261664883 24.61372707354935585045 7.82299879706002787572
O  10.13939192950490664202 25.51614235629088867086 8.40993508654570476324
O  12.80436466531295636173 25.24887074231866179730 8.40997670590695456383
O  14.36714371911876497734 23.07471151218809879424 8.41300136026197264982
O  11.54849138000900587997 26.14899848774828683418 6.16695698319387108910
O  14.21233531283009199342 24.61572701567170895487 6.16699878121076316972
Si 11.54877945718472176395 29.22899865159547516669 7.82295651080707532543
Si 11.54940678719923852213 35.38099856768138096186 7.82295476855644800196
Si 14.21425025943119280214 33.84372681337166710591 7.82299660258216977837
Si 14.21393623470189737645 30.76572702806499748363 7.82299761321575370943
O  10.13983515757928621781 29.86414246380239134737 8.40993445243750947782
O  10.14033291210062515120 34.74614233517684169783 8.40993316502871302021
O  12.80530552450482062454 34.47887068837052737535 8.40997473963813568787
O  12.80486220414139708623 30.13087062549325878535 8.40997593598292070283
O  11.70261337779880150833 27.68998303501557245454 8.41295918442801848869
O  14.36808341570342228977 32.30471139812858183404 8.41299984089802421749
O  11.54880549455005578352 29.23099827373799541874 6.16695649056849681813
O  11.54943233356696374869 35.37899791497804358187 6.16695479900476328794
O  14.21327581116215021950 33.84572644708101307742 6.16699684038373519002
O  14.21296153304712461818 30.76372662986820571973 6.16699766938948545913
Si 11.54972067847706362897 38.45899842233166765482 7.82295360702372821748
Si 14.21487735083806214220 39.99572667619317911658 7.82299441706350773273
O  10.14077631017525860102 39.09414231856656130049 8.40993138137156748257
O  12.80580347913751992905 39.36087060809847315568 8.40997276084933531592
O  11.70355447870906573371 36.91998299878743239333 8.41295663454189579511
O  14.36902552209516592541 41.53471116422345943420 8.41299609820398508475
O  11.54974665362543184699 38.46099771556383473126 6.16695358470951315866
O  14.21390301602758299282 39.99372599719291798692 6.16699440313447144746
Si 16.87746542559274587347 26.15045547128220349009 7.82304011540160715299
O  15.46839169742354691550 25.51559922100562616265 8.41001837419488218472
O  18.13336401999145763853 25.24832717958472727560 8.41005977138040172747
O  16.87749084804118027137 26.14845510348860457839 6.16704011355435355313
Si 16.87777922052598356117 29.22845543890375097362 7.82303947820567202598
Si 16.87840654865828682318 35.38045524569817246174 7.82303761805226827164
Si 19.54224959830005659001 33.84318370256923458328 7.82307943844783171272
Si 19.54193572885902696612 30.76518365436111324129 7.82308036410016871542
O  15.46883485615008169134 29.86359913409814126339 8.41001742166301191617
O  15.46933264766847671012 34.74559916282174043545 8.41001604002363301049
O  18.13430534230355561931 34.47832742338799505433 8.41005747997341934763
O  18.13386197555797707537 30.13032737181190157116 8.41005879796511557345
O  17.03161308262657058776 27.68943983029939559515 8.41304223166374676168
O  19.69708354463017130342 32.30416803791199242823 8.41308232336074901525
O  16.87780510289826452208 29.23045497537241033115 6.16703947340906122321
O  16.87843198770853092583 35.37845466080257494923 6.16703765973058892769
O  19.54227536053210201317 33.84518324303227387873 6.16707943923326062929
O  19.54196108712060109269 30.76318307158590314998 6.16708037450732327045
Si 16.87872045821056943282 38.45845522155330797887 7.82303644148038568318
O  15.46977615038444220374 39.09359903079973719286 8.41001440638291164476
O  18.13480306153623544674 39.36032780642772621604 8.41005553712826703361
O  17.03255426583194775958 36.91943977727742520756 8.41303949785171667486
O  16.87874623181564714969 38.46045461294843903488 6.16703646358184887077
O  20.79783420236470092846 29.86305524715503167954 8.41010008030994704598
O  20.79833211717597407642 34.74505628324986616917 8.41009857333138910462
H  4.07465747678229472939 24.98677207199226302237 8.03659116520937644168
H  1.41040896869389342783 29.60201497000812409510 8.03674925622723179686
H  1.41040863419233097886 35.00798506315010882872 8.03674921640915584931
H  4.07465743661266532882 39.62322797158527976080 8.03659115998621764732
H  8.94818084691148918353 22.17325470601074499655 8.03830168969452429906
H  8.94818085492391546154 42.43674538744939184198 8.03830167994946442889
H  14.27776171959361306563 22.17320384895988638618 8.03828219414930167375
H  14.27776172981945634888 42.43679616329113457596 8.03828219184202730219
H  18.96055658361775186904 24.87622777357688974575 8.03640577946732292958
H  18.96055645027702141192 39.73377214932204992692 8.03640579949731481690
H  21.62471760227994366232 29.49141980825158171342 8.03658337308670489563
H  21.62471723496364717221 35.11858007488471855595 8.03658341020847188929
H  13.43954240428077540059 34.27033905767047627933 5.76911862115843199206
H  10.79702482790169959515 34.91824970842770881063 5.76839601896148845839
H  8.90770707034463882223 32.96594597033060125568 5.76499475315275855536
H  9.65945434066400210327 30.34299409154069948613 5.76888004456567671241
H  12.30259135520196700497 29.68912270714184131748 5.76803922951848502265
H  14.18560355349177548590 31.64418151769973164278 5.76552258471920531235
H  13.46208428833373638156 39.53603768194461309804 5.76468154442814650906
H  10.78553467520467279428 38.90473306507012551947 5.77122839002001875031
H  8.14831461428265590996 39.50994490515303425582 5.76699955072080872043
H  6.23317386312332644138 37.58286575863193945679 5.76180503583551928415
H  5.45415701916025330576 34.93908511999037358464 5.77152547651254721472
H  3.60566387121347631251 32.96814933280015935679 5.76410508798103293771
H  4.32812544178097091674 30.34544671541463856101 5.76331957715811871168
H  6.21212642482646248965 28.34933201704188832082 5.76816829118743878979
H  7.00946743377733394453 25.75759721968237059286 5.76754704169038578954
H  9.64012207118874897560 25.06582757751015222425 5.76488469567667927151
H  12.31500792478547445796 25.70853944644782984597 5.77192568479113088387
H  14.95343798986751870927 25.09203406325955043599 5.76610003193384113018
H  16.85241664055236299191 27.02653750028921919579 5.76116217623198245690
H  17.64630213669572356139 29.66655898796987145261 5.77122747688037307512
H  19.48194552516766009376 31.64158903533224531657 5.76482831450960375719
H  18.77355784119427539736 34.27390176173815206084 5.76498788532730177536
H  16.88031298613926267649 36.26100719902566993369 5.76894103276797221014
H  16.09309773542015875591 38.86024083653663296900 5.76722976358538197417
P  16.94514856276418868219 31.88661758433437753979 11.43622497052428599318
O  13.21645754720909060609 32.12370315753229021993 12.88475113243400471674
O  10.88741014266936524280 30.55344888086186116993 11.75457236132384863936
O  10.60421305661735402737 32.97330962156230071969 10.69674836915127258408
O  15.66061616283636404034 31.29537065001873230585 12.21331730520022063047
O  11.65225406401124175204 35.55833141321119228451 11.12368624165154606942
O  17.52328784627095714654 33.03349285572687676904 12.23713170601464383935
O  16.54625248570162199258 32.34913997914440386694 10.05168227760565891060
O  17.97161490928454696814 30.67599995152542646792 11.25102083703877298149
N  13.41108730161765905109 34.28131034414079891803 11.83851315557543060208
N  13.75394045447363744472 36.42960609518561909681 10.93407497581453391433
N  15.94752900770536641062 37.30876925529339871446 10.73901613075198824276
C  12.05385381154066770648 31.02339190407081659373 11.12774824528709949334
C  11.93044690889250780685 32.53954252259580925966 10.87568938390836237318
C  13.28203937251312893864 30.94649341102396888914 12.07773052469367414119
C  12.53724852788174004559 33.16061641237265433801 12.15925117709381098052
C  14.63446486559487169643 30.92753704837428685437 11.33751407677406319863
C  14.75479129841443892701 34.13913916777455170859 12.00443200628781781347
C  12.85536720758143935939 35.44049596501000820581 11.29196839944944485978
C  15.61124246470493304173 35.12827233715862007557 11.65938993431140247026
C  15.10887648503369184994 36.31340769595175999029 11.11785278485640127144
H  12.19435005983656949979 30.44460417040220789886 10.20573231761321331135
H  12.51677304386280020765 32.84049395209415678210 9.99336976457663261897
H  13.18913094581403555594 30.09648923544761700555 12.76920964741862896119
H  11.73144599993557157802 33.52288719913877201861 12.81171949157727141255
H  14.63102295511429673525 31.66717651567055114015 10.51935565310310316534
H  14.86711357258190169262 29.94198392882077897070 10.90349731269882838092
H  10.11603470186822306687 30.97329082067044581095 11.31341747360860061633
H  10.63822812362130143526 33.95481775064725837865 10.71989727165435368761
H  15.11250769657766745979 33.20377626627480793786 12.39798837434659262158
H  16.67467247817339881522 34.97895007101099196234 11.74866652244113218728
H  16.93784896840436360321 37.13228007144844156073 10.62761442269888156886
H  15.65100992317018757660 37.99919479313191317260 10.05612281992385170781
H  18.06193058856172228843 30.49822209297935771133 10.29159147239705518473
H  13.38409965469839235652 37.23630432602248419016 10.44775656081341352888
