33
Coordinates from ORCA-job ump_geom E -1477.462345786890
  N          -1.90881472436974      0.16820042638443     -0.10303210411931
  C          -3.24991971705654      0.39708043124525     -0.25037931224871
  N          -4.04935011862271     -0.67160218692358      0.01182685154650
  C          -3.66667526693558     -1.93196012165988      0.50030071257582
  C          -2.25091389000505     -2.03580798062536      0.71013820207285
  C          -1.42925582016975     -1.00970070890096      0.40906012884196
  O          -3.70870591664613      1.48693460269059     -0.58843113709792
  O          -4.52317022719685     -2.77033642318439      0.70648978515749
  C          -1.02361344123951      1.27025504176002     -0.50873956334442
  C          -0.93504127530859      2.39977436281748      0.51759173104694
  C           0.43032869000490      2.98951265035662      0.17906285384416
  C           1.22429493322282      1.75905945522943     -0.23701221289245
  O           0.30318295141879      3.88787994541154     -0.89816003966117
  O           0.25806093620995      0.79247656018665     -0.68681758650721
  C           2.07105947707494      1.19200037797445      0.88543493564165
  O           2.87761721210663      0.13613362506602      0.46432963534075
  P           2.44331268039904     -1.42806858949267      0.74557690619933
  O           1.22704567268714     -1.39506566133097      1.60722556832000
  O           1.96297009376309     -1.89571956358178     -0.74445112511253
  O           3.67944603860750     -2.17058748698761      1.07140056859176
  H          -5.03991314967477     -0.51283242550474     -0.09356386523544
  H          -1.84378993368511     -2.94660433456396      1.12175434798726
  H          -0.35188748331911     -1.06671301072298      0.60136448886663
  H          -1.44635886848377      1.66537939260776     -1.44196045822866
  H           0.88533269632629      3.48682135581339      1.04482054958194
  H           1.86328743397808      2.00033231391694     -1.09043579850664
  H          -0.58181953050050      4.26782424255625     -0.80033309340594
  H           2.72844007029137      1.99916068357639      1.23582321245302
  H           1.43005399859911      0.87244011478117      1.71550413232599
  H           2.69611994304756     -2.39747084813268     -1.10980784243255
  O          -1.94514258136895      3.36490406908170      0.39296211082395
  H          -0.91474291175473      1.96398410567600      1.52490275887946
  H          -2.72587797139975      2.90359558447945      0.03193465869545
