163
2 Eopt=-23.8212251932 (Eh) Einter=-43.056521 (kcal/mol)
Si 3.55625019691377186604 33.84481352331503956066 7.82283052326458250292
Si 3.55593639366375136035 30.76681374918914713135 7.82283149585634962619
O  2.14730563379137251445 34.47995712189749184517 8.40980825211394744656
O  2.14686231981171182781 30.13195801642902438289 8.40980966043577815583
O  3.71008409428502439198 32.30579811968625136842 8.41283350942665997252
O  3.55527628735520906389 33.84681297556451795572 6.16683050718091507747
O  3.55496202324355792257 30.76481349828533495838 6.16683148091062793839
Si 6.21946585187083922364 26.15154206560072935872 7.82287394203259811576
Si 8.88330922072910489362 24.61427032305956430491 7.82291554227416252587
O  4.81039181904099510945 25.51668623375269362441 8.40985212639062851281
O  7.47536479266954234646 25.24941400978348227113 8.40989357689070970991
O  9.03814384341147558644 23.07525463993285796960 8.41291806246872120312
O  6.21949137435910603955 26.14954191159485930029 6.16687394244717079772
O  8.88333532798031200173 24.61627018259525101485 6.16691554184422408014
Si 6.21977960270922825003 29.22954198924560387240 7.82287340542315856595
Si 6.22040691990181304760 35.38154177544839029679 7.82287164855223249305
Si 8.88425012253549262198 33.84427022554758934803 7.82291377323776249142
Si 8.88393626683865988980 30.76627032256889293649 7.82291461099201512752
O  4.81083522037871169630 29.86468585858455071502 8.40985130292116700446
O  4.81133299433780603493 34.74668571267651628887 8.40984984588339479217
O  7.47630574772912925852 34.47941394962518302236 8.40989159485798154492
O  7.47586238989592644089 30.13141403636363335750 8.40989279770872144582
O  6.37361355194687284609 27.69052643027921334351 8.41287612235649540082
O  9.03908400026170610886 32.30525462782998147304 8.41291664974770903029
O  6.21980562031361827735 29.23154162461475280566 6.16687340493027047472
O  6.22043261342350284337 35.37954121168232290984 6.16687165216091948139
O  8.88427616541850539988 33.84626969700566689880 6.16691376025856730081
O  8.88396189573937711259 30.76426992914988289840 6.16691461039201271888
Si 6.22072074951729181436 38.45954160527247722712 7.82287044044484147776
Si 8.88487749065489040845 39.99627008801725480680 7.82291135066205800541
O  4.81177610575840830620 39.09468497615689841496 8.40984815261036366962
O  7.47680356776980570288 39.36141385695541572431 8.40988966367944357216
O  6.37455463184070847404 36.92052622970587805185 8.41287352705244728668
O  9.04002569234761566008 41.53525449288771653755 8.41291308316102437459
O  6.22074678672329550722 38.46154080487357873608 6.16687043977867332956
O  8.88490322811677124548 39.99426934435788894007 6.16691135367060905281
Si 11.54846574702068728868 26.15099868114884529291 7.82295698444740317257
Si 14.21330911563803667264 24.61372707309902807538 7.82299879663912633987
O  10.13939192818696000131 25.51614235905586980380 8.40993508293555791511
O  12.80436466458596633800 25.24887074038596068704 8.40997670804203245609
O  14.36714371853094718290 23.07471152266935376929 8.41300136400029252570
O  11.54849138237754857528 26.14899848515236158164 6.16695698271271641744
O  14.21233531223492008166 24.61572701470460344808 6.16699878108521115649
Si 11.54877946335762217700 29.22899861813506205976 7.82295649742860099707
Si 11.54940685805464894997 35.38099852199960082544 7.82295479274412031145
Si 14.21424992679995291667 33.84372678284869806475 7.82299681013835623844
Si 14.21393602462051930502 30.76572696024869912890 7.82299767726769879062
O  10.13983509055046283720 29.86414237869058041497 8.40993441753003700967
O  10.14033288598338522490 34.74614236800481847922 8.40993307357303265803
O  12.80530558909214633445 34.47887069282725036601 8.40997468171834583472
O  12.80486218829887690163 30.13087074101973428242 8.40997591152479628818
O  11.70261343136955822786 27.68998304020039924467 8.41295918351050886486
O  14.36808382224430502561 32.30471137355798560975 8.41299967565453954421
O  11.54880548814603002938 29.23099828358127183492 6.16695651100786257359
O  11.54943232657313423317 35.37899792651348462869 6.16695479721867378942
O  14.21327586257951303139 33.84572642342327952747 6.16699679066780603875
O  14.21296160114586903944 30.76372664597548123311 6.16699767606890691951
Si 11.54972076334970410016 38.45899840244741341166 7.82295358153367548226
Si 14.21487735430885734900 39.99572668662337804335 7.82299441723015132055
O  10.14077630708042754293 39.09414232818753731635 8.40993139263987821153
O  12.80580348015001135309 39.36087060798277548201 8.40997275879369610152
O  11.70355435333389237940 36.91998301741781318697 8.41295666322191060260
O  14.36902552496356832989 41.53471116437972909807 8.41299609726086039529
O  11.54974664160519637335 38.46099772792700832724 6.16695358956297390307
O  14.21390301415922507999 39.99372599720467036377 6.16699440354921613050
Si 16.87746540053979060758 26.15045546485740501907 7.82304011458392878353
O  15.46839169486935361419 25.51559922161163385113 8.41001837231992332988
O  18.13336401835519851033 25.24832717920588009974 8.41005977532962845089
O  16.87749085131026305362 26.14845510379649695665 6.16704011561359521920
Si 16.87777917582239695093 29.22845538651272079278 7.82303947769828411651
Si 16.87840619107859296832 35.38045504255308060237 7.82303778372133162833
Si 19.54224980599594374553 33.84318403860089574664 7.82307944941852628773
Si 19.54193598006444076987 30.76518364547419537303 7.82308030562175016343
O  15.46883485414745962316 29.86359913791897113811 8.41001744460704259154
O  15.46933271670100751294 34.74559931909998056199 8.41001594852894207577
O  18.13430545271861049628 34.47832738127817009399 8.41005741573109411036
O  18.13386195974521442054 30.13032741350691878779 8.41005882003901028554
O  17.03161313509422214452 27.68943984334406138714 8.41304221960221809695
O  19.69708314592980613611 32.30416792172246687187 8.41308243034858982412
O  16.87780511109913561540 29.23045500160507614851 6.16703947940373620185
O  16.87843206908204507499 35.37845470604174380469 6.16703763479328337382
O  19.54227531600493250608 33.84518316063951459682 6.16707941683931881727
O  19.54196102229387221882 30.76318308505598153602 6.16708037947140841339
Si 16.87872036212515070019 38.45845524386803049310 7.82303644160150213338
O  15.46977612378795186032 39.09359901202698495126 8.41001439480313273123
O  18.13480301736716171490 39.36032776603222771428 8.41005557937964987048
O  17.03255455079607116886 36.91943982435976323586 8.41303943259071118632
O  16.87874624289013070211 38.46045459918330777782 6.16703647680569311262
O  20.79783430550186551500 29.86305526780478913906 8.41010005557658146813
O  20.79833216329993206273 34.74505604379415757421 8.41009858930404519128
H  4.07465742960293297870 24.98677204101166182681 8.03659115489485031958
H  1.41040896893105660581 29.60201496923068731348 8.03674925622038571760
H  1.41040900864585339036 35.00798498494931720870 8.03674926185653859534
H  4.07465743661387858054 39.62322797217890268939 8.03659115983541028072
H  8.94818084666803770233 22.17325470628920669469 8.03830168976438130812
H  8.94818087964726593952 42.43674530342814676942 8.03830168032809844192
H  14.27776169744278256246 22.17320385291230167013 8.03828218838189556550
H  14.27776172853979375077 42.43679616278502209070 8.03828219224188700309
H  18.96055658171542290802 24.87622777668301665699 8.03640577910702091913
H  18.96055653573507981946 39.73377223263931057318 8.03640577077908346837
H  21.62471721081969988631 29.49141991029267018121 8.03658340211076804849
H  21.62471718339564574762 35.11858019669222130688 8.03658337578832160375
H  13.43954240868240113116 34.27033907143104585202 5.76911863007631975364
H  10.79702477771163593445 34.91824968245956029023 5.76839602457642541822
H  8.90770700812757176834 32.96594596230686846638 5.76499475627311497306
H  9.65945432278622462263 30.34299409307507744415 5.76888004968300549535
H  12.30259136110355910887 29.68912269815252358285 5.76803922454653505980
H  14.18560352826048642783 31.64418152497768232934 5.76552258400258299531
H  13.46208428742081686380 39.53603768125088890883 5.76468154458098247517
H  10.78553467414475974806 38.90473305749249277596 5.77122838845967223165
H  8.14831461421958636038 39.50994490582007045987 5.76699955061572033799
H  6.23317386265296224934 37.58286575791554895432 5.76180503591719705980
H  5.45415702014926750962 34.93908511529465954482 5.77152547628840828509
H  3.60566386882639022815 32.96814933230803035258 5.76410508779221419928
H  4.32812544119941033927 30.34544671554434458471 5.76331957718369913835
H  6.21212642421366556533 28.34933201796647850301 5.76816829131782071727
H  7.00946743371908365106 25.75759721984917405280 5.76754704174384968951
H  9.64012207158751266434 25.06582757777165682000 5.76488469562228900145
H  12.31500792636077257214 25.70853944762677301128 5.77192568435631336854
H  14.95343799032791665127 25.09203406448345319291 5.76610003219844724498
H  16.85241664032245267890 27.02653749593968512954 5.76116217505617100869
H  17.64630213627915722441 29.66655897796150753720 5.77122747426873949905
H  19.48194554742706685602 31.64158903570821479434 5.76482831692008801383
H  18.77355785632605744695 34.27390176974346047700 5.76498789025580471446
H  16.88031296096476197022 36.26100719321093635017 5.76894102730595825790
H  16.09309774220594491112 38.86024084239438991517 5.76722976203167547737
P  10.71093479355944921849 31.70441409508375230075 10.88121030113987330878
O  11.27900734950372729770 32.24755160670410703005 9.57966849013964782955
O  9.32730202362430205199 31.10213067911589135406 10.78525549643801539901
O  11.79746165980106020754 30.60630291222637922033 11.29889880994560336092
O  10.68038850783240256703 32.91460076218454844366 11.95606374661382709235
C  10.32594179242537180130 34.09124541792146345642 11.28795249665298072728
C  10.65671713747255466842 35.35521337880065573245 12.10751455898195771965
O  11.79972229142693684878 35.15367941918947991553 12.94005041375247344604
C  10.99633918233832119427 36.56148709786403827593 11.19282158842574403934
O  10.60550208010039874296 37.77912505114475294477 11.77765683786708805769
C  12.54318123005425178462 36.49721039464368743666 11.06168907389377764616
O  13.11339980630147117324 37.78694104930723085545 11.14109540102991502408
C  12.97774039104764298713 35.61266017904313230247 12.26342681114908117479
N  13.84230381730480097247 34.49842778489352213001 11.85979126750421031034
C  13.46968192909071149188 33.18825142218290835672 11.62264625705855358717
N  14.47020077394865467113 32.45354634491155820797 11.23246539980764424627
C  15.55246448823405458484 33.27454374969186545741 11.22049253336432705908
C  16.86903335919735980042 33.03831769199567247597 10.79749038295718222003
N  17.23481647656121396039 31.89756182357062641586 10.16382839031899898430
N  17.69337674963237105885 34.11275352673136751491 10.92936654474899249578
C  17.25264808060745025386 35.33705409164340238704 11.38024922078238887480
N  16.03972455757523007946 35.62255718654299130321 11.73431349743614404701
C  15.19544222016546441978 34.57111280142108711289 11.63514392377875061868
H  12.22280702271538466164 30.38599733248351242310 10.43853453326564739712
H  10.90338399394306634349 34.10108603033524588000 10.34694733195638072232
H  9.25752626181992965826 34.02898244256557092058 11.01553194225839860110
H  9.83236742313775735624 35.60999807734753375144 12.79006496298504913511
H  10.48330041200939355406 36.48678811084712236834 10.22280267877681403377
H  11.32770970143680067110 38.08512506798280128351 12.36977662782354059345
H  12.86536323945305859695 36.01656559564179360677 10.12424695953339792709
H  12.95661973647922415864 38.29008479321233693327 10.30497749634518811490
H  13.53510235702479214126 36.22973641608489003829 12.97945232059231379651
H  12.47638574423751123277 32.79184057110680328151 11.74658351339448891792
H  16.56180969328731578116 31.25944020456883976067 9.74343235836391130533
H  18.09724526690309076571 31.90896635695448679826 9.61753542138332839784
H  17.96237576282867820510 36.14927821814882946683 11.40621269501598611384
H  18.60966494922132596912 34.04760262578113838572 10.48187554028389101290
