159
12 Eopt=-404.2384266961 (Eh) Einter=-6.269200 (kcal/mol)
Si 3.55625019065961911480 33.84481352436570489317 7.82283052247820887004
Si 3.55593639353106372170 30.76681374660784840103 7.82283149617311845958
O  2.14730565017457486476 34.47995712174605387190 8.40980825193198633372
O  2.14686231994221010666 30.13195801559552933213 8.40980966062838497521
O  3.71008409416926010493 32.30579811986562077664 8.41283350967558440914
O  3.55527628809800155807 33.84681297619491147088 6.16683050698840418136
O  3.55496202357708313002 30.76481349809087717517 6.16683148092460786671
Si 6.21946585089298054072 26.15154205742972237658 7.82287394296757820911
Si 8.88330921050611266310 24.61427031293433387305 7.82291553312807774745
O  4.81039181169815499572 25.51668624096172877103 8.40985212307322704817
O  7.47536479761577687952 25.24941401504458582394 8.40989357865679032500
O  9.03814384362356904035 23.07525464243233770389 8.41291806533257080503
O  6.21949137439075450118 26.14954191339693778673 6.16687394267275301729
O  8.88333533026631627649 24.61627018486706219846 6.16691554619078896593
Si 6.21977958968390520766 29.22954204136192402075 7.82287339659291980354
Si 6.22040692995706034907 35.38154181000718523364 7.82287165309877075003
Si 8.88424991672880537408 33.84427051192911761746 7.82291365451783615725
Si 8.88393637036346284219 30.76627077207725946550 7.82291465850974443441
O  4.81083522046285416707 29.86468586789488455224 8.40985129319619773014
O  4.81133299560171678877 34.74668570745962625779 8.40984984956146952584
O  7.47630575277277742430 34.47941388664401785036 8.40989158278718029749
O  7.47586240865874795958 30.13141387662274084391 8.40989283046880053973
O  6.37361354529863977092 27.69052643268722135872 8.41287613325707894774
O  9.03908407044152717447 32.30525452620769755185 8.41291663631200137274
O  6.21980561527778430531 29.23154162351406171183 6.16687340352488000406
O  6.22043261067244923623 35.37954120571871641232 6.16687165268704617915
O  8.88427620637850168350 33.84626964672699500625 6.16691379157845354086
O  8.88396191512988409045 30.76426988711574850299 6.16691461220528402976
Si 6.22072074791716733699 38.45954160507514529854 7.82287044128106945351
Si 8.88487749831771012055 39.99627009640991559536 7.82291135275814752958
O  4.81177610586605641885 39.09468497611359794064 8.40984815225027837471
O  7.47680357012444929410 39.36141385675864512450 8.40988966443014973606
O  6.37455463404357214330 36.92052622769425340721 8.41287352084701467447
O  9.04002568472117040699 41.53525448924531104922 8.41291308424341366390
O  6.22074678756859178463 38.46154080482904902283 6.16687043956117886268
O  8.88490322544442179264 39.99426934554153945101 6.16691135278879265513
Si 11.54846576897348064961 26.15099867943687073080 7.82295700380963943132
Si 14.21330911859396728403 24.61372708477395576665 7.82299880023145544072
O  10.13939193530038451740 25.51614236223492682143 8.40993508883708429380
O  12.80436465884628738365 25.24887072867687010103 8.40997669528168856345
O  14.36714371487975228092 23.07471150753235633601 8.41300136150911903599
O  11.54849137881333298594 26.14899848329714160400 6.16695697422490862749
O  14.21233531020150664403 24.61572701351152758775 6.16699877976842891769
Si 11.54877962304500371715 29.22899875699003757745 7.82295664830570114390
Si 11.54940636089581218471 35.38099845672850563005 7.82295462223592963369
Si 14.21424952444655964712 33.84372664480838466261 7.82299661993340311739
Si 14.21393590379510207811 30.76572697418615121023 7.82299770469396982264
O  10.13983479893744288347 29.86414189743966218771 8.40993437758065276455
O  10.14033311854520569284 34.74614204315769683262 8.40993313488121252419
O  12.80530592246609877805 34.47887113630032018818 8.40997489149008536913
O  12.80486220938258057345 30.13087080528339711805 8.40997576297985816041
O  11.70261340370059066629 27.68998307877360787188 8.41295920459090851296
O  14.36808395257003923007 32.30471136675184595788 8.41299967370028767277
O  11.54880545698628679929 29.23099831515916235958 6.16695647543675740110
O  11.54943246107428755920 35.37899789558926499922 6.16695481620268637357
O  14.21327597135363163261 33.84572652075304688424 6.16699681307816938158
O  14.21296162046528266387 30.76372663698301579416 6.16699767394819797772
Si 11.54972062583165559602 38.45899842756529807275 7.82295359059484951558
Si 14.21487735455608891755 39.99572667709879425502 7.82299441627305380820
O  10.14077630173942523584 39.09414231044940635229 8.40993137745780749981
O  12.80580347655411799224 39.36087060781321866898 8.40997277510591167982
O  11.70355459123043040393 36.91998301358540857109 8.41295664899076456322
O  14.36902551755917301080 41.53471115117653056359 8.41299609808074322359
O  11.54974665935495359292 38.46099771095288133438 6.16695359293815048574
O  14.21390301464997207859 39.99372599796370764125 6.16699440308100577113
Si 16.87746539935585587955 26.15045546471058557358 7.82304011400068599613
O  15.46839169456426077431 25.51559922085924014823 8.41001837119371842277
O  18.13336401769361572178 25.24832717927112568645 8.41005977573485452581
O  16.87749085148097094589 26.14845510313352150433 6.16704011581213773496
Si 16.87777916781081088970 29.22845537211039612657 7.82303947970802671108
Si 16.87840642906432364612 35.38045538632988495920 7.82303760613749954445
Si 19.54224959759935131842 33.84318370397365782765 7.82307943684256823502
Si 19.54193572480594554008 30.76518362513365900668 7.82308036971411713267
O  15.46883488809396922647 29.86359914378444102567 8.41001745523805155358
O  15.46933282751466798288 34.74559900046753568859 8.41001611406652394010
O  18.13430534821828032932 34.47832740621745983844 8.41005749835241012136
O  18.13386196535114081030 30.13032742396144314512 8.41005878411582763476
O  17.03161313713171765016 27.68943984487901843750 8.41304222002599111363
O  19.69708354026079177856 32.30416803829717764529 8.41308233011017669867
O  16.87780511227339985680 29.23045500760882831059 6.16703948037215354816
O  16.87843200780124774951 35.37845463018600611349 6.16703765837636641578
O  19.54227536222785843734 33.84518324448902859558 6.16707943959471815987
O  19.54196108723957081565 30.76318307797972551043 6.16708037247353502153
Si 16.87872042152317675345 38.45845522413924300054 7.82303645949462289622
O  15.46977615029791053303 39.09359903060330765356 8.41001440215849349613
O  18.13480303414621985780 39.36032780912359640979 8.41005554181558956373
O  17.03255433440878263696 36.91943976267980787043 8.41303946336025276764
O  16.87874623779329041895 38.46045460872740306968 6.16703646040026143282
O  20.79783433160729089195 29.86305522698602743503 8.41010005337692945204
O  20.79833211816465166066 34.74505628675778012848 8.41009857288738160719
H  4.07465749737830051913 24.98677206334773970298 8.03659115846594929167
H  1.41040896872057075484 29.60201496988775460295 8.03674925615691648773
H  1.41040907998999642814 35.00798496794702430179 8.03674926350237583961
H  4.07465743664730251083 39.62322797221136028156 8.03659115987208849674
H  8.94818084722142259579 22.17325470564851386257 8.03830168830788238665
H  8.94818092150168986620 42.43674527223507197959 8.03830167875005052736
H  14.27776170912232167609 22.17320394025536955951 8.03828219353439443751
H  14.27776173008563276312 42.43679616486240036011 8.03828219132357091326
H  18.96055658456816672697 24.87622777410954810762 8.03640577889765062025
H  18.96055647330623017410 39.73377211546306853052 8.03640579034853530516
H  21.62471706069342047840 29.49141997385996560865 8.03658342129687675026
H  21.62471723540840784494 35.11858007344083887347 8.03658341065317571861
H  13.43954236372968757962 34.27033903295352956775 5.76911863587975837220
H  10.79702474628952657554 34.91824971063188343123 5.76839603003309342455
H  8.90770699941851518133 32.96594597681190208505 5.76499474851940441056
H  9.65945431985398350605 30.34299409099501332321 5.76888004782607843879
H  12.30259137488953768980 29.68912267435827700979 5.76803923091325287942
H  14.18560352793402579152 31.64418151568852621836 5.76552258309416743032
H  13.46208428985142013801 39.53603768209929114619 5.76468154410805322385
H  10.78553467859304149101 38.90473306818742571522 5.77122838966175866204
H  8.14831461423731795435 39.50994490420551130683 5.76699955063335956140
H  6.23317386242095672344 37.58286575843352039783 5.76180503585618097873
H  5.45415702051170914189 34.93908511596958277323 5.77152547588460684835
H  3.60566386886588841065 32.96814933212340292812 5.76410508784298603047
H  4.32812544122044950967 30.34544671538338533878 5.76331957724928845010
H  6.21212642749764665240 28.34933201794006052410 5.76816829108603990051
H  7.00946743367601676766 25.75759722008937302462 5.76754704157083608607
H  9.64012207143684207722 25.06582757750096845939 5.76488469476417009218
H  12.31500792579615399802 25.70853944838443183585 5.77192568564386032648
H  14.95343799092068870493 25.09203406382079748482 5.76610003237547186217
H  16.85241664027283192695 27.02653749561825691217 5.76116217489308191091
H  17.64630213839385675101 29.66655897765642890818 5.77122747401543989554
H  19.48194552511998622890 31.64158903456663551879 5.76482831431789399801
H  18.77355783872375383226 34.27390176152540846033 5.76498788582109966683
H  16.88031298583658923462 36.26100720322381931737 5.76894103481689857205
H  16.09309773713616920077 38.86024083863279088291 5.76722976404016929308
N  13.79339086604241160217 29.46060111915036117125 11.25649416190148599526
C  15.02108677581469819984 28.85051573510635591902 11.18558112264477522046
N  16.09618205302690441272 29.68184517798689014967 11.21803555764132198647
C  16.07859526237414726779 31.08259464698660323734 11.29068203676161452620
C  14.74983912158173104956 31.61608372861934412867 11.42605328000729159044
C  13.66711354264652911183 30.81279549147585328228 11.38258755948097089572
O  15.14002344374040909258 27.63145327913265347775 11.17076638417278999782
O  17.13261131237271683858 31.68698323552420959004 11.28970852104522570869
C  12.64121563572672357623 28.58625036334635183266 11.07177734970024474137
C  12.20197796826575320495 27.88712391600110862555 12.36999525640080399569
C  10.69730521659970712278 27.62839529618397804711 12.09167041952203369704
C  10.33350292341637910454 28.74502683421902560212 11.08781491344763381335
O  10.43485736917195261242 26.34309958125749773217 11.60476243676670549121
O  11.55136553664478782366 29.29579517818823219955 10.60308206452568313694
C  9.48137292363050043775 29.87574050566120575922 11.68901698650497422705
O  9.32765808927842599019 30.93716374835260296550 10.81526224202554331555
P  10.30530606629268142171 32.27918610933267729024 11.08958705127002453139
O  11.06578334677976371836 31.99581950654941309153 12.34437779214287722596
O  11.36260536077909044650 32.23218373374484713167 9.83449525051680772947
O  9.46253853099086228440 33.48686944302017565178 10.94203350098258731293
H  16.99731590214188869936 29.24728228354739911765 11.05830610001589420222
H  14.63151230745179098847 32.68025462257203628269 11.51874980675816573239
H  12.65338804695333685402 31.19496597055582043367 11.48231458137924754226
H  12.96052134508888897813 27.81619734836648660803 10.34434981580767676235
H  10.10911524736963151838 27.70737120932690800146 13.00889543314369944937
H  9.79378935113030735238 28.31406244553171802636 10.23630490253573555037
H  10.90469466013920474268 26.21103968416228013893 10.77247139476239823352
H  8.48912848984515022721 29.47291450430231662949 11.93123127339828037918
H  9.97819434644259395384 30.24280727049427497377 12.59767394361032621930
H  11.09000449903847140831 32.99819080533245596598 9.34573117296257649400
O  12.91969444926363763670 26.71684662042618896294 12.64589720649770931971
H  12.29356144496638592045 28.59871428922879132983 13.20594220615852165679
H  13.76010068587291357289 26.75543483112922160672 12.15205568941767211300
