37
Coordinates from ORCA-job gmp_geom E -1605.089215483242
  P           4.16882610218082      1.51683373491122     -0.07554365059364
  O           1.40027330856058     -0.80408395278167      1.05915152611897
  O          -0.82603016743510     -2.73387932400988     -0.96678096820317
  O           1.13491879274046     -3.79418146245684      0.61232301801393
  O           4.10900521796775     -0.09001634706428      0.30445471060708
  O           2.80469983715899      1.92662355683497     -0.49620059724242
  O           5.07701043566746      1.47175462927425     -1.44124307203243
  O          -4.13502366653652      2.99088001417939     -0.42670091856532
  O           4.96605011262506      2.14975473606235      0.99474256812296
  N          -0.58524901247620      0.16020425070840      0.31630806785096
  N          -1.07989835158166      2.29980139494808     -0.05738836829278
  N          -2.76688840119189     -0.85257505439161      0.18121549644885
  N          -4.42184119426896      0.75416825735349     -0.17188709052893
  N          -4.99065920102468     -1.49124464955046      0.05969176229153
  C           0.28977112417816     -1.95683098702083     -0.65218975870699
  C           1.52458239950964     -2.75470761999812     -0.26428579426722
  C           0.12516120377739     -1.07644176916454      0.58698033230683
  C           2.34975065799996     -1.68234225134300      0.44062841259242
  C           3.29471170097690     -0.91986972251100     -0.46521121600957
  C          -1.93131303704760      0.22004041083253      0.17200934125578
  C          -0.10894762575579      1.44935211713017      0.15379532909805
  C          -2.22953416922134      1.55520875722324     -0.05053226403197
  C          -3.59759209019499      1.92106716523275     -0.23876075603804
  C          -4.01218942543009     -0.52414455596368      0.01122506453654
  H           0.56617402204808     -1.30174432360084     -1.49087803955681
  H           2.04387905907048     -3.16057514738686     -1.14048196892508
  H          -0.46937041143743     -1.62145365968046      1.33345573871077
  H           2.94724431507398     -2.12243160765792      1.24935325927938
  H           2.72248393212111     -0.33761246257889     -1.19647095450785
  H           3.91461936010080     -1.65000140977067     -1.00803664351700
  H          -1.60971669182897     -2.28247095238655     -0.61276509704840
  H           1.89917102019962     -4.01415472007441      1.15025934087773
  H           0.96102141464415      1.66874908166478      0.16179167429344
  H          -5.40757980360747      0.95898142422585     -0.23107409608312
  H          -5.75076197700240     -1.38086050496861     -0.59259312472719
  H          -4.60017898667060     -2.42062688789994      0.05761404482686
  H           5.98572019611027      1.59712984167965     -1.15487530835409
