160
Coordinates from ORCA-job /data/Seafile/cmp/frames/frame14/cmp_frame14 E -13392.188042163476
  Si          3.50642141944461     33.90375867179684      7.79448031353754
  Si          3.46237685532162     30.79522174765732      7.81340840708831
  O           2.29033995174625     34.80275116995868      8.39691346568303
  O           2.17114407905020     30.04009533120807      8.45735753916614
  O           3.46638292549408     32.35437073912874      8.32756274667531
  O           3.52084225975851     33.89486068017567      6.15603333035632
  O           3.43775988226044     30.84448282417025      6.17748654261999
  Si          6.14681873240743     26.13969057187643      7.80082627882538
  Si          8.82543405080072     24.54488161862979      7.79354681944642
  O           4.80337872463849     25.48456845627516      8.44534883205891
  O           7.49107846136370     25.35136475812222      8.30793384518406
  O           8.76047359603045     23.04592555510706      8.42923776729661
  O           6.11917215509552     26.15218238321870      6.16329390494295
  O           8.78645865831969     24.54247294186608      6.15789676479851
  Si          6.12735731935815     29.23077922357018      7.70805749693273
  Si          6.17162456390055     35.45970304009843      7.70260825146558
  Si          8.90143586047960     33.86806788177911      7.66772264449692
  Si          8.87238044597255     30.79273772421317      7.65432378758543
  O           4.84486933784426     30.05234001941756      8.30602476188403
  O           4.89619976023716     34.62766815150867      8.29560647975729
  O           7.56110497411781     34.69369706708672      8.08720309107379
  O           7.49582294347476     30.03790432029106      8.08953614090733
  O           6.20642763253892     27.70854948095984      8.29453695810051
  O           8.83540809507641     32.32814706526937      8.21943580899948
  O           5.91382467408569     29.17757587935714      6.08651793379054
  O           6.01494569422739     35.60180226679947      6.07957480080250
  O           9.04103930228607     33.81865980033606      6.03371942266760
  O           8.98511761912248     30.89793918330017      6.02496986938298
  Si          6.19572828113098     38.55366587890377      7.78943774189311
  Si          8.92047279144030     40.06716265758499      7.79331232561943
  O           4.93021262446172     39.36161822194872      8.42295480393300
  O           7.56016109606649     39.30927578384861      8.30308653146005
  O           6.22385545849676     36.98640002253592      8.28970740344134
  O           9.05517041170568     41.55590184091845      8.43653782541733
  O           6.21631314600065     38.58359696841641      6.15366259751900
  O           8.93717385516216     40.09078635495838      6.15536209265069
  Si         11.51767295210957     26.06960597678091      7.69997358031371
  Si         14.20008799035859     24.54024759943641      7.79409364449033
  O          10.17078668329087     25.35269591596837      8.29004492697775
  O          12.87834226217915     25.38573617093851      8.29143075617786
  O          14.03704970224455     23.04106423794907      8.40654459651925
  O          11.46965690542820     25.86672031728111      6.07721749108862
  O          14.19877979675542     24.54556460210779      6.15614645203584
  Si         11.51078582160254     29.22577914054639      7.63937044692588
  Si         11.57628445786813     35.37711529396226      7.61057896111728
  Si         14.21827492291168     33.81147613019986      7.55673719344213
  Si         14.17823233482912     30.74306040885942      7.57885327862012
  O          10.17100837000402     29.96967534560138      8.22335197197744
  O          10.23006634683651     34.66519466652237      8.20014502436847
  O          12.93497564461858     34.63581456604778      8.15212502034240
  O          12.87779767239865     29.94571269498988      8.17797330777947
  O          11.48540806378203     27.65855784612478      8.08419492983869
  O          14.25418197116712     32.27932786877164      8.14062201976121
  O          11.44876808831046     29.36547337250210      6.00931701200271
  O          11.58510920272367     35.22985615879878      5.98002643637910
  O          14.06592941962480     33.69254636829034      5.93179795268671
  O          13.98607237808254     30.78457966548493      5.95313061420164
  Si         11.60214216002550     38.53486598523136      7.68728874488335
  Si         14.28639904391298     40.06362059366445      7.80654673201696
  O          10.24248794454675     39.21678305384997      8.28192786659438
  O          12.95343151086145     39.23132230817546      8.29133536954245
  O          11.62488954023810     36.94321360969393      8.05314376693448
  O          14.26375732156558     41.55731070716133      8.45540914764120
  O          11.65688540517568     38.76003040918161      6.06750870405329
  O          14.35070809693800     40.06642794682220      6.17058762716779
  Si         16.90710415456591     26.06690409670798      7.79976073795662
  O          15.56109213730443     25.28602766803355      8.32246577110964
  O          18.22039431958449     25.35594084629567      8.44872001052404
  O          16.87081657329117     26.00854332220560      6.16491838624281
  Si         16.92451444345868     29.15229167113695      7.65922051673344
  Si         16.97785704668920     35.38652754076061      7.67087162632186
  Si         19.63867468000583     33.81873000350298      7.78514021440423
  Si         19.59105654966248     30.70496421639723      7.78408866105344
  O          15.52715001590056     29.92962976576798      7.97292377282671
  O          15.60113517754516     34.55952732975634      7.96031669047197
  O          18.25814242893840     34.56582731562776      8.27297381291919
  O          18.18725800728836     29.99261954199334      8.26169670213394
  O          16.84482037270157     27.63942490319694      8.28433374993162
  O          19.61975796806157     32.25945824743860      8.29992582358773
  O          17.12495557198427     28.96454013612264      6.04502514479403
  O          17.23629518740211     35.46859705677956      6.05288044903629
  O          19.66847631433167     33.78245257878179      6.14922688869341
  O          19.61393286799354     30.68349529231035      6.14608955903828
  Si         16.95510191635571     38.47478199620630      7.78030982798903
  O          15.63481903081951     39.28272979332341      8.32178499990041
  O          18.34372965623304     39.06884510992093      8.38924730578167
  O          16.87685454692407     36.90559786743038      8.26363150800757
  O          16.94449561885185     38.49213996129767      6.14215154371701
  O          20.80503395555252     29.83484563212014      8.43159225436193
  O          20.95815789224889     34.52632523508695      8.42947478956275
  H           4.07465735050541     24.98677196440739      8.03659112389863
  H           1.41040897900203     29.60201497956256      8.03674925698947
  H           1.41040896628987     35.00798501348549      8.03674925392733
  H           4.07465743566095     39.62322798004627      8.03659115991818
  H           8.94818084370075     22.17325472738383      8.03830169084425
  H           8.94818088606657     42.43674508172013      8.03830171827606
  H          14.27776165599073     22.17320401364341      8.03828222627803
  H          14.27776172681352     42.43679617130550      8.03828219179510
  H          18.96055660675347     24.87622775106239      8.03640577593690
  H          18.96055666091419     39.73377234237092      8.03640575203324
  H          21.62471726528439     29.49141992212929      8.03658340364856
  H          21.62471719929272     35.11858005089535      8.03658340519974
  H          13.29786725461515     34.16526208175997      5.57313211878404
  H          10.79086201764838     34.79700537928454      5.62679215320584
  H           9.01900999477413     32.92226280761151      5.66386986962072
  H           9.73976179028067     30.41679176152898      5.64947005152285
  H          12.22835724810925     29.79609910619426      5.62311441541920
  H          13.99418149166014     31.67933308084573      5.57750697628327
  H          13.53555189727252     39.77934243412831      5.73467171975838
  H          10.84412571423445     39.11160355371110      5.67807185324587
  H           8.17967503418850     39.66117354284088      5.73580682818529
  H           6.09963683801325     37.71829742798661      5.73552620514332
  H           5.31318983472914     35.06167536807774      5.68968025397648
  H           3.51651427970492     33.01189864828747      5.76036935285458
  H           4.11143630939027     30.29564771769767      5.75062943480838
  H           6.02730037168191     28.30359370345552      5.68806709464822
  H           6.85623885035098     25.69139619143083      5.74071615427747
  H           9.59101433231071     24.87681417352317      5.73622871639237
  H          12.28382326157311     25.52311361395962      5.68375391590067
  H          14.96102959899502     24.98724894353942      5.75601432128732
  H          17.02984058845716     26.85895674919506      5.72963249600997
  H          17.83743049884151     29.49391861114062      5.66001555196022
  H          19.62961192262275     31.55586657911276      5.72960751497735
  H          18.98479451759588     34.32600379432687      5.73025703888243
  H          17.10979653350604     36.34355059529932      5.66149772654477
  H          16.17535606572409     38.93170681713359      5.75262998987562
  P           9.84775536081679     33.32764707986888     12.14999987560894
  O          13.67798921844411     33.96919143419945     12.99096624975359
  O          15.08518393461830     36.61744499657104     12.48237785820918
  O          16.40281043995272     34.90372145897864     10.94988666643264
  O          10.90415995299552     34.48011818504793     12.58314764234705
  O          17.01997413676987     32.32478348047169     11.47218543171872
  O           9.05244685864663     33.05065458352697     13.37651158776515
  O          10.55951986899207     32.23832234084471     11.42421546633442
  O           8.92795040012068     34.06762390238107     11.03963619216374
  N          14.80238042730590     32.20891497602862     11.92403991977426
  N          16.01124914515401     30.30764146279148     11.23097457331014
  N          14.93913803861673     28.31871101303540     10.90469251277242
  C          14.28568030971168     35.81290278691746     11.64465504550327
  C          15.06483363057245     34.58600086547988     11.19310337915008
  C          13.15796891939621     35.19988231993672     12.45622691003549
  C          14.86638508028718     33.61190285947063     12.35964871579825
  C          11.88838376799514     34.94448785948639     11.67734774214210
  C          13.63933793339194     31.52565855263455     11.86370576801147
  C          16.00113498388991     31.61420625084452     11.53143239322640
  C          13.62319037276299     30.22438714506352     11.49856790171678
  C          14.87475097700675     29.61944953741374     11.20776458306484
  H          13.90868426311271     36.38951245784568     10.79256930294715
  H          14.58096290668838     34.16170395153906     10.30801239824488
  H          12.92409903117445     35.84413083951313     13.30743624953276
  H          15.71006450022143     33.67579977503274     13.05417757769589
  H          12.05997856689730     34.21214936556933     10.88263205616556
  H          11.55381931195042     35.88243554843564     11.22052844628390
  H          15.99405943209922     36.50785301856488     12.16709069364059
  H          16.88884449433646     34.06033382346867     11.06562952157890
  H          12.73369270741197     32.06901077708744     12.10102910601152
  H          12.69512918642022     29.67497818091331     11.43452289521856
  H          14.09711134542168     27.79192997055418     10.74804305068387
  H          15.80493427333601     27.94030984788243     10.55724818439430
  H           8.34289814241030     34.71929255917114     11.44237026403275
