161
12 Eopt=-24.3701346479 (Eh) Einter=-42.162364 (kcal/mol)
Si 3.55619719819679769302 33.84476442922952799108 7.82276369882287880841
Si 3.55589968662869537752 30.76676450871917722907 7.82284085069065504570
O  2.14725502167364901140 34.47991499180843533168 8.40973847894293768945
O  2.14683498754697232869 30.13191597309142366612 8.40984757545150785063
O  3.71004558178528398571 32.30576447541030660204 8.41280319377592178398
O  3.55520854274540187845 33.84672286116834527547 6.16676350494976688310
O  3.55491072749193204316 30.76472331907069701629 6.16684085354098066034
Si 6.21945437450283655778 26.15150720841370812764 7.82297308072918706756
Si 8.88330595296062419663 24.61424971868532907138 7.82302827299598746436
O  4.81038911811584579681 25.51665837329804986666 8.40997994399095816220
O  7.47536351784847408197 25.24940040587642187120 8.41000351800228429511
O  9.03815422712976790365 23.07524947491252476084 8.41306749439273460212
O  6.21946466868916747472 26.14946602802125141807 6.16697313166472849133
O  8.88331682526245103304 24.61620855272050079066 6.16702822424400221024
Si 6.21975153983573747496 29.22950707757774679862 7.82289623864574235057
Si 6.22034610935392517916 35.38150698540878380527 7.82274216203015360094
Si 8.88419747148651239854 33.84424970848146330127 7.82279792033117260530
Si 8.88389997573197121028 30.76624983829448467532 7.82287503398628203399
O  4.81080948204309155614 29.86465818190314180924 8.40987146039745070425
O  4.81128095852825232726 34.74665786813816481526 8.40974902739574403654
O  7.47625505701631176692 34.47940027043470223589 8.40977285026079890429
O  7.47583508449136591167 30.13140034601818939564 8.40988183363229957479
O  6.37359924391164778257 27.69050701214271725803 8.41293571673520190757
O  9.03904511243023023326 32.30524940843662307088 8.41283738912918543917
O  6.21976241529901940908 29.23146575240473765689 6.16689625482477676854
O  6.22035652716131615136 35.37946533563239626119 6.16674219639712628549
O  8.88420830606220413017 33.84620805521741715438 6.16679779395522409402
O  8.88391054522408296634 30.76420827429646109863 6.16687497628232428326
Si 6.22064343925596574536 38.45950675341310898148 7.82266469045738066512
Si 8.88479196155485340114 39.99624949402839746426 7.82264305078986321718
O  4.81170078636096665292 39.09465714082006826402 8.40963963628006716533
O  7.47672681846385067672 39.36140027084319825690 8.40965002998550659186
O  6.37449095191276704497 36.92050681091726715977 8.41270448818755589571
O  9.03993734388146386038 41.53524934027210235854 8.41260523495697754015
O  6.22065423077400314611 38.46146494334103493884 6.16666464689376958574
O  8.88480247205695761181 39.99420773198588108244 6.16664310194871401194
Si 11.54845424717513147073 26.15099232041375287849 7.82300715874610208544
Si 14.21330584967659760309 24.61373496826353601818 7.82306254257260302865
O  10.13938923363308397541 25.51614300763420573048 8.41001392250869450606
O  12.80436339652402111255 25.24888564422563419498 8.41003767784171074595
O  14.36715409152735745124 23.07473487324516270291 8.41310182150185958960
O  11.54846468269957071584 26.14895111332574018093 6.16700719623394455482
O  14.21231681048726436245 24.61569388547805203871 6.16706248853976202184
Si 11.54875153584284319663 29.22899201244833022884 7.82293074756153661298
Al 11.54934596639285793174 35.38099229526891775777 7.82277629150870801311
Si 14.21419733572360577512 33.84373496856630936236 7.82283193202476390127
Si 14.21389987051635372950 30.76573469543967931372 7.82290909620786401035
O  10.13980915312505182158 29.86414303982486018185 8.40990545082658691456
O  10.14028082704120770074 34.74614301873999266945 8.40978328674159314460
O  12.80525482591542818511 34.47888535659678410639 8.40980696661087812060
O  12.80483472517696341697 30.13088597954541469903 8.40991569046982156976
O  11.70259916145800893617 27.68999217093761444630 8.41296973586377028198
O  14.36804489208372004327 32.30473465807328636856 8.41287154541765680449
O  11.54876230057510433369 29.23095094463051779599 6.16693032104948457572
O  11.54935627385601470962 35.37895056038438923451 6.16677637332399442016
O  14.21320798647687766447 33.84569325652466886822 6.16683184704274900412
O  14.21291022399069348126 30.76369355540958494544 6.16690907339085203631
Si 11.54964334594759556296 38.45899206796438818401 7.82269886714172013598
Si 14.21479182355123072057 39.99573457669197296127 7.82267713233813744012
O  10.14070098906308992071 39.09414297224090972804 8.40967387676301747490
O  12.80572673909162872974 39.36088552419313657538 8.40968415685750159128
O  11.70349085160886382084 36.91999208388405406822 8.41273861777485087998
O  14.36893718492913052387 41.53473452661630460625 8.41263927660616772641
O  11.54965410712294904272 38.46095034675025914339 6.16669881853842483110
O  14.21380227527962425427 39.99369288818256507057 6.16667717657280434196
Si 16.87745391206413714258 26.15047761197232034647 7.82304130631720351374
O  15.46838899857925753167 25.51562837297497310374 8.41004824170496334546
O  18.13336275218163962109 25.24837058562294700437 8.41007177007571193883
O  16.87746415398327215485 26.14843622912587761675 6.16704135723382407264
Si 16.87775122891259726998 29.22847752732194237524 7.82296442529582680692
Si 16.87834565748240223115 35.38047741299642723334 7.82281019998064586218
Si 19.54219697048925397098 33.84322009509210005263 7.82286558476875804047
Si 19.54189955964632119390 30.76522001660493188524 7.82294276421877654570
O  15.46880891442214434051 29.86362832400566702518 8.40993959894096221319
O  15.46928063257673180431 34.74562826151628058824 8.40981723723331597853
O  18.13425471547640910330 34.47837082901729388595 8.40984083033311691224
O  18.13383458927072666711 30.13037082352289530718 8.40994984706846082645
O  17.03159883925440354346 27.68947742707326753475 8.41300386860920923482
O  19.69704456675739123739 32.30421987022688057323 8.41290516644295216508
O  16.87776192873848657428 29.23043612883327213581 6.16696437276380748926
O  16.87835593951683321734 35.37843578693931334556 6.16681025201322086104
O  19.54220750871370171353 33.84517861365330304579 6.16686553250812785620
O  19.54190971345002836301 30.76317845100684067461 6.16694281199664917636
Si 16.87864312456202497970 38.45847737824330181411 7.82273276750380208711
O  15.46970084695211866688 39.09362819276005751590 8.40970792168112701859
O  18.13472631108368204877 39.36037116603841923279 8.40971797612168181502
O  17.03249066995370952782 36.91947736193382922920 8.41277248481465989016
O  16.87865370778368401261 38.46043573896618283925 6.16673271729687488829
O  20.79780834094245633992 29.86311288064008095944 8.40997325062814482521
O  20.79828007442031889695 34.74511392554190081228 8.40985083163804780781
H  4.07465743073194186508 24.98677204094085624320 8.03659115567546500358
H  1.41040897172753787459 29.60201494775247965663 8.03674925707681531151
H  1.41040900875049857177 35.00798499004908848065 8.03674926528280941795
H  4.07465743680894654233 39.62322797014176956054 8.03659115938212131880
H  8.94818084719898187984 22.17325470650714080989 8.03830168963114211067
H  8.94818087880277168722 42.43674530227985286501 8.03830168084066265521
H  14.27776170026677782232 22.17320385182769371113 8.03828218734358301845
H  14.27776172775908314350 42.43679615897838175442 8.03828219363635376737
H  18.96055658473455451940 24.87622777343415236828 8.03640577878771367182
H  18.96055653330313006677 39.73377222806141162437 8.03640577825409785362
H  21.62471722975581656101 29.49141993066340816654 8.03658340886985733675
H  21.62471723353939268009 35.11858007530148029218 8.03658341047214364039
H  13.39922796610604294187 34.28531248975479428509 5.85463176804192997338
H  10.85603170773372561086 34.89218233327383700271 5.71721595746744970512
H  8.79316677221533993247 32.97374191208242422135 5.76219940488629944753
H  9.66357960294220852404 30.35160701489975210166 5.76895568110457368505
H  12.30629749818958273977 29.68608880411887085415 5.77123880434585512234
H  14.17430143866489089532 31.65300279637634872643 5.78286316953303192179
H  13.45700859315707731412 39.52750482876997750736 5.78093078866180576370
H  10.82185198546585347401 38.95872177540596936751 5.76976940800090876138
H  8.14980839605724938224 39.50861002802650290278 5.76627385362332667285
H  6.23194667463829166110 37.58116492028138821979 5.76471310417574400731
H  5.44704954649389350152 34.95093753076179865502 5.77257541103091043055
H  3.60664931790275122836 32.96826993700512531404 5.76388710620245081628
H  4.32819222546811488428 30.34484059053210813772 5.76402040856391550960
H  6.20754700955891980385 28.34935899817853766081 5.76818374049288085104
H  7.00943285751353961643 25.75772182450768355011 5.76748914537551105042
H  9.64047060869338068301 25.06526887664023917068 5.76511829271655251716
H  12.31477063308093100602 25.70825778265302119507 5.77188275748249068897
H  14.95393929807101685014 25.09100721828407287717 5.76597661932209426539
H  16.85170393382208686717 27.02666099244554231973 5.76146800074377463119
H  17.64768340240677346742 29.66420704472564295884 5.77142433821174982711
H  19.48180900405413495946 31.64168672098222856448 5.76490010379408968078
H  18.77140968698468981302 34.27358367953654294524 5.76790924682753392005
H  16.89481965135782104426 36.26079389640221251057 5.76914703402661466214
H  16.09152697004586229923 38.86028470172065141242 5.76951241495630817724
P  6.17572055383571871801 31.86639488361841188180 11.17402127736754735565
O  7.32316249441574029788 35.27818765863226957435 12.94099852907504200061
O  6.26433573146732047832 38.00718824484899016625 12.00502290266865834667
O  8.72807543139841968127 37.84626530747677009003 11.00117078723474506319
O  5.88097174400797939597 33.16210296605702012585 12.09546524515015519796
O  11.07376548987834752324 36.24576682378312142419 11.46532579232338555641
O  7.30574885549680708152 31.07604745148351454986 11.78964546762460940954
O  6.50829789203470188141 32.31987192450360169005 9.76947549976739892941
O  4.82895545046988150517 31.01493518227200851811 11.07700295959003966573
N  9.39856511346281209285 34.73538567250470521230 11.83635167290006151575
N  11.46184766922939957112 34.06284627504318507363 10.90786039995882461540
N  11.72104603082280860349 31.85019232970831026819 10.08334689719823629162
C  6.50137100419434688092 36.80829590605770107459 11.30597923433217744105
C  8.01492540025334676557 36.63236627184827653991 11.05242288993806809572
C  6.15563562252423501775 35.56076850766501706858 12.16474819398015938532
C  8.48371261093323880687 35.78553046426402772795 12.26312620275834319727
C  5.79783312238252168669 34.32581370149438271255 11.32064467317069400565
C  8.94335586742674593097 33.45634594086066471164 11.74098552535047801371
C  10.68278349768838353384 35.09027189914438338292 11.41440484341503847077
C  9.71164380731433141136 32.48028499802373403327 11.20247117445183882012
C  10.99817054763075496737 32.78203642012687168972 10.75001113090922366666
H  5.91816883885517519559 36.83670305055370874925 10.37472026596637419971
H  8.19369841958193489972 36.08786698768567191564 10.11070629406884080481
H  5.35889960201236892345 35.79437942100246061727 12.88454757212544876666
H  9.00857846935591766169 36.42781273453122281580 12.98231908799177602987
H  6.51933552319681197673 34.21815849284451616086 10.49240710985608338035
H  4.79112536406670752598 34.38677799796534628740 10.87650734446586042736
H  6.89053150269531133887 38.68208902563701911959 11.66051438595924949482
H  9.67827435223310139634 37.59796407870284440378 11.04214593312989478591
H  7.94369309350449004370 33.25226996305874394011 12.08308086341283882348
H  9.31092799529245951362 31.48828136768699081927 11.07250296053843641175
H  11.25481616357680714202 31.05586930114710142448 9.64096769498203087778
H  12.59721099838084334976 32.04544334604859301407 9.60095346057177678745
H  4.82284417988737068583 30.59586112626420728589 10.19188283190190169591
H  12.34289082937734072232 34.32071947805316369795 10.47275180837247887666
