162
Coordinates from ORCA-job /data/Seafile/amp/al_surf/frames/frame16/dry/amp_al_frame16_dry E -13417.292198866782
  Si          3.48603078133840     33.88566482939359      7.87904873155654
  Si          3.45126519366016     30.79329503800645      7.93299640790439
  O           2.27889440502257     34.84535919757128      8.41945670611047
  O           2.16201463297211     29.97429351700055      8.51252903454841
  O           3.36720322512860     32.34615670779500      8.41054642628585
  O           3.47081272029247     33.81027942511555      6.22732161085400
  O           3.46547907546260     30.82283021211201      6.28270506266824
  Si          6.14180864138508     26.12936325369714      7.90660885577402
  Si          8.80074989323527     24.54491092713953      7.87869939534768
  O           4.82976128233448     25.36459600655717      8.49973307811483
  O           7.48354648808474     25.34196109957000      8.40099928934210
  O           8.70125306004038     23.01431864673572      8.44673683672015
  O           6.15136279532366     26.13419661259053      6.25421323692615
  O           8.77164906246228     24.57275394064729      6.23078275829662
  Si          6.08141596889775     29.21538681843256      7.82543575576404
  Si          6.13076725483126     35.44933763135786      7.76196428577359
  Si          8.89832493158882     33.87182202203044      7.67643982287679
  Si          8.84199484226219     30.77537605284466      7.69564208158885
  O           4.83261535197561     30.07409241579512      8.43366656447065
  O           4.86441357438599     34.60280841361764      8.33555927613520
  O           7.51381467007970     34.67949091403293      8.03783058539709
  O           7.47696384331827     29.97654408524023      8.08829557431955
  O           6.13902196038454     27.68175750174183      8.38612508452223
  O           8.76185658972346     32.30974229270971      8.19236375585397
  O           5.74353423605000     29.11194543315602      6.20969232910474
  O           5.87580536457990     35.67661007704882      6.14207785921691
  O           9.03923397680523     33.77943715692900      6.03355671905755
  O           8.99891580837113     30.80753905031309      6.05574988100554
  Si          6.19730646959353     38.52627321762913      7.86224838137634
  Si          8.87498860597165     40.07520026819983      7.87537716333597
  O           4.94996498119252     39.43893885172245      8.40884723769022
  O           7.57101098848171     39.23949418741768      8.38468917961132
  O           6.14957849226966     36.97562315127915      8.36136437304131
  O           8.68806505199555     41.60185395657322      8.44113645299912
  O           6.24683020085232     38.52732467052288      6.21407003552751
  O           8.89488606231292     40.02440735600001      6.22494039557160
  Si         11.47383456703498     26.06686487633981      7.76521963748495
  Si         14.14867850844541     24.53899676626922      7.83690827106597
  O          10.15791919832762     25.31504726245278      8.36432998261133
  O          12.85276305400511     25.38929437560101      8.33525104550474
  O          13.92501865788729     23.01027273298673      8.36596039677496
  O          11.40838474131655     25.77189928292838      6.14450235235380
  O          14.21180184552701     24.59787535484979      6.19282390146929
  Si         11.50173964480605     29.24761033845095      7.75490250443673
  Al         11.66203902451930     35.41109173473000      7.80529056577757
  Si         14.29601233546556     33.77071924703426      7.86977594450564
  Si         14.19202172086001     30.73326723425694      7.75370274293414
  O          10.14326219947470     29.96674058070566      8.28160161408213
  O          10.15995225953578     34.63474019367723      8.28519155690713
  O          13.10770033319787     34.62667660870662      8.53054912790677
  O          12.88012259826403     29.92561971659894      8.29630770322457
  O          11.46734284578434     27.64542162571850      8.09441877542936
  O          14.37229273451746     32.20783230186744      8.40616362963956
  O          11.51321841610712     29.42717379091326      6.11335235583347
  O          11.89116816466767     35.07774937758511      6.08025272940259
  O          14.06894135577547     33.66083565878531      6.24647484875797
  O          13.97928856505259     30.91114763904169      6.13330985832617
  Si         11.65358438176690     38.69085463467570      7.82886113621892
  Si         14.40019490463771     40.07340912710119      7.87654208725492
  O          10.29085095301963     39.44795849016836      8.37296102927443
  O          12.99935372605066     39.46087234362456      8.42312239877242
  O          11.66934846435196     37.13949112150427      8.13962355437234
  O          14.67662667908788     41.61824824734618      8.36035942867488
  O          11.74786286449337     39.05263292279415      6.20945609319556
  O          14.40521149811807     39.94594443503524      6.23295172318158
  Si         16.87365762903283     25.99134538276317      7.88469948708973
  O          15.52253617476018     25.22494167986255      8.39687750084552
  O          18.12099764651572     25.10368828739820      8.45374586478619
  O          16.82886133257826     26.01426934766419      6.24051447227555
  Si         16.91633879953094     29.06515637966519      7.81146175023339
  Si         17.07697208354809     35.31355399935356      7.82133789105367
  Si         19.70370454770997     33.72247865025000      7.86619934908283
  Si         19.55244945322855     30.63594247265341      7.87182242189605
  O          15.50793079172436     29.80583016391196      8.03682178984965
  O          15.76891235928700     34.45065791212910      8.17369109144205
  O          18.41906904371153     34.56512937874363      8.40721147364900
  O          18.16669775413731     29.94463022474957      8.38144330381264
  O          16.88070607760922     27.53512189641521      8.41441381575312
  O          19.69730678339948     32.17471823079598      8.40255024618370
  O          17.19966853478363     28.81407718285005      6.20073031965544
  O          17.35876102220891     35.38917007782267      6.19611104380648
  O          19.59401674699488     33.64332616408222      6.22361484785181
  O          19.51918464990289     30.69373949644783      6.22479969225309
  Si         16.99556834707939     38.39721913492842      7.85004798782494
  O          15.71877389377706     39.24970311581139      8.40389982923401
  O          18.44277549426498     38.98154974139382      8.35089259677038
  O          16.96644473015342     36.84960287874574      8.36860854179150
  O          16.89545845786568     38.38349540308914      6.20644976474179
  O          20.74634971086838     29.65234796077102      8.40085441808839
  O          21.14234571613533     34.33982286241501      8.34862747433151
  H           4.07465737964997     24.98677204847169      8.03659114904492
  H           1.41040896648957     29.60201497331659      8.03674925819442
  H           1.41040886980449     35.00798493191719      8.03674925930550
  H           4.07465743372608     39.62322797579527      8.03659115943198
  H           8.94818084270227     22.17325471275301      8.03830169627389
  H           8.94818091170202     42.43674520577871      8.03830169630278
  H          14.27776170888843     22.17320371462266      8.03828217434792
  H          14.27776171071243     42.43679624317139      8.03828218830702
  H          18.96055650921855     24.87622772859252      8.03640579527044
  H          18.96055669576853     39.73377232404841      8.03640577151712
  H          21.62471721966264     29.49141993185213      8.03658341286055
  H          21.62471735307096     35.11858019750947      8.03658340136155
  H          13.24157260193394     34.17770840879523      5.99652478617373
  H          11.09610655632571     34.71566694412527      5.67580947551041
  H           8.97687437697562     32.86926781218996      5.71390286191041
  H           9.80059056438751     30.34789428605004      5.75937146358562
  H          12.30173214574386     29.91181001248377      5.81416560051566
  H          13.99726417599469     31.86385158181184      5.89513973107616
  H          13.53592296496448     39.65292602775172      5.90170675548830
  H          10.89169475822892     39.24652721666152      5.80915971504760
  H           8.10399978664381     39.59741399196749      5.86576205534129
  H           6.12312525179495     37.63273466650931      5.85504230744219
  H           5.21548261090232     35.07743894364994      5.77259779410385
  H           3.48954223745053     32.89550440506074      5.90997050808015
  H           4.16194634295347     30.24954834928973      5.92170039625709
  H           5.93834033951445     28.24427763088823      5.83356690132092
  H           6.90832907149040     25.65542629795254      5.88937844737804
  H           9.59346346002325     24.92772154611615      5.85718666872060
  H          12.25625671867842     25.53640697162705      5.74913059505056
  H          15.00309849646628     25.05414203963369      5.86910863560926
  H          16.97575073078696     26.91224741732394      5.89311085004135
  H          17.83661566444886     29.43126687766628      5.81702971453368
  H          19.51240156681342     31.60561803088651      5.89331502782259
  H          18.88423024183568     34.21474929344431      5.88199678149820
  H          17.11629292928652     36.23384250147399      5.79569304465372
  H          16.09308209840545     38.83014107416442      5.89062887717741
  P           6.58042454259689     31.65914381602433     12.22711179900297
  O           6.44370662683894     32.79598039205791     13.16635029354647
  O           6.20608042037740     30.25409182030716     12.50674907344537
  O           5.84863377079804     32.11873319668535     10.82800658692346
  O           8.15932758351526     31.59997237997468     11.72669056814773
  C           8.74906527610215     32.81569033863297     11.36403174223870
  C           9.54263268724366     33.48175480530189     12.47661405669230
  O          10.48280266311235     32.58088728867122     13.09089127574770
  C          10.40401159964643     34.57643526971223     11.88602131981813
  O          10.81376515112321     35.50247213905767     12.86506733353822
  C          11.62035853475225     33.77655884580329     11.40223815290376
  O          12.78122583223976     34.56294487121251     11.34351074247597
  C          11.72186332902436     32.67806237175287     12.47445217759817
  N          12.08935197762548     31.36552918808309     11.95146263024728
  C          11.23089392718232     30.36755162306315     11.56226934574742
  N          11.84900122112246     29.28326415736700     11.16220776014112
  C          13.18110977625506     29.58039070306452     11.30593269094313
  C          14.34549344806537     28.86256793868534     11.02263839430002
  N          14.30818502902979     27.59185004450015     10.55476393375899
  N          15.53065470479465     29.44235845663387     11.23214717195985
  C          15.54640746038677     30.68556320657069     11.72347744882583
  N          14.52539552130742     31.46757037484956     12.03381591977812
  C          13.35589536230806     30.87303756629355     11.79481669616740
  H           5.65124727267776     31.31264665640773     10.34290062434256
  H           9.41316317632881     32.61043747038447     10.51885648687294
  H           7.99839539459693     33.53428101658846     11.01420818280857
  H           8.86739825238605     33.81805472004405     13.26253358570069
  H           9.90402813463164     35.08198939674007     11.05085056598346
  H          11.69216820431398     35.78991318956874     12.58064605028800
  H          11.41147046249742     33.32926574493478     10.42810368743496
  H          13.02070425240250     34.67029916099375     10.40870049900199
  H          12.50743634530832     32.94809528382339     13.18791450764009
  H          10.15659154236600     30.49769971586993     11.62646559969139
  H          13.43312612153259     27.26726760357700     10.18061389831593
  H          15.14963869801677     27.24726661979611     10.12712368866598
  H          16.53561070028461     31.10981106147372     11.87617267870039
