159
6 Eopt=-404.2431621672 (Eh) Einter=-9.240754 (kcal/mol)
Si 3.55625020150425452670 33.84481351506143198549 7.82283052649109222898
Si 3.55593639222244828346 30.76681374802586077521 7.82283149518689224777
O  2.14730563657152195844 34.47995712005329949079 8.40980825227088502061
O  2.14686231984475384138 30.13195801615957591935 8.40980966071372471049
O  3.71008409502383962320 32.30579811900791042945 8.41283350856321376909
O  3.55527628710011889268 33.84681297692613100025 6.16683050709248803400
O  3.55496202351409706921 30.76481349875351867240 6.16683148149142201788
Si 6.21946585332442669625 26.15154206524218238883 7.82287394110010225745
Si 8.88330922051947169393 24.61427032744122556096 7.82291554276423450887
O  4.81039181897058298887 25.51668623368533417306 8.40985212641686707968
O  7.47536479371245032866 25.24941401113455796690 8.40989357705236173501
O  9.03814384359982270212 23.07525464034610962472 8.41291806278794851437
O  6.21949137437578514209 26.14954191127027982589 6.16687394260448051853
O  8.88333532853521390393 24.61627018284126933167 6.16691554201588409967
Si 6.21977960249533978754 29.22954201222193759691 7.82287342389899897910
Si 6.22040692524759908366 35.38154178681718065036 7.82287163434282906138
Si 8.88425000303210588015 33.84427041464556396022 7.82291351748122476550
Si 8.88393636525080765409 30.76627062295687053961 7.82291475000117486616
O  4.81083522003536323552 29.86468586362152777269 8.40985129572164602507
O  4.81133298604155168476 34.74668572781570219377 8.40984984309153915660
O  7.47630577154517439453 34.47941389553403013224 8.40989164235842068251
O  7.47586238370347366811 30.13141395098654129470 8.40989278028542130983
O  6.37361354530388801720 27.69052643272112845807 8.41287612410148888387
O  9.03908401636517844224 32.30525448171913183160 8.41291672083416308681
O  6.21980562277629545065 29.23154162142118295264 6.16687340141791828785
O  6.22043260769714922986 35.37954121767772619478 6.16687165098258205376
O  8.88427620393717631941 33.84626966936065173286 6.16691384231907058222
O  8.88396188451811141817 30.76426990684271345344 6.16691457425221756239
Si 6.22072075114316369593 38.45954160417646505721 7.82287044089527761059
Si 8.88487749814490967992 39.99627009457190496278 7.82291135274237703356
O  4.81177610538247169103 39.09468497592587254985 8.40984815280249620173
O  7.47680356733658690871 39.36141385587931296186 8.40988966379745939150
O  6.37455462955452389906 36.92052623164745028816 8.41287352777680830229
O  9.04002569373468389813 41.53525449282378190219 8.41291308189978082055
O  6.22074678550065840454 38.46154080417058906960 6.16687043968989900833
O  8.88490322605444404758 39.99426934460683469297 6.16691135396410849978
Si 11.54846554160294225255 26.15099866529194727605 7.82295705374575689461
Si 14.21330912485713149351 24.61372708993128455290 7.82299880055965335401
O  10.13939192937179711862 25.51614235827189958172 8.40993505777752226038
O  12.80436464763919524046 25.24887071449417064173 8.40997671564404924993
O  14.36714371421118485728 23.07471153242349970469 8.41300136328369596583
O  11.54849141154048020042 26.14899847360395312990 6.16695697881263171780
O  14.21233531119558790579 24.61572701431479259782 6.16699878065371009939
Si 11.54877925126004178935 29.22899841461777015184 7.82295689177831654604
Si 11.54940673183012478376 35.38099853782198778163 7.82295478880459871363
Si 14.21424991350775002275 33.84372687072369245698 7.82299680210522296875
Si 14.21393607038485207283 30.76572685090498993077 7.82299773564990363894
O  10.13983501166923950620 29.86414217061799902808 8.40993421531028673144
O  10.14033296455822252824 34.74614228567698148709 8.40993314017810611460
O  12.80530558151232689568 34.47887070377917240194 8.40997468923035640387
O  12.80486213938463890827 30.13087097621477639109 8.40997579410124451726
O  11.70261382761487212179 27.68998315148111899475 8.41295900315961020510
O  14.36808381385956856491 32.30471137177703155885 8.41299969113233281348
O  11.54880550984453968510 29.23099835297438175985 6.16695645288920601956
O  11.54943233461448492960 35.37899794158771982211 6.16695479752013131503
O  14.21327587129658098775 33.84572642467309577796 6.16699678592663858012
O  14.21296158287871946868 30.76372665971919317940 6.16699766911700386629
Si 11.54972066104831718292 38.45899842611365215816 7.82295359098963505318
Si 14.21487735637831306690 39.99572667255817748355 7.82299441808635886986
O  10.14077630444936417575 39.09414231234276826399 8.40993138182553323645
O  12.80580347800596641150 39.36087061209647686155 8.40997276747151012444
O  11.70355450968168042891 36.91998301142434257827 8.41295662974089530906
O  14.36902552597855198258 41.53471116835107324050 8.41299609914880264228
O  11.54974665202568218092 38.46099771148857371372 6.16695359178052626703
O  14.21390301413859624802 39.99372599882421042139 6.16699440296602130474
Si 16.87746539935701406421 26.15045546517253782781 7.82304011498534901392
O  15.46839169432952587613 25.51559922178384809399 8.41001837102162497217
O  18.13336401822249044358 25.24832717930839010023 8.41005977556604555900
O  16.87749085149541627970 26.14845510325428179499 6.16704011555125131139
Si 16.87777918063347826205 29.22845538301961454408 7.82303948021090711507
Si 16.87840650236410056095 35.38045526610111579657 7.82303765223763125647
Si 19.54224959901488745118 33.84318370376704621094 7.82307943923529514052
Si 19.54193573155652785545 30.76518362559170682857 7.82308037197153094411
O  15.46883485573549243952 29.86359913960066236882 8.41001742887782199887
O  15.46933269723061243894 34.74559912936462069410 8.41001601426354383761
O  18.13430534126399606976 34.47832742195872413049 8.41005747961630589771
O  18.13386196617438628209 30.13032742246130979424 8.41005879016751833888
O  17.03161313508843832665 27.68943984434129035321 8.41304221930484708025
O  19.69708353701464176311 32.30416804054885915320 8.41308232704449565631
O  16.87780511007725792183 29.23045500261847706724 6.16703948062376028361
O  16.87843199481663702954 35.37845465748684858909 6.16703765315372898215
O  19.54227536098010631349 33.84518324318457160871 6.16707943893540999625
O  19.54196108730486258764 30.76318307819213515586 6.16708037270153575093
Si 16.87872042525984639383 38.45845522863326237939 7.82303646004349761967
O  15.46977615280454543267 39.09359903666030078284 8.41001439926103167011
O  18.13480302847705161184 39.36032777483284661457 8.41005555170960938938
O  17.03255432147877712623 36.91943977464222115259 8.41303947266086282752
O  16.87874623687825348384 38.46045460898404400041 6.16703645967431945962
O  20.79783428742068451811 29.86305523095337832729 8.41010005883533473536
O  20.79833211865423336917 34.74505628357467656997 8.41009857297100538176
H  4.07465742964456367758 24.98677204097285198259 8.03659115496367171261
H  1.41040896896425493878 29.60201496949708399598 8.03674925616236635051
H  1.41040900886566689110 35.00798498626970456371 8.03674926203488126930
H  4.07465743682518688473 39.62322797241928640233 8.03659115990240557892
H  8.94818084646442812868 22.17325470598027337132 8.03830168966795177710
H  8.94818087830147135264 42.43674530336883066184 8.03830168074168582848
H  14.27776169430635633262 22.17320385490369716308 8.03828218984094888810
H  14.27776173191694120135 42.43679616654733877112 8.03828219034393320896
H  18.96055658448776171099 24.87622777381447747302 8.03640577883171758344
H  18.96055653559262665908 39.73377222677800091333 8.03640577822854140777
H  21.62471722962365205944 29.49141993067053491018 8.03658340862585518494
H  21.62471723465998252323 35.11858007485749766374 8.03658341033733414349
H  13.43954240822136725342 34.27033906158220588622 5.76911863051354778520
H  10.79702478739782556261 34.91824967028209414366 5.76839602554468555695
H  8.90770698850801778690 32.96594594235865116616 5.76499474756678065290
H  9.65945431996996184409 30.34299408786899121537 5.76888005149098326285
H  12.30259137553751180860 29.68912266802222177375 5.76803921869726199390
H  14.18560353037295662659 31.64418152122578575813 5.76552258310147092146
H  13.46208429024301267418 39.53603768207535296142 5.76468154396583187804
H  10.78553467892178296950 38.90473306672896569580 5.77122838995577769339
H  8.14831461456655326003 39.50994490522707991431 5.76699955029592814526
H  6.23317386316654875600 37.58286575687537833801 5.76180503621098161204
H  5.45415702247191358509 34.93908511193961885510 5.77152547676997329518
H  3.60566386837540697741 32.96814933228751698380 5.76410508779873875795
H  4.32812544067686388871 30.34544671556368911070 5.76331957703460062703
H  6.21212642502103307152 28.34933201679759307012 5.76816829089921068174
H  7.00946743362728152960 25.75759722016133679290 5.76754704175240906494
H  9.64012207171347412782 25.06582757757178114844 5.76488469564936600875
H  12.31500792931049659273 25.70853945681193408745 5.77192568305761177783
H  14.95343799101598136758 25.09203406353544352214 5.76610003238441137796
H  16.85241664018953144932 27.02653749624107248906 5.76116217512468420381
H  17.64630213783744494549 29.66655897842927913644 5.77122747404207458999
H  19.48194552508918775402 31.64158903497407138161 5.76482831434442921648
H  18.77355784179141551249 34.27390176086409923073 5.76498788543837736853
H  16.88031298485070053061 36.26100719859055487859 5.76894103316009143612
H  16.09309773690172562510 38.86024083829505570975 5.76722976413898091863
N  9.48611317076549909189 29.93247731638884800986 11.55161282894143504052
C  10.34006495092683586279 28.96370147007788631299 11.08311579596295892713
N  9.76207693821567090708 27.75917317413978224749 10.81783270082793357858
C  8.41365362201401012499 27.41590995190867374731 10.98590133861193329778
C  7.58293336440854837122 28.55423874367678394037 11.28644832028440347926
C  8.13510438526996892961 29.75422703977373473094 11.55193975342872114709
O  11.54201649522729589137 29.15377011521602668154 10.97943205859710502637
O  8.07805597531921293353 26.25093823013944316358 10.91973178124415788659
C  10.11697144750381838207 31.12823828396345149372 12.12577839896711751067
C  10.74979572829393248412 32.05757849703628892257 11.06268958470933583271
C  10.40394296720148226143 33.45792230187509375128 11.60544794099307353008
C  9.08295437894765811393 33.19256497924413906730 12.33730880072227265032
O  11.40042021655697190852 33.90395391686512738261 12.49404337445871604473
O  9.21913017236089160633 31.87296696640646231913 12.87081234862183976020
C  7.87836491343308154001 33.34895045627024501300 11.38176853446850245177
O  6.86717138055819109610 32.45161486089448743542 11.68801021454779132114
P  5.60559116730568618436 32.52155578121652013124 10.52586312629911091676
O  6.23600198522166060400 32.33093514818919800291 9.18992127529424962518
O  4.92416823823725469111 31.10826296279281777402 10.98776699822629865366
O  4.75576867926566748679 33.66559650299119965666 10.90537897011192924879
H  10.37478720208560645233 27.04395075300691075881 10.44291590983369388823
H  6.51625164304862458664 28.42294020717620384175 11.29804924125465781515
H  7.54581750711183296687 30.63365433315218311350 11.79835513561342708044
H  10.91293560405966367455 30.74840507622138829902 12.79176242487339010268
H  10.27490797563192970188 34.17961491204788870846 10.79207720124268021777
H  8.97110148515575644979 33.83788049333487890635 13.21256778554857902463
H  12.23047258655347668821 33.55013237939672876564 12.14089570254160577178
H  7.50030110682758266449 34.37815812816164395826 11.44156102072001957026
H  8.19506238309627832450 33.18063231947271418676 10.35040517057134934475
H  5.07712320613118972545 30.53291422491129480932 10.24247930711001330906
O  12.13850064732925204680 31.90287893356692094926 10.95303593496007721342
H  10.25151820331673846454 31.89682859865405717414 10.10668494691422836240
H  12.30795308725192782617 30.98315638602803900881 10.68855359806992488814
