163
Coordinates from ORCA-job amp_al_frame14_dry E -13417.889247399604
  Si          3.48739721020749     34.00530248191244      7.77861124992648
  Si          3.35947856817700     30.95541977155053      7.82424600684089
  O           2.34144831316708     35.05231655405053      8.27326081252712
  O           2.11388807114338     30.11684927869306      8.45587754573511
  O           3.23581341315349     32.50054847797828      8.34333692356247
  O           3.56937980317638     33.91676607026187      6.13696701565277
  O           3.32702110359540     31.00656647273047      6.17999946821440
  Si          5.95294640390004     26.44473548065712      7.64354691748142
  Si          8.65456384880623     25.10419130045228      7.15925892520368
  O           4.61585111760100     25.75647689974305      8.26757346488619
  O           7.39801572157935     25.81172463388966      7.99105446471408
  O           8.52047295283057     23.55154672617366      7.16237909695051
  O           5.83992732376344     26.58499711568950      5.99965697145825
  O           8.48757632846256     25.86504557841164      5.67881930663064
  Si          5.99125933384796     29.45708698709755      7.62031786456786
  Si          6.14723651826854     35.48645680331668      7.70241030267836
  Si          8.91743136888884     33.94425982322876      7.58809044551638
  Si          8.84181365495046     30.86013963667349      7.41761104097432
  O           4.81466531889520     30.37790714471192      8.28390350554679
  O           4.89259678052872     34.63916981526141      8.30600127082458
  O           7.52164473230378     34.68939134736036      8.02565928528514
  O           7.45956636692429     30.13269849970661      7.85637662720943
  O           5.94302986923644     27.97428067706347      8.25207907584993
  O           8.83122929072131     32.36407271353357      8.04996896145537
  O           5.63615497159097     29.38438577281255      6.01648619398527
  O           5.92040457099176     35.69130093121112      6.08845303907354
  O           9.09443548325033     33.97201751963168      5.96220096925115
  O           8.96046949839955     31.02506732717552      5.79325643164723
  Si          6.20458543891696     38.55794152943306      7.84699520393308
  Si          8.88853742987800     40.08792200017985      7.89677663480820
  O           4.93464304215382     39.40507194965058      8.42613243694097
  O           7.57120513764105     39.25891891607936      8.39287187742340
  O           6.19237081275179     36.99245708496271      8.32584213265040
  O           8.71678448497455     41.60743403792549      8.46792821327038
  O           6.25841397585992     38.58883445629951      6.20374273092846
  O           8.93939279119068     40.03201371150818      6.25017923239819
  Si         11.54995795748318     26.19334079933334      7.29889386188155
  Si         14.13873435007219     24.53876667048651      7.66054614796157
  O          10.09493156109458     25.68427349626619      7.77184245384071
  O          12.79926568460599     25.40731845219667      8.02258949404835
  O          13.95582673148194     23.05219379178818      8.28865467034346
  O          11.70952189728566     25.99602951757139      5.68408302440393
  O          14.27592568965931     24.51507748967539      6.01846574785256
  Si         11.55281832450205     29.37242168259463      7.34817625620805
  Al         11.67747211095662     35.44995083899354      7.81969346574222
  Si         14.28094191660383     33.81377498385790      7.87392529854360
  Si         14.27330177755936     30.79775899609914      7.55435519522649
  O          10.15315728303022     30.01365000794602      7.93762719641294
  O          10.14434657953307     34.68213200981216      8.32528304386438
  O          13.01268092486588     34.52637983101148      8.57081452412766
  O          12.88026934623037     30.06453170467183      8.00640440606679
  O          11.61545602854240     27.79533114710117      7.65687713608569
  O          14.39633906675483     32.22472545696154      8.33778192962160
  O          11.53457671144055     29.72992591548378      5.74747627472211
  O          11.89393550195388     35.16757001858797      6.09952849644689
  O          14.09714640750903     33.78463854414815      6.24457169850400
  O          14.18404815948728     31.06069911286942      5.94441488859078
  Si         11.65495651834283     38.69591111742135      7.87700942294447
  Si         14.39458403858743     40.08198648239615      7.90837673193685
  O          10.28295197119898     39.43266109976651      8.42021968684344
  O          12.99394059495931     39.46366734880950      8.46349497163507
  O          11.67539810809780     37.14581546361103      8.23251972121757
  O          14.65109625425695     41.62208721536530      8.39602078762499
  O          11.73387610566735     39.00574286133354      6.25245295247015
  O          14.39522095024414     39.94614394823670      6.26763208794817
  Si         16.87342625131047     26.00087890252824      7.77451640194106
  O          15.48758522934627     25.28013969445329      8.23363911860559
  O          18.11454864013742     25.15502498187813      8.41479844458838
  O          16.91087776343799     25.98884854062081      6.12970054995962
  Si         16.94306689722250     29.08037200384411      7.65673090663701
  Si         17.04958106959792     35.34293524090611      7.85878136125490
  Si         19.68072676969631     33.75124254011833      7.86807898175239
  Si         19.56799383618267     30.66351984451959      7.81778832050438
  O          15.52737082071138     29.83319640529113      7.92751598070565
  O          15.71142169211124     34.52284305836061      8.25046176521695
  O          18.37043794529588     34.55542718336373      8.42435739424839
  O          18.16364909810841     29.96589716992095      8.28039860845771
  O          16.88570617401875     27.56854628042693      8.26150220443371
  O          19.67482662339963     32.19555733030560      8.37746519403419
  O          17.21634976244584     28.88916303609216      6.04705909926599
  O          17.28488479101588     35.41053633694104      6.23109941278353
  O          19.58325071875803     33.70696638739263      6.22626996761874
  O          19.57035926161793     30.73858423610796      6.17367867334463
  Si         16.98888715757809     38.41464396249982      7.88523168843319
  O          15.70393525036229     39.25391407998917      8.44170813440602
  O          18.42597410094165     39.00891345047459      8.38324126527328
  O          16.96196937414559     36.87136982774783      8.42120368598233
  O          16.87781358201979     38.37494753213672      6.24411358611484
  O          20.74500395167506     29.68712740184552      8.38084780959673
  O          21.09312736791498     34.38813611176532      8.38374686692206
  H           4.07465738338998     24.98677202663889      8.03659115550094
  H           1.41040895170554     29.60201497652942      8.03674925257737
  H           1.41040910565305     35.00798492485305      8.03674926857774
  H           4.07465743007381     39.62322798103574      8.03659115690179
  H           8.94818085301576     22.17325473524251      8.03830169238128
  H           8.94818087826819     42.43674529857634      8.03830168250547
  H          14.27776170246760     22.17320384441881      8.03828218802784
  H          14.27776173042937     42.43679621435985      8.03828218849057
  H          18.96055658873739     24.87622777496706      8.03640578067382
  H          18.96055652568690     39.73377221469401      8.03640577823182
  H          21.62471720805043     29.49141993530595      8.03658340736761
  H          21.62471723431265     35.11858007349191      8.03658341073035
  H          13.27007410194385     34.28434682770126      5.98180558348219
  H          11.10579903643772     34.89139582968269      5.62437018743165
  H           9.00127757657305     33.09850374689371      5.55581260117888
  H           9.74246332159896     30.58540388500404      5.42370407543663
  H          12.36905482494799     30.10369130083842      5.42726776173361
  H          14.16795527979400     32.02310551961487      5.75403441015465
  H          13.53194947639985     39.65158974578392      5.92744326516774
  H          10.88532060055691     39.24197851025778      5.85716293915771
  H           8.13843991645498     39.65735185081758      5.85911453629368
  H           6.12770993840387     37.71447667524000      5.80619151398179
  H           5.25038046209442     35.10503505939367      5.70948361208777
  H           3.49210099286974     33.00637093613206      5.80974550702746
  H           4.02522907447702     30.44654911233994      5.79449650615237
  H           5.67970665659091     28.46440910657937      5.69196969126851
  H           6.68220244862315     26.32057371666464      5.58026668752137
  H           9.20495004410941     25.70646578036502      5.06053019457418
  H          12.49904243494161     25.49817337620279      5.43381738631902
  H          15.09019973790634     24.92985504677846      5.70203649697838
  H          17.05715464777892     26.86739424751753      5.74797922781063
  H          17.87689853463164     29.49427399451915      5.68441814719433
  H          19.57742326102546     31.64965949087555      5.84288496010674
  H          18.86769793809666     34.26676920925661      5.88199822992033
  H          17.06482597130995     36.26534854129726      5.83695575365431
  H          16.09126216070219     38.83914538044699      5.91585240541954
  P           7.89125126060571     22.17100379357562      9.85904060825739
  O           7.35949783793033     21.26787397491508     10.87551876040079
  O           8.87964061560357     21.54113084123071      8.81215765522502
  O           6.78669175135943     22.90356621532058      8.99926890477339
  O           8.80593221554507     23.35434080319026     10.45954841219747
  C           8.27562559140804     24.45987652512029     11.15600917085641
  C           9.26595675128922     25.58701577195063     10.95593212360371
  O           8.63141302217566     26.87509077501457     11.04928996079160
  C          10.43712203692199     25.74145351827254     11.93203952400056
  O          11.45639957265798     24.80931594731483     11.81661478075986
  C          10.88516093319006     27.20401794912537     11.66588120521354
  O          12.07721908712121     27.18766706779396     10.93625873509183
  C           9.69989056938816     27.73738563455208     10.83791233635230
  N           9.30038849432707     29.10027658417898     11.15438979866743
  C           8.03597929423876     29.59934477526797     11.34890275762838
  N           7.98986358410684     30.90680562582119     11.35930264690155
  C           9.28215724266306     31.28718305155446     11.12949272934645
  C           9.82780774823993     32.53433423221364     10.81139120828702
  N           9.16532884083280     33.68123268897144     10.81586321791035
  N          11.14342517180468     32.49799963487354     10.46274665263588
  C          11.88919229164661     31.36046693600024     10.46095298911356
  N          11.42779081116506     30.18161826023877     10.73622308673660
  C          10.11154420633697     30.17560208451907     11.01008929685465
  H           7.26597997058969     23.24631738487514      8.18033868034108
  H           7.31156465709570     24.76151282543579     10.73456759294587
  H           8.14035969862496     24.21234021958394     12.21477689695514
  H           9.66923237944146     25.46818914810450      9.94584450687380
  H          10.04673690315553     25.66521289910294     12.95107627861833
  H          11.99013263548403     25.04192651703548     11.04726209740379
  H          10.99407698738786     27.77060541707475     12.59817758429888
  H          12.28929028146118     28.09608774616198     10.68539017041692
  H           9.99297314836363     27.73082916622235      9.77891187971782
  H           7.19398962762083     28.93341485429970     11.45765472030081
  H           8.16566585309122     33.60920826540308     10.93227787182673
  H           9.50288650213137     34.42955504750998     10.21256805251253
  H          12.92435318300561     31.49882700712946     10.17897358468054
  H          11.58779460358382     33.33257026369341     10.07912154971804
