
                                 *****************
                                 * O   R   C   A *
                                 *****************

                                            #,                                       
                                            ###                                      
                                            ####                                     
                                            #####                                    
                                            ######                                   
                                           ########,                                 
                                     ,,################,,,,,                         
                               ,,#################################,,                 
                          ,,##########################################,,             
                       ,#########################################, ''#####,          
                    ,#############################################,,   '####,        
                  ,##################################################,,,,####,       
                ,###########''''           ''''###############################       
              ,#####''   ,,,,##########,,,,          '''####'''          '####       
            ,##' ,,,,###########################,,,                        '##       
           ' ,,###''''                  '''############,,,                           
         ,,##''                                '''############,,,,        ,,,,,,###''
      ,#''                                            '''#######################'''  
     '                                                          ''''####''''         
             ,#######,   #######,   ,#######,      ##                                
            ,#'     '#,  ##    ##  ,#'     '#,    #''#        ,####,    ,#,          
            ##       ##  ##   ,#'  ##            #'  '#       #'       ,# #          
            ##       ##  #######   ##           ,######,      #####,      #          
            '#,     ,#'  ##    ##  '#,     ,#' ,#      #,     #,   #      #          
             '#######'   ##     ##  '#######'  #'      '#     '####' #    #          



                #########################################################
                #                        -***-                          #
                #          Department of theory and spectroscopy        #
                #                                                       #
                #                      Frank Neese                      #
                #                                                       #
                #     Directorship, Architecture, Infrastructure        #
                #                    SHARK, DRIVERS                     #
                #        Core code/Algorithms in most modules           #
                #                                                       #
                #        Max Planck Institute fuer Kohlenforschung      #
                #                Kaiser Wilhelm Platz 1                 #
                #                 D-45470 Muelheim/Ruhr                 #
                #                      Germany                          #
                #                                                       #
                #                  All rights reserved                  #
                #                        -***-                          #
                #########################################################


                         Program Version 6.1.1  -  RELEASE   -
                                (GIT: $487d211c$)
                          ($2025-11-21 10:33:24 +0100$)


 With contributions from (in alphabetic order):
[Max-Planck-Institut fuer Kohlenforschung]                               
  Daniel Aravena         : Magnetic Suceptibility                        
  Michael Atanasov       : Ab Initio Ligand Field Theory (pilot matlab implementation)
  Alexander A. Auer      : GIAO ZORA, VPT2 properties, NMR spectrum      
  Ute Becker             : All parallelization in ORCA, NUMFREQ, NUMCALC 
  Giovanni Bistoni       : ED, misc. LED, open-shell LED, HFLD           
  Dmytro Bykov           : pre 5.0 version of the SCF Hessian            
  Marcos Casanova-Páez   : Triplet and SCS-CIS(D). UHF-(DLPNO)-IP/EA/STEOM-CCSD. UHF-CVS-IP/STEOM-CCSD   
  Vijay G. Chilkuri      : MRCI spin determinant printing, contributions to CSF-ICE 
  Pauline Colinet        : FMM embedding                                 
  Dipayan Datta          : RHF DLPNO-CCSD density                        
  Achintya Kumar Dutta   : EOM-CC, STEOM-CC                              
  Nicolas Foglia         : Exact transition moments, OPA infrastructure, MCD improvements    
  Dmitry Ganyushin       : Spin-Orbit,Spin-Spin,Magnetic field MRCI      
  Miquel Garcia-Rates    : C-PCM and meta-GGA Hessian, CCSD/C-PCM, Gaussian charge scheme 
  Tiago L. C. Gouveia    : GS-ROHF, GS-ROCIS                             
  Yang Guo               : DLPNO-NEVPT2, F12-NEVPT2, CIM, IAO-localization        
  Andreas Hansen         : Spin unrestricted coupled pair/coupled cluster methods 
  Ingolf Harden          : AUTO-CI MPn and infrastructure                
  Benjamin Helmich-Paris : MC-RPA, TRAH-(SCF,CASSCF), AVAS, COSX integrals, SCF dyn. polar., MC-PDFT, srDFT 
  Lee Huntington         : MR-EOM, pCC                                   
  Robert Izsak           : Overlap fitted RIJCOSX, COSX-SCS-MP3, EOM     
  Riya Kayal             : Wick's Theorem for AUTO-CI, AUTO-CI UHF-CCSDT 
  Emily Kempfer          : AUTO-CI RHF CISDT and CCSDT, approximate NEVPT4
  Christian Kollmar      : KDIIS, OOCD, Brueckner-CCSD(T), CCSD density, CASPT2, CASPT2-K, improved NEVPT2 
  Axel Koslowski         : Symmetry handling                             
  Simone Kossmann        : meta-GGA functionals, TD-DFT gradient, OOMP2, (MP2 Hessian; deprecated post 5.0) 
  Lucas Lang             : DCDCAS, Hyperfine gauge corrections, ICE-SOC+SSC
  Marvin Lechner         : AUTO-CI (C++ implementation), FIC-MRCC        
  Spencer Leger          : CASSCF response                               
  Dagmar Lenk            : GEPOL surface, SMD, ORCA-2-JSON               
  Dimitrios Liakos       : Extrapolation schemes; Compound Job, Property file
  Dimitrios Manganas     : Further ROCIS development; embedding schemes. LFT, Crystal Embedding 
  Dimitrios Pantazis     : SARC Basis sets                               
  Anastasios Papadopoulos: AUTO-CI, single reference methods and gradients 
  Taras Petrenko         : pre 6.0 DFT Hessian and TD-DFT gradient,  ECA, NRVS 
  Petra Pikulova         : Analytic Raman intensities                    
  Peter Pinski           : DLPNO-MP2, DLPNO-MP2 Gradient                 
  Shashank Vittal Rao    : ES-AILFT, MagRelax                            
  Christoph Reimann      : Effective Core Potentials                     
  Marius Retegan         : Local ZFS, SOC                                
  Christoph Riplinger    : Optimizer, TS searches, QM/MM, DLPNO-CCSD(T), (RO)-DLPNO pert. Triples 
  Michael Roemelt        : Original ROCIS implementation, recursive CI coupling coefficients
  Masaaki Saitow         : Open-shell DLPNO-CCSD energy and density      
  Barbara Sandhoefer     : DKH picture change effects                    
  Yorick L. A. Schmerwitz: GMF and freeze-and-release deltaSCF, NEB S-IDPP initial path                    
  Kantharuban Sivalingam : CASSCF convergence/infrastructure, NEVPT2, NEVPT3, NEVPT4(SD), FIC-MRCI and CEPA variants
  Bernardo de Souza      : ESD, SOC TD-DFT                               
  Georgi L. Stoychev     : AutoAux, RI-MP2 NMR, DLPNO-MP2 response, X2C  
  Van Anh Tran           : RI-MP2 g-tensors                              
  Willem Van den Heuvel  : Paramagnetic NMR                              
  Zikuan Wang            : NOTCH, Electric field optimization            
  Frank Wennmohs         : Technical directorship and infrastructure     
  Hang Xu                : AUTO-CI-Response properties                   
                                                                         
[FACCTs GmbH]                                                            
  Markus Bursch, Nicolas Foglia, Miquel Garcia-Rates, Ingolf Harden, Hagen Neugebauer, Anastasios Papadopoulos, 
  Christoph Riplinger, Bernardo de Souza, Georgi L. Stoychev                                                    
                                                                 
  APM, various basis sets, CI-OPT, improved COSX, DLPNO-Multilevel,           
  DOCKER, DRACO, updates on ESD, Fragmentator, GOAT, IRC, LR-CPCM, L-BFGS, MBIS, meta-GGA TD-DFT gradient, ML-optimized integration grids, 
  MM, NACMEs, nearIR, NEB, NEB-TS, NL-DFT gradient (VV10), 2- and 3-layer-ONIOM, interface openCOSMO-RS, QMMM,   
  Crystal-QMMM, RESP, rigid body optimization, SF, symmetry and pop. for TD-DFT, various functionals, SOLVATOR                                   
                                                                         
[Other institutions]                                                     
  V. Asgeirsson          : NEB                                           
  Christoph Bannwarth    : sTDA-DFT, sTD-DFT, PBEh-3c, B97-3c, D3        
  Giovanni Bistoni       : ETS/NOCV, ADLD/ADEX, COVALED                  
  Martin Brehm           : Molecular dynamics                            
  Ronald Cardenas        : ETS/NOCV                                      
  Martina Colucci        : COVALED                                       
  Sebastian Ehlert       : rSCAN, r2SCAN, r2SCAN-3c, D4, dhf basis sets  
  Marvin Friede          : D4 for Fr, Ra, Ac-Lr                          
  Lars Goerigk           : TD-DFT with DH, B97 family of functionals     
  Stefan Grimme          : VdW corrections, initial TS optimization, DFT functionals, gCP, sTDA/sTD-DF 
  Waldemar Hujo          : DFT-NL                                        
  H. Jonsson             : NEB                                           
  Holger Kruse           : gCP                                           
  Marcel Mueller         : wB97X-3c, vDZP basis set                      
  Hagen Neugebauer       : wr2SCAN, Native XTB                           
  Gianluca Regni         : ADLD/ADEX                                     
  Tobias Risthaus        : pre 6.0 range-separated hybrid DFT and stability analysis
  Lukas Wittmann         : regularized MP2, r2SCAN double-hybrids, wr2SCAN        
                                                                         
We gratefully acknowledge several colleagues who have allowed us to      
interface, adapt or use parts of their codes:                            
  Ed Valeev, F. Pavosevic, A. Kumar             : LibInt (2-el integral package), F12 methods 
  Garnet Chan, S. Sharma, J. Yang, R. Olivares  : DMRG                   
  Ulf Ekstrom                                   : XCFun DFT Library      
  Mihaly Kallay                                 : mrcc  (arbitrary order and MRCC methods)
  Frank Weinhold                                : gennbo (NPA and NBO analysis)           
  Simon Mueller                                 : openCOSMO-RS                            
  Christopher J. Cramer and Donald G. Truhlar   : smd solvation model                     
  S Lehtola, MJT Oliveira, MAL Marques          : LibXC Library                           
  Liviu Ungur et al                             : ANISO software                          


 Your calculation uses the libint2 library for the computation of 2-el integrals
 For citations please refer to: http://libint.valeyev.net

 Your ORCA version has been built with support for libXC version: 7.0.0
 For citations please refer to: https://libxc.gitlab.io

 This ORCA versions uses:
   CBLAS   interface :  Fast vector & matrix operations
   LAPACKE interface :  Fast linear algebra routines
   SCALAPACK package :  Parallel linear algebra routines
   Shared memory     :  Shared parallel matrices
   BLAS/LAPACK       :  OpenBLAS 0.3.29  USE64BITINT DYNAMIC_ARCH NO_AFFINITY Haswell SINGLE_THREADED
        Core in use  :  Haswell
   Copyright (c) 2011-2014, The OpenBLAS Project


  ***********************************
  * Starting time: Mon Mar 23 13:15:38 2026
  * Host name:     BIC1-Ubuntu
  * Process ID:    348128
  * Working dir.:  /data/Seafile/amp/frames/frame11/dry/dry_md
  ***********************************

NOTE: MaxCore=3500 MB was set to SCF,MP2,MDCI,CIPSI,MRCI,RASCI and CIS
      => If you want to overwrite this, your respective input block should be placed after the MaxCore statement


***************************************
The coordinates will be read from file: amp_frame11.xyz
***************************************


Your calculation utilizes the atom-pairwise dispersion correction
with the Becke-Johnson damping scheme (D3BJ)


================================================================================

----- Orbital basis set information -----
Your calculation utilizes the basis: def2-TZVP
   F. Weigend and R. Ahlrichs, Phys. Chem. Chem. Phys. 7, 3297 (2005).

----- AuxJ basis set information -----
Your calculation utilizes the auxiliary basis: def2/J
   H-Rn: F. Weigend, Phys. Chem. Chem. Phys. 8, 1057 (2006).
   Fr-Lr: K. Eichkorn, F. Weigend, O. Treutler, R. Ahlrichs; Theor. Chem. Acc. 97, 119 (1997).

================================================================================
                                        WARNINGS
                       Please study these warnings very carefully!
================================================================================


WARNING: Gradients are needed
  ===> : At least TightSCF should be used for SCF convergence

WARNING: Found SCFConvIgnored == true
  ===> : Will try to continue after any unconverged SCF -
         no matter how far from convergence the wavefunction might be.

         Please be very careful with your results!


================================================================================
                                       INPUT FILE
================================================================================
NAME = amp_frame11_dry_md.inp
|  1> ! MD PBE0 D3BJ def2-TZVP RIJCOSX def2/J
|  2> 
|  3> %pal
|  4>   nprocs 8
|  5> end
|  6> 
|  7> %md
|  8>   Timestep 0.5_fs
|  9>   Initvel 353 #80degC
| 10>   Thermostat CSVR
| 11>   dump position stride 1 filename "trajectory.xyz"
| 12>   Run 2000
| 13> end
| 14> 
| 15> %maxcore 3500
| 16> 
| 17> %geom
| 18>   Constraints
| 19>     { C 101 C}
| 20>     { C 100 C}
| 21>     { C 99 C}
| 22>     { C 97 C}
| 23>     { C 95 C}
| 24>     { C 94 C}
| 25>     { C 93 C}
| 26>     { C 92 C}
| 27>     { C 91 C}
| 28>     { C 90 C}
| 29>     { C 96 C}
| 30>     { C 98 C}
| 31>   end
| 32> end
| 33> 
| 34> 
| 35> *xyzfile -1 1 amp_frame11.xyz
| 36> 
| 37>                          ****END OF INPUT****
================================================================================

-------------------------------------------------------------------------------------------

MD module early startup:
  Installed signal handlers.
  Extracted executable name.
  Initialized library credit list.
  Parsed command line without errors.
  Initialized console color.
Done.

Will write log file to "amp_frame11_dry_md.md.log".

Command line:  /home/bic1/orca_6_1_1_avx2/orca_md -orca amp_frame11_dry_md

-------------------------------------------------------------------------------------------


     _____    ___    _   _       _                  ______ ______  _____   ___  
    /  ___|  / _ \  | \ | |     | |           _    /  __  \| ___ \/  __ \ / _ \ 
    \ `--.  / /_\ \ |  \| |   __| | _   _   _| |_  | |  | || |_/ /| /  \// /_\ \
     `--. \ |  _  | | . ` |  / _` || | | | |_   _| | |  | ||    / | |    |  _  |
    /\__/ / | | | | | |\  | | (_| || |_| |   |_|   | \__/ || |\ \ | \__/\| | | |
    \____/  \_| |_/ \_| \_/  \__,_| \__, |          \____/ \_| \_| \____/\_| |_/
                                     __/ |                                      
                                    |___/                                       


    ####################################################################
    ########     Scriptable Nuclear Dynamics (SANdy) + ORCA     ########
    ########           (c) Martin Brehm, 2016 - 2025            ########
    ########           Paderborn University, Germany            ########
    ########           https://sanscript.org/orcamd             ########
    ####################################################################


  * Compiled as ORCA module. Called from ORCA.
  * ORCA base name: "amp_frame11_dry_md"
  * Source code version: Jun 07 2025, compiled at Nov 24 2025 07:23:22.
  * Enabled features: SAN_MD, SAN_INTERPRETER
  * Libraries: KISS_FFT, LBFGSBC
  * Executable name: "/home/bic1/orca_6_1_1_avx2/orca_md"
  * Messages are redirected, Errors are redirected, Output is redirected, Input from stdin
  * Running on BIC1-Ubuntu at Mon Mar 23 13:15:38 2026 (PID 348134)
  * Running in /data/Seafile/amp/frames/frame11/dry/dry_md

    -----------------------------------------------

    Technical information:

  * Compiler:      LLVM, CLANG 20.1.6, "Clang 20.1.6 (/home/frankw/CompEnv/src/llvm2016/llvm-project/clang 47addd4540b4c393e478ba92bea2589e330c57fb)", Linux, __cplusplus=201103L
  * Compile host:  x86_64, Little Endian, char=8bits, int=4b, long=8b, ll=8b, addr=8b, 0x01020304=4,3,2,1.
  * Class sizes:   InputElem=248, ValuePair=112, Type=96, Value=8, VMToken=8, VMInst=8
  * Compile flags: MMX, SSE, SSE2, SSE3, SSSE3, SSE4.1, SSE4.2, POPCNT, FMA3, AVX, AVX2
  * Local machine: Intel(R) Core(TM) i7-14700 (GenuineIntel), Family 6, Model 183, Stepping 1
                   1 CPU, 20 cores, 28 threads,  Uptime 3d 02h 09m 10s
                   MMX, SSE, SSE2, SSE3, SSSE3, SSE4.1, SSE4.2, POPCNT, AES, FMA3, AVX, AVX2, SHA
                   Caches: 14x L1d (672 KiB), 14x L1i (448 KiB), 14x L2 (28 MiB), 1x L3 (33 MiB)
  * Op. System:    Linux Mint 22.1, Linux version 6.8.0-90-generic 
  * Phys. Memory:  62.42 GiB total,  29.53 GiB free
  * Stack size:    infinite


The following libraries are included:

  * KISS FFT,   Version 131.1.0 (02/2021), License: BSD 3-clause
      (c) 2003-2010 Mark Borgerding, see https://github.com/mborgerding/kissfft

  * L-BFGS-B-C, Version 3.0 (04/2011),     License: BSD 3-clause
      (c) Stephen Becker, see https://github.com/stephenbeckr/L-BFGS-B-C

  * MT19937 Pseudo Random Number Gen.,     License: Custom (permissive)
      (c) 1997-2005 Makoto Matsumoto, Takuji Nishimura, Mutsuo Saito, see https://github.com/clibs/mt19937ar


Initializing SAN engine...
  24 physical quantities and 49 units added.
  Initialized SAN language:
    97 operators, 57 keywords, 4 namespaces, 35 types, 183 flags
Done.


>>> Reading Input File >>>

Reading input file "amp_frame11_dry_md.mdinput" ...
  120 bytes read.
  5 lines.
Tokenizing input...
Found 15 tokens in file.
  ( 10 identifiers,  4 numeric literals,  1 string literals,  
     1 comments )
Line endings are uniform: 5 x \n

<<< Finished Reading Input File (took 0.000 seconds) <<<


Using the following settings:
  Interpret:              true
  Execution:              SAN-VM
  Parser verbose level:   1
  Execute verbose level:  2
  Syntax highlighting:    0
  Static vars:            false
  Dynamic types:          true
  Max. recursion depth:   200
  Max. nesting depth:     1000
  Max. argument count:    100
  Only parse:             false


>>> Parsing Input Script >>>

Handled 1 underscore identifiers.
Handling module imports...
  Importing module "Math" to global namespace.
  Importing module "MD" to global namespace.
Handled 2 module imports.
Handled 5 variable occurrences.
Assigned 6 identifiers.
Handling functions,      iteration  1...
                         iteration  2...
                         iteration  3...
Handling "FOR" loops...
Handling AutoDecl,       iteration  1...
No auto declarations.
Assigned 3 flags, re-doing function handling...
Handling functions ( 2), iteration  1...
  Moving "Void" argument 2 ("Thermostat") of function "Initvel" up 1 levels to "ROOT".
                         iteration  2...
Handling "FOR" loops...
Handling AutoDecl,       iteration  1...
No auto declarations.
Handling functions, final pass...
  Moving "Void" argument 2 ("dump") of function "Thermostat" up 1 levels to "ROOT".
Function handling done (2 macro-iterations, 0.001 seconds).
Handling keywords,       iteration  1...
Prepared 5 argument lists.
Assigned 9 read-only flags.
Assigned 16 simple VP flags.
Assigned 15 tree IDs.

<<< Finished Parsing Input Script (took 0.001 seconds) <<<


SAN-VM: Compiling...
  Optimization level: Not specified. Using default ("-O2").
Done (took 0.000 seconds).


  Part              # Tokens    # Registers    # Shortcuts    # Optimizations
  ---------------------------------------------------------------------------
  Main Program            44              0              0                  0


-------------------------------------------------------------------------------------------

>>> Initializing MD engine with interface "ORCA" >>>



>>>>>>>>>>>>>>>>>>>>>>>>>>>>>>>>>>>>>>>>>>>>>>>>>>>>
>>>   Output of System Information (from ORCA)   >>>
>>>>>>>>>>>>>>>>>>>>>>>>>>>>>>>>>>>>>>>>>>>>>>>>>>>>

---------------------------------
CARTESIAN COORDINATES (ANGSTROEM)
---------------------------------
  Si     3.502852   33.897925    7.791294
  Si     3.465883   30.790666    7.814268
  O      2.290261   34.800008    8.395952
  O      2.180109   30.025153    8.456564
  O      3.463469   32.349898    8.328711
  O      3.509768   33.885039    6.152880
  O      3.442936   30.842141    6.178296
  Si     6.147884   26.142284    7.802865
  Si     8.826023   24.548064    7.798917
  O      4.794635   25.501168    8.440808
  O      7.486456   25.346337    8.314270
  O      8.771487   23.047455    8.431481
  O      6.127137   26.153956    6.165248
  O      8.786908   24.550610    6.163041
  Si     6.134881   29.233272    7.712404
  Si     6.163498   35.455066    7.676996
  Si     8.889600   33.857880    7.598489
  Si     8.881525   30.791557    7.663615
  O      4.851056   30.053790    8.308672
  O      4.896875   34.619963    8.284915
  O      7.559684   34.687569    8.037929
  O      7.501773   30.043392    8.097205
  O      6.215105   27.710924    8.297957
  O      8.842344   32.337279    8.209962
  O      5.925039   29.181551    6.090589
  O      5.987943   35.600373    6.056639
  O      8.999762   33.768834    5.967941
  O      9.004961   30.874544    6.033668
  Si     6.190837   38.549360    7.778117
  Si     8.906728   40.072101    7.766696
  O      4.926202   39.349668    8.423200
  O      7.556605   39.302975    8.288642
  O      6.221516   36.979110    8.267134
  O      9.043912   41.552144    8.430865
  O      6.202922   38.589892    6.142046
  O      8.893070   40.125582    6.130102
  Si    11.516392   26.079290    7.711879
  Si    14.196640   24.539987    7.795615
  O     10.166878   25.362943    8.297073
  O     12.874722   25.384314    8.294414
  O     14.031111   23.039865    8.404984
  O     11.463331   25.892430    6.087415
  O     14.195803   24.549149    6.157820
  Si    11.526950   29.237311    7.683982
  Si    11.565663   35.369195    7.509531
  Si    14.231670   33.813304    7.584699
  Si    14.194900   30.752534    7.677414
  O     10.177974   29.978196    8.250997
  O     10.217261   34.666119    8.111218
  O     12.919636   34.649941    8.077685
  O     12.885602   29.954997    8.257075
  O     11.492966   27.665887    8.111155
  O     14.252835   32.296173    8.214449
  O     11.493026   29.395665    6.055748
  O     11.583865   35.185770    5.884319
  O     14.126241   33.621492    5.957559
  O     14.066045   30.747929    6.049499
  Si    11.594943   38.542444    7.628323
  Si    14.275206   40.061621    7.803170
  O     10.234985   39.218210    8.222427
  O     12.945158   39.214201    8.265696
  O     11.610150   36.939618    7.923420
  O     14.213526   41.555478    8.448165
  O     11.674078   38.821066    6.015730
  O     14.373479   40.057539    6.168332
  Si    16.903488   26.069242    7.810720
  O     15.558416   25.282619    8.326627
  O     18.218576   25.353106    8.449538
  O     16.866547   26.024270    6.175115
  Si    16.915552   29.162684    7.725962
  Si    16.980514   35.408363    7.636794
  Si    19.639903   33.829757    7.768092
  Si    19.592680   30.709658    7.790848
  O     15.543501   29.959186    8.167991
  O     15.623418   34.567595    7.949073
  O     18.262194   34.594955    8.242251
  O     18.208886   29.974575    8.296420
  O     16.840407   27.637651    8.307034
  O     19.603017   32.271996    8.280928
  O     17.018283   29.036806    6.101110
  O     17.231896   35.541011    6.028259
  O     19.687151   33.793576    6.133504
  O     19.580283   30.659341    6.154005
  Si    16.944241   38.485471    7.794056
  O     15.627446   39.294447    8.337399
  O     18.338189   39.073504    8.390451
  O     16.858848   36.910638    8.295331
  O     16.922090   38.479006    6.157038
  O     20.836763   29.889303    8.444126
  O     20.957607   34.525944    8.426831
  H      4.074657   24.986772    8.036591
  H      1.410409   29.602015    8.036749
  H      1.410409   35.007985    8.036749
  H      4.074657   39.623228    8.036591
  H      8.948181   22.173255    8.038302
  H      8.948181   42.436745    8.038302
  H     14.277762   22.173204    8.038282
  H     14.277762   42.436796    8.038282
  H     18.960556   24.876228    8.036406
  H     18.960557   39.733772    8.036406
  H     21.624717   29.491420    8.036583
  H     21.624717   35.118580    8.036583
  H     13.366204   34.066973    5.554178
  H     10.791584   34.756790    5.526029
  H      8.998786   32.861508    5.623306
  H      9.779373   30.414037    5.672020
  H     12.287773   29.805798    5.679141
  H     14.107595   31.634532    5.653407
  H     13.556714   39.795511    5.718816
  H     10.866435   39.175112    5.620131
  H      8.141457   39.679571    5.716985
  H      6.078209   37.728638    5.718287
  H      5.283307   35.059106    5.673446
  H      3.510140   33.000616    5.760080
  H      4.117185   30.294311    5.751032
  H      6.040358   28.308216    5.691227
  H      6.869105   25.696636    5.747102
  H      9.589987   24.890453    5.742978
  H     12.275430   25.551421    5.688036
  H     14.958334   24.991527    5.759237
  H     16.996589   26.879576    5.742146
  H     17.715583   29.570548    5.695011
  H     19.640756   31.519286    5.717634
  H     19.027977   34.349813    5.695693
  H     17.109192   36.429861    5.664231
  H     16.152472   38.921064    5.768543
  P     16.201898   31.518743   11.947586
  O     16.602272   31.058509   13.305687
  O     17.208639   32.149367   11.044883
  O     15.471566   30.287388   11.205203
  O     14.910600   32.508461   12.086931
  C     15.132354   33.784747   12.659188
  C     15.414866   34.819299   11.586481
  O     14.368012   34.868977   10.609965
  C     15.501120   36.231663   12.122334
  O     16.300072   37.083834   11.325227
  C     14.032978   36.692460   12.086444
  O     13.913397   38.076539   11.948061
  C     13.456375   35.884563   10.902156
  N     12.157203   35.271121   11.165141
  C     11.900980   33.933334   11.305951
  N     10.628328   33.660348   11.441890
  C     10.007847   34.885516   11.377054
  C      8.658612   35.273110   11.398360
  N      7.653722   34.397986   11.553821
  N      8.373487   36.577159   11.273509
  C      9.375179   37.446248   11.129592
  N     10.677385   37.204506   11.085054
  C     10.942310   35.902282   11.205362
  H     15.578374   30.334326   10.245969
  H     14.235623   34.043503   13.229548
  H     15.974551   33.765865   13.359477
  H     16.322825   34.527490   11.055643
  H     15.908733   36.275577   13.132707
  H     16.240043   36.827924   10.394300
  H     13.525195   36.394695   13.006576
  H     14.704277   38.364784   11.466778
  H     13.331404   36.536129   10.033096
  H     12.701518   33.209129   11.290440
  H      7.840120   33.412510   11.480668
  H      6.711076   34.713000   11.395542
  H      9.079070   38.486761   11.029447

----------------------------
CARTESIAN COORDINATES (A.U.)
----------------------------
  NO LB      ZA    FRAG     MASS         X           Y           Z
   0 Si   14.0000    0    28.086    6.619431   64.057795   14.723412
   1 Si   14.0000    0    28.086    6.549569   58.185926   14.766826
   2 O     8.0000    0    15.999    4.327966   65.762484   15.866050
   3 O     8.0000    0    15.999    4.119810   56.739317   15.980590
   4 O     8.0000    0    15.999    6.545009   61.132447   15.738984
   5 O     8.0000    0    15.999    6.632501   64.033444   11.627258
   6 O     8.0000    0    15.999    6.506205   58.283201   11.675288
   7 Si   14.0000    0    28.086   11.617816   49.401757   14.745278
   8 Si   14.0000    0    28.086   16.678767   46.389118   14.737818
   9 O     8.0000    0    15.999    9.060547   48.190223   15.950815
  10 O     8.0000    0    15.999   14.147352   47.897636   15.711693
  11 O     8.0000    0    15.999   16.575708   43.553378   15.933191
  12 O     8.0000    0    15.999   11.578612   49.423815   11.650630
  13 O     8.0000    0    15.999   16.604850   46.393929   11.646459
  14 Si   14.0000    0    28.086   11.593245   55.242878   14.574331
  15 Si   14.0000    0    28.086   11.647324   67.000364   14.507420
  16 Si   14.0000    0    28.086   16.798910   63.982120   14.359062
  17 Si   14.0000    0    28.086   16.783650   58.187610   14.482133
  18 O     8.0000    0    15.999    9.167167   56.793432   15.701115
  19 O     8.0000    0    15.999    9.253753   65.422249   15.656221
  20 O     8.0000    0    15.999   14.285732   65.550007   15.189485
  21 O     8.0000    0    15.999   14.176297   56.773782   15.301499
  22 O     8.0000    0    15.999   11.744846   52.366057   15.680867
  23 O     8.0000    0    15.999   16.709609   61.108601   15.514579
  24 O     8.0000    0    15.999   11.196701   55.145140   11.509546
  25 O     8.0000    0    15.999   11.315572   67.274955   11.445388
  26 O     8.0000    0    15.999   17.007085   63.813849   11.277774
  27 O     8.0000    0    15.999   17.016911   58.344433   11.401980
  28 Si   14.0000    0    28.086   11.698986   72.847732   14.698510
  29 Si   14.0000    0    28.086   16.831277   75.725296   14.676928
  30 O     8.0000    0    15.999    9.309173   74.360096   15.917542
  31 O     8.0000    0    15.999   14.279915   74.271859   15.663263
  32 O     8.0000    0    15.999   11.756961   69.880390   15.622620
  33 O     8.0000    0    15.999   17.090516   78.522173   15.932026
  34 O     8.0000    0    15.999   11.721824   72.924327   11.606785
  35 O     8.0000    0    15.999   16.805466   75.826361   11.584214
  36 Si   14.0000    0    28.086   21.762827   49.282715   14.573339
  37 Si   14.0000    0    28.086   26.827762   46.373855   14.731578
  38 O     8.0000    0    15.999   19.212615   47.929016   15.679196
  39 O     8.0000    0    15.999   24.329699   47.969401   15.674172
  40 O     8.0000    0    15.999   26.514957   43.539035   15.883117
  41 O     8.0000    0    15.999   21.662556   48.929602   11.503548
  42 O     8.0000    0    15.999   26.826180   46.391168   11.636593
  43 Si   14.0000    0    28.086   21.782778   55.250511   14.520621
  44 Si   14.0000    0    28.086   21.855935   66.838092   14.190956
  45 Si   14.0000    0    28.086   26.893958   63.897884   14.333004
  46 Si   14.0000    0    28.086   26.824474   58.113867   14.508209
  47 O     8.0000    0    15.999   19.233583   56.650581   15.592125
  48 O     8.0000    0    15.999   19.307826   65.509471   15.327980
  49 O     8.0000    0    15.999   24.414575   65.478899   15.264613
  50 O     8.0000    0    15.999   24.350258   56.606740   15.603611
  51 O     8.0000    0    15.999   21.718559   52.280949   15.327861
  52 O     8.0000    0    15.999   26.933954   61.030922   15.523059
  53 O     8.0000    0    15.999   21.718672   55.549756   11.443706
  54 O     8.0000    0    15.999   21.890333   66.491470   11.119751
  55 O     8.0000    0    15.999   26.694727   63.535411   11.258154
  56 O     8.0000    0    15.999   26.580974   58.105165   11.431897
  57 Si   14.0000    0    28.086   21.911267   72.834665   14.415441
  58 Si   14.0000    0    28.086   26.976231   75.705493   14.745854
  59 O     8.0000    0    15.999   19.341319   74.111677   15.538135
  60 O     8.0000    0    15.999   24.462803   74.104100   15.619902
  61 O     8.0000    0    15.999   21.940003   69.805762   14.973094
  62 O     8.0000    0    15.999   26.859671   78.528473   15.964717
  63 O     8.0000    0    15.999   22.060811   73.361184   11.368082
  64 O     8.0000    0    15.999   27.161939   75.697778   11.656459
  65 Si   14.0000    0    28.086   31.942962   49.263727   14.760122
  66 O     8.0000    0    15.999   29.401144   47.777226   15.735045
  67 O     8.0000    0    15.999   34.428119   47.910428   15.967313
  68 O     8.0000    0    15.999   31.873154   49.178744   11.669276
  69 Si   14.0000    0    28.086   31.965760   55.109487   14.599952
  70 Si   14.0000    0    28.086   32.088521   66.912109   14.431449
  71 Si   14.0000    0    28.086   37.114037   63.928976   14.679567
  72 Si   14.0000    0    28.086   37.024800   58.032843   14.722568
  73 O     8.0000    0    15.999   29.372959   56.614657   15.435265
  74 O     8.0000    0    15.999   29.523981   65.323287   15.021572
  75 O     8.0000    0    15.999   34.510546   65.374990   15.575597
  76 O     8.0000    0    15.999   34.409809   56.643738   15.677961
  77 O     8.0000    0    15.999   31.823758   52.227591   15.698019
  78 O     8.0000    0    15.999   37.044334   60.985234   15.648686
  79 O     8.0000    0    15.999   32.159895   54.871610   11.529427
  80 O     8.0000    0    15.999   32.563565   67.162777   11.391759
  81 O     8.0000    0    15.999   37.203324   63.860603   11.590642
  82 O     8.0000    0    15.999   37.001373   57.937758   11.629384
  83 Si   14.0000    0    28.086   32.019976   72.726999   14.728631
  84 O     8.0000    0    15.999   29.531594   74.255743   15.755401
  85 O     8.0000    0    15.999   34.654156   73.838221   15.855654
  86 O     8.0000    0    15.999   31.858605   69.750997   15.675904
  87 O     8.0000    0    15.999   31.978116   72.714784   11.635116
  88 O     8.0000    0    15.999   39.375776   56.482597   15.957085
  89 O     8.0000    0    15.999   39.604138   65.244579   15.924402
  90 H     1.0000    0     1.008    7.699987   47.218156   15.186956
  91 H     1.0000    0     1.008    2.665287   55.939701   15.187255
  92 H     1.0000    0     1.008    2.665287   66.155504   15.187255
  93 H     1.0000    0     1.008    7.699987   74.877049   15.186956
  94 H     1.0000    0     1.008   16.909611   41.901379   15.190189
  95 H     1.0000    0     1.008   16.909611   80.193827   15.190189
  96 H     1.0000    0     1.008   26.981059   41.901283   15.190152
  97 H     1.0000    0     1.008   26.981060   80.193923   15.190152
  98 H     1.0000    0     1.008   35.830259   47.009258   15.186606
  99 H     1.0000    0     1.008   35.830259   75.085948   15.186606
 100 H     1.0000    0     1.008   40.864793   55.730707   15.186942
 101 H     1.0000    0     1.008   40.864793   66.364499   15.186942
 102 H     1.0000    0     1.008   25.258465   64.377249   10.495875
 103 H     1.0000    0     1.008   20.393139   65.680815   10.442682
 104 H     1.0000    0     1.008   17.005241   62.099250   10.626508
 105 H     1.0000    0     1.008   18.480337   57.474200   10.718565
 106 H     1.0000    0     1.008   23.220526   56.324796   10.732022
 107 H     1.0000    0     1.008   26.659491   59.780601   10.683390
 108 H     1.0000    0     1.008   25.618476   75.202618   10.806996
 109 H     1.0000    0     1.008   20.534586   74.030233   10.620509
 110 H     1.0000    0     1.008   15.385125   74.983523   10.803536
 111 H     1.0000    0     1.008   11.486150   71.296793   10.805996
 112 H     1.0000    0     1.008    9.984003   66.252108   10.721260
 113 H     1.0000    0     1.008    6.633203   62.362127   10.884973
 114 H     1.0000    0     1.008    7.780351   57.247951   10.867876
 115 H     1.0000    0     1.008   11.414623   53.494775   10.754861
 116 H     1.0000    0     1.008   12.980727   48.559605   10.860449
 117 H     1.0000    0     1.008   18.122450   47.036140   10.852655
 118 H     1.0000    0     1.008   23.197201   48.285189   10.748831
 119 H     1.0000    0     1.008   28.267155   47.227142   10.883380
 120 H     1.0000    0     1.008   32.118898   50.795037   10.851082
 121 H     1.0000    0     1.008   33.477600   55.880237   10.762011
 122 H     1.0000    0     1.008   37.115650   59.562818   10.804762
 123 H     1.0000    0     1.008   35.957665   64.911739   10.763299
 124 H     1.0000    0     1.008   32.331688   68.842460   10.703845
 125 H     1.0000    0     1.008   30.523748   73.550151   10.900966
 126 P    15.0000    0    30.974   30.617150   59.561792   22.577665
 127 O     8.0000    0    15.999   31.373747   58.692077   25.144105
 128 O     8.0000    0    15.999   32.519615   60.753499   20.871805
 129 O     8.0000    0    15.999   29.237022   57.234869   21.174764
 130 O     8.0000    0    15.999   28.176950   61.432089   22.840990
 131 C     6.0000    0    12.011   28.596004   63.843920   23.922399
 132 C     6.0000    0    12.011   29.129875   65.798940   21.895276
 133 O     8.0000    0    15.999   27.151609   65.892816   20.049928
 134 C     6.0000    0    12.011   29.292872   68.467920   22.907891
 135 O     8.0000    0    15.999   30.802672   70.078290   21.401577
 136 C     6.0000    0    12.011   26.518485   69.338701   22.840070
 137 O     8.0000    0    15.999   26.292510   71.954231   22.578564
 138 C     6.0000    0    12.011   25.428863   67.811997   20.602089
 139 N     7.0000    0    14.007   22.973784   66.652760   21.099059
 140 C     6.0000    0    12.011   22.489592   64.124708   21.365151
 141 N     7.0000    0    14.007   20.084629   63.608839   21.622038
 142 C     6.0000    0    12.011   18.912089   65.924071   21.499516
 143 C     6.0000    0    12.011   16.362405   66.656518   21.539778
 144 N     7.0000    0    14.007   14.463439   65.002773   21.833557
 145 N     7.0000    0    14.007   15.823596   69.120814   21.303845
 146 C     6.0000    0    12.011   17.716521   70.763153   21.031881
 147 N     7.0000    0    14.007   20.177334   70.306328   20.947716
 148 C     6.0000    0    12.011   20.677969   67.845480   21.175066
 149 H     1.0000    0     1.008   29.438861   57.323568   19.362075
 150 H     1.0000    0     1.008   26.901428   64.332897   25.000222
 151 H     1.0000    0     1.008   30.187527   63.808238   25.245752
 152 H     1.0000    0     1.008   30.845669   65.247500   20.892137
 153 H     1.0000    0     1.008   30.063148   68.550906   24.817219
 154 H     1.0000    0     1.008   30.689234   69.594691   19.642380
 155 H     1.0000    0     1.008   25.558914   68.776007   24.578867
 156 H     1.0000    0     1.008   27.787057   72.498934   21.669071
 157 H     1.0000    0     1.008   25.192703   69.043278   18.959803
 158 H     1.0000    0     1.008   24.002391   62.756159   21.335839
 159 H     1.0000    0     1.008   14.815679   63.140494   21.695318
 160 H     1.0000    0     1.008   12.682096   65.598064   21.534453
 161 H     1.0000    0     1.008   17.156955   72.729438   20.842635

---------------------
BASIS SET INFORMATION
---------------------
There are 6 groups of distinct atoms

 Group   1 Type Si  : 14s9p3d1f contracted to 5s5p2d1f pattern {73211/51111/21/1}
 Group   2 Type O   : 11s6p2d1f contracted to 5s3p2d1f pattern {62111/411/11/1}
 Group   3 Type H   : 5s1p contracted to 3s1p pattern {311/1}
 Group   4 Type P   : 14s9p3d1f contracted to 5s5p2d1f pattern {73211/51111/21/1}
 Group   5 Type C   : 11s6p2d1f contracted to 5s3p2d1f pattern {62111/411/11/1}
 Group   6 Type N   : 11s6p2d1f contracted to 5s3p2d1f pattern {62111/411/11/1}

Atom   0Si   basis set group =>   1
Atom   1Si   basis set group =>   1
Atom   2O    basis set group =>   2
Atom   3O    basis set group =>   2
Atom   4O    basis set group =>   2
Atom   5O    basis set group =>   2
Atom   6O    basis set group =>   2
Atom   7Si   basis set group =>   1
Atom   8Si   basis set group =>   1
Atom   9O    basis set group =>   2
Atom  10O    basis set group =>   2
Atom  11O    basis set group =>   2
Atom  12O    basis set group =>   2
Atom  13O    basis set group =>   2
Atom  14Si   basis set group =>   1
Atom  15Si   basis set group =>   1
Atom  16Si   basis set group =>   1
Atom  17Si   basis set group =>   1
Atom  18O    basis set group =>   2
Atom  19O    basis set group =>   2
Atom  20O    basis set group =>   2
Atom  21O    basis set group =>   2
Atom  22O    basis set group =>   2
Atom  23O    basis set group =>   2
Atom  24O    basis set group =>   2
Atom  25O    basis set group =>   2
Atom  26O    basis set group =>   2
Atom  27O    basis set group =>   2
Atom  28Si   basis set group =>   1
Atom  29Si   basis set group =>   1
Atom  30O    basis set group =>   2
Atom  31O    basis set group =>   2
Atom  32O    basis set group =>   2
Atom  33O    basis set group =>   2
Atom  34O    basis set group =>   2
Atom  35O    basis set group =>   2
Atom  36Si   basis set group =>   1
Atom  37Si   basis set group =>   1
Atom  38O    basis set group =>   2
Atom  39O    basis set group =>   2
Atom  40O    basis set group =>   2
Atom  41O    basis set group =>   2
Atom  42O    basis set group =>   2
Atom  43Si   basis set group =>   1
Atom  44Si   basis set group =>   1
Atom  45Si   basis set group =>   1
Atom  46Si   basis set group =>   1
Atom  47O    basis set group =>   2
Atom  48O    basis set group =>   2
Atom  49O    basis set group =>   2
Atom  50O    basis set group =>   2
Atom  51O    basis set group =>   2
Atom  52O    basis set group =>   2
Atom  53O    basis set group =>   2
Atom  54O    basis set group =>   2
Atom  55O    basis set group =>   2
Atom  56O    basis set group =>   2
Atom  57Si   basis set group =>   1
Atom  58Si   basis set group =>   1
Atom  59O    basis set group =>   2
Atom  60O    basis set group =>   2
Atom  61O    basis set group =>   2
Atom  62O    basis set group =>   2
Atom  63O    basis set group =>   2
Atom  64O    basis set group =>   2
Atom  65Si   basis set group =>   1
Atom  66O    basis set group =>   2
Atom  67O    basis set group =>   2
Atom  68O    basis set group =>   2
Atom  69Si   basis set group =>   1
Atom  70Si   basis set group =>   1
Atom  71Si   basis set group =>   1
Atom  72Si   basis set group =>   1
Atom  73O    basis set group =>   2
Atom  74O    basis set group =>   2
Atom  75O    basis set group =>   2
Atom  76O    basis set group =>   2
Atom  77O    basis set group =>   2
Atom  78O    basis set group =>   2
Atom  79O    basis set group =>   2
Atom  80O    basis set group =>   2
Atom  81O    basis set group =>   2
Atom  82O    basis set group =>   2
Atom  83Si   basis set group =>   1
Atom  84O    basis set group =>   2
Atom  85O    basis set group =>   2
Atom  86O    basis set group =>   2
Atom  87O    basis set group =>   2
Atom  88O    basis set group =>   2
Atom  89O    basis set group =>   2
Atom  90H    basis set group =>   3
Atom  91H    basis set group =>   3
Atom  92H    basis set group =>   3
Atom  93H    basis set group =>   3
Atom  94H    basis set group =>   3
Atom  95H    basis set group =>   3
Atom  96H    basis set group =>   3
Atom  97H    basis set group =>   3
Atom  98H    basis set group =>   3
Atom  99H    basis set group =>   3
Atom 100H    basis set group =>   3
Atom 101H    basis set group =>   3
Atom 102H    basis set group =>   3
Atom 103H    basis set group =>   3
Atom 104H    basis set group =>   3
Atom 105H    basis set group =>   3
Atom 106H    basis set group =>   3
Atom 107H    basis set group =>   3
Atom 108H    basis set group =>   3
Atom 109H    basis set group =>   3
Atom 110H    basis set group =>   3
Atom 111H    basis set group =>   3
Atom 112H    basis set group =>   3
Atom 113H    basis set group =>   3
Atom 114H    basis set group =>   3
Atom 115H    basis set group =>   3
Atom 116H    basis set group =>   3
Atom 117H    basis set group =>   3
Atom 118H    basis set group =>   3
Atom 119H    basis set group =>   3
Atom 120H    basis set group =>   3
Atom 121H    basis set group =>   3
Atom 122H    basis set group =>   3
Atom 123H    basis set group =>   3
Atom 124H    basis set group =>   3
Atom 125H    basis set group =>   3
Atom 126P    basis set group =>   4
Atom 127O    basis set group =>   2
Atom 128O    basis set group =>   2
Atom 129O    basis set group =>   2
Atom 130O    basis set group =>   2
Atom 131C    basis set group =>   5
Atom 132C    basis set group =>   5
Atom 133O    basis set group =>   2
Atom 134C    basis set group =>   5
Atom 135O    basis set group =>   2
Atom 136C    basis set group =>   5
Atom 137O    basis set group =>   2
Atom 138C    basis set group =>   5
Atom 139N    basis set group =>   6
Atom 140C    basis set group =>   5
Atom 141N    basis set group =>   6
Atom 142C    basis set group =>   5
Atom 143C    basis set group =>   5
Atom 144N    basis set group =>   6
Atom 145N    basis set group =>   6
Atom 146C    basis set group =>   5
Atom 147N    basis set group =>   6
Atom 148C    basis set group =>   5
Atom 149H    basis set group =>   3
Atom 150H    basis set group =>   3
Atom 151H    basis set group =>   3
Atom 152H    basis set group =>   3
Atom 153H    basis set group =>   3
Atom 154H    basis set group =>   3
Atom 155H    basis set group =>   3
Atom 156H    basis set group =>   3
Atom 157H    basis set group =>   3
Atom 158H    basis set group =>   3
Atom 159H    basis set group =>   3
Atom 160H    basis set group =>   3
Atom 161H    basis set group =>   3
---------------------------------
AUXILIARY/J BASIS SET INFORMATION
---------------------------------
There are 6 groups of distinct atoms

 Group   1 Type Si  : 14s5p5d2f1g contracted to 8s4p3d1f1g pattern {71111111/2111/311/2/1}
 Group   2 Type O   : 12s5p4d2f1g contracted to 6s4p3d1f1g pattern {711111/2111/211/2/1}
 Group   3 Type H   : 5s2p1d contracted to 3s1p1d pattern {311/2/1}
 Group   4 Type P   : 14s5p5d2f1g contracted to 8s4p3d1f1g pattern {71111111/2111/311/2/1}
 Group   5 Type C   : 12s5p4d2f1g contracted to 6s4p3d1f1g pattern {711111/2111/211/2/1}
 Group   6 Type N   : 12s5p4d2f1g contracted to 6s4p3d1f1g pattern {711111/2111/211/2/1}

Atom   0Si   basis set group =>   1
Atom   1Si   basis set group =>   1
Atom   2O    basis set group =>   2
Atom   3O    basis set group =>   2
Atom   4O    basis set group =>   2
Atom   5O    basis set group =>   2
Atom   6O    basis set group =>   2
Atom   7Si   basis set group =>   1
Atom   8Si   basis set group =>   1
Atom   9O    basis set group =>   2
Atom  10O    basis set group =>   2
Atom  11O    basis set group =>   2
Atom  12O    basis set group =>   2
Atom  13O    basis set group =>   2
Atom  14Si   basis set group =>   1
Atom  15Si   basis set group =>   1
Atom  16Si   basis set group =>   1
Atom  17Si   basis set group =>   1
Atom  18O    basis set group =>   2
Atom  19O    basis set group =>   2
Atom  20O    basis set group =>   2
Atom  21O    basis set group =>   2
Atom  22O    basis set group =>   2
Atom  23O    basis set group =>   2
Atom  24O    basis set group =>   2
Atom  25O    basis set group =>   2
Atom  26O    basis set group =>   2
Atom  27O    basis set group =>   2
Atom  28Si   basis set group =>   1
Atom  29Si   basis set group =>   1
Atom  30O    basis set group =>   2
Atom  31O    basis set group =>   2
Atom  32O    basis set group =>   2
Atom  33O    basis set group =>   2
Atom  34O    basis set group =>   2
Atom  35O    basis set group =>   2
Atom  36Si   basis set group =>   1
Atom  37Si   basis set group =>   1
Atom  38O    basis set group =>   2
Atom  39O    basis set group =>   2
Atom  40O    basis set group =>   2
Atom  41O    basis set group =>   2
Atom  42O    basis set group =>   2
Atom  43Si   basis set group =>   1
Atom  44Si   basis set group =>   1
Atom  45Si   basis set group =>   1
Atom  46Si   basis set group =>   1
Atom  47O    basis set group =>   2
Atom  48O    basis set group =>   2
Atom  49O    basis set group =>   2
Atom  50O    basis set group =>   2
Atom  51O    basis set group =>   2
Atom  52O    basis set group =>   2
Atom  53O    basis set group =>   2
Atom  54O    basis set group =>   2
Atom  55O    basis set group =>   2
Atom  56O    basis set group =>   2
Atom  57Si   basis set group =>   1
Atom  58Si   basis set group =>   1
Atom  59O    basis set group =>   2
Atom  60O    basis set group =>   2
Atom  61O    basis set group =>   2
Atom  62O    basis set group =>   2
Atom  63O    basis set group =>   2
Atom  64O    basis set group =>   2
Atom  65Si   basis set group =>   1
Atom  66O    basis set group =>   2
Atom  67O    basis set group =>   2
Atom  68O    basis set group =>   2
Atom  69Si   basis set group =>   1
Atom  70Si   basis set group =>   1
Atom  71Si   basis set group =>   1
Atom  72Si   basis set group =>   1
Atom  73O    basis set group =>   2
Atom  74O    basis set group =>   2
Atom  75O    basis set group =>   2
Atom  76O    basis set group =>   2
Atom  77O    basis set group =>   2
Atom  78O    basis set group =>   2
Atom  79O    basis set group =>   2
Atom  80O    basis set group =>   2
Atom  81O    basis set group =>   2
Atom  82O    basis set group =>   2
Atom  83Si   basis set group =>   1
Atom  84O    basis set group =>   2
Atom  85O    basis set group =>   2
Atom  86O    basis set group =>   2
Atom  87O    basis set group =>   2
Atom  88O    basis set group =>   2
Atom  89O    basis set group =>   2
Atom  90H    basis set group =>   3
Atom  91H    basis set group =>   3
Atom  92H    basis set group =>   3
Atom  93H    basis set group =>   3
Atom  94H    basis set group =>   3
Atom  95H    basis set group =>   3
Atom  96H    basis set group =>   3
Atom  97H    basis set group =>   3
Atom  98H    basis set group =>   3
Atom  99H    basis set group =>   3
Atom 100H    basis set group =>   3
Atom 101H    basis set group =>   3
Atom 102H    basis set group =>   3
Atom 103H    basis set group =>   3
Atom 104H    basis set group =>   3
Atom 105H    basis set group =>   3
Atom 106H    basis set group =>   3
Atom 107H    basis set group =>   3
Atom 108H    basis set group =>   3
Atom 109H    basis set group =>   3
Atom 110H    basis set group =>   3
Atom 111H    basis set group =>   3
Atom 112H    basis set group =>   3
Atom 113H    basis set group =>   3
Atom 114H    basis set group =>   3
Atom 115H    basis set group =>   3
Atom 116H    basis set group =>   3
Atom 117H    basis set group =>   3
Atom 118H    basis set group =>   3
Atom 119H    basis set group =>   3
Atom 120H    basis set group =>   3
Atom 121H    basis set group =>   3
Atom 122H    basis set group =>   3
Atom 123H    basis set group =>   3
Atom 124H    basis set group =>   3
Atom 125H    basis set group =>   3
Atom 126P    basis set group =>   4
Atom 127O    basis set group =>   2
Atom 128O    basis set group =>   2
Atom 129O    basis set group =>   2
Atom 130O    basis set group =>   2
Atom 131C    basis set group =>   5
Atom 132C    basis set group =>   5
Atom 133O    basis set group =>   2
Atom 134C    basis set group =>   5
Atom 135O    basis set group =>   2
Atom 136C    basis set group =>   5
Atom 137O    basis set group =>   2
Atom 138C    basis set group =>   5
Atom 139N    basis set group =>   6
Atom 140C    basis set group =>   5
Atom 141N    basis set group =>   6
Atom 142C    basis set group =>   5
Atom 143C    basis set group =>   5
Atom 144N    basis set group =>   6
Atom 145N    basis set group =>   6
Atom 146C    basis set group =>   5
Atom 147N    basis set group =>   6
Atom 148C    basis set group =>   5
Atom 149H    basis set group =>   3
Atom 150H    basis set group =>   3
Atom 151H    basis set group =>   3
Atom 152H    basis set group =>   3
Atom 153H    basis set group =>   3
Atom 154H    basis set group =>   3
Atom 155H    basis set group =>   3
Atom 156H    basis set group =>   3
Atom 157H    basis set group =>   3
Atom 158H    basis set group =>   3
Atom 159H    basis set group =>   3
Atom 160H    basis set group =>   3
Atom 161H    basis set group =>   3

############################################
   Total Atom Count:             162
   Total System Mass:       2112.502 a.m.u.
   Total Basis Dimension:       3947
   Total Electron Number:       1080
   Total Charge:                  -1
   Total Multiplicity:             1
   Spin Treatment:        Restricted
  ------------------------------------------
   ReducePrint:                 true
   Print Mulliken Pop:             1
   Print Loewdin Pop:              1
   Print Mayer Pop:                1
   Print Orbital Energies:         1
############################################

<<<<<<<<<<<<<<<<<<<<<<<<<<<<<<<<<<<<<<<<<<<<<<<<<<<<
<<<          End of System Information           <<<
<<<<<<<<<<<<<<<<<<<<<<<<<<<<<<<<<<<<<<<<<<<<<<<<<<<<


Initializing regions...

Defined regions:
         All:   162 atoms,   2112.502 a.m.u.
          QM:   All
      Active:   All



### System Geometry ###

  * Region "All" = "Active" = "QM":
      Bounding box: from (    1.410 |   22.173 |    5.526 )
                      to (   21.625 |   42.437 |   13.359 ) Angstrom
      System extent:     (   20.214 |   20.264 |    7.833 ) Angstrom
      Center of mass:    (   11.836 |   32.673 |    8.214 ) Angstrom
      Total mass:          2112.502 a.m.u.

      Moment of inertia: (     52993.79 |      -110.55 |     -2237.18 )
                         (      -110.55 |     53666.33 |     -2293.46 ) a.m.u. Angstrom^2
                         (     -2237.18 |     -2293.46 |     94406.07 )
      Singular values:   (     94653.88 |     52799.61 |     53612.71 ) a.m.u. Angstrom^2



Smallest interatomic distance from active region: 0.966220 Angstrom (atoms 82 - 122).


<<< MD engine initialization done (took 0.397 seconds) <<<


###############################################################
########        Executing Input Script (SAN-VM)        ########
###############################################################

Execution verbose level is 2.

-------------------------------------------------------------------------------------------



>>>>>> Timestep( 0.5_fs )

Setting integration time step to 0.50 fs.

The lightest element in the active region has an atomic mass of 1.008 a.m.u.
Recommending time step not larger than 0.50 .. 1.00 fs.
  --> choice seems reasonable


>>>>>> Initvel( 353 )

Old temperature of the total system is     0.000 K.

Initializing atom velocities for region "all" to 353.000 K:
  Creating Maxwell-Boltzmann distribution...
  Temperature after random initialization is 385.782 K.
  Rescaling velocities to match desired initial temperature (factor 0.956569)...
  Removing initial center of mass movement...
  Temperature after center of mass movement removal is 352.921 K.
  Removing initial angular velocity...
    Angular momentum before:  (   4.19122759 |   4.86823667 |  -3.28239866 ) a.m.u. Angstrom^2 fs^-1
    Angular velocity before:  (   0.00007798 |   0.00008956 |  -0.00003075 ) fs^-1
    Angular momentum after:   (  -0.00000000 |   0.00000000 |  -0.00000000 ) a.m.u. Angstrom^2 fs^-1
    Angular velocity after:   (  -0.00000000 |   0.00000000 |  -0.00000000 ) fs^-1
  Temperature after angular velocity removal is 350.783 K.
  Rescaling velocities to match desired initial temperature (factor 1.003155)...
Done.

New temperature of the total system is   353.000 K.


>>>>>> Thermostat( CSVR )

Warning: No thermostat target temperature specified. Using 353.00 K from last "Initvel" command.
Warning: No thermostat time constant specified. Using 10 fs as default (rather strong).
Switching on thermostat for region "All": Type CSVR, temperature 353.00 K, time constant 10.00 fs, global.


>>>>>> dump( position, stride, 1, filename, "trajectory.xyz" )

Modified writing position trajectory for region "all": Format XYZ, stride 1, filename "trajectory.xyz", append.


>>>>>> Run( 2000 )


***************************************************
****    Starting MD loop for     2000 steps    ****
***************************************************


Defined regions:
         All:   162 atoms,   2112.502 a.m.u.
          QM:   All
      Active:   All


Dump: Will write Position data of region "All" in XYZ format with stride 1 to "trajectory.xyz" (append).

Hint: To compute properties (dipole, etc.) in each step, specify "dump properties" before run.

Active Thermostats:
  (*) Region "All": Type CSVR, temperature 353.00 K, time constant 10.00 fs, global.


Will write restart file to "amp_frame11_dry_md.mdrestart" after each step.
Will write energy statistics to "amp_frame11_dry_md-md-ener.csv" after each step.

The system contains 486 active degrees of freedom (162 active atoms * 3).

Smallest interatomic distance from active region: 0.966220 Angstrom (atoms 82 - 122).



       Step |  Sim. Time | Iter |  t_Ener |  t_Grad |     Temp |     E_Kin |         E_Pot |         E_Tot |      Cons.Qty | E.Drift
            |       [fs] |      |     [s] |     [s] |      [K] | [Hartree] |     [Hartree] |     [Hartree] |     [Hartree] |     [K]
------------|------------|------|---------|---------|----------|-----------|---------------|---------------|---------------|-----------
          0          0.0          1694.05               353.00    0.271646   -13464.232853   -13463.961208                          
          1          0.5      6   1167.55    477.50     352.23    0.271056   -13464.228226   -13463.957170   -13463.960443      0.00
          2          1.0      7   1314.64    449.83     336.10    0.258638   -13464.218976   -13463.960338   -13463.960231      0.14
          3          1.5      6   1216.23    492.34     325.42    0.250421   -13464.208195   -13463.957774   -13463.960206      0.15
          4          2.0      6   1231.29    447.14     321.61    0.247487   -13464.198878   -13463.951390   -13463.960106      0.22
          5          2.5      6   1174.49    491.23     309.81    0.238411   -13464.193379   -13463.954968   -13463.960130      0.20
          6          3.0      6   1243.73    490.18     303.32    0.233413   -13464.191709   -13463.958296   -13463.960278      0.11
          7          3.5      7   1255.87    468.80     305.38    0.235003   -13464.191047   -13463.956044   -13463.960166      0.18
          8          4.0      7   1308.05    489.99     301.19    0.231777   -13464.188617   -13463.956841   -13463.960326      0.08
          9          4.5      7   1261.55    490.51     290.22    0.223334   -13464.181921   -13463.958587   -13463.960321      0.08
         10          5.0      7   1293.77    459.39     284.16    0.218675   -13464.171458   -13463.952783   -13463.960184      0.17
         11          5.5      6   1231.31    492.18     276.95    0.213121   -13464.159487   -13463.946366   -13463.959949      0.32
         12          6.0      7   1278.22    401.49     270.67    0.208292   -13464.149246   -13463.940954   -13463.959940      0.33
         13          6.5      8   1400.91    472.49     269.00    0.207001   -13464.142473   -13463.935472   -13463.959822      0.40
         14          7.0      7   1251.48    479.97     266.95    0.205429   -13464.140044   -13463.934615   -13463.960049      0.26
         15          7.5      6   1246.95    478.02     261.93    0.201565   -13464.140166   -13463.938601   -13463.959783      0.43
         16          8.0      6   1208.68    493.48     272.10    0.209390   -13464.142108   -13463.932718   -13463.959919      0.34
         17          8.5      7   1313.08    459.88     265.40    0.204238   -13464.144081   -13463.939843   -13463.960306      0.09
         18          9.0      7   1227.11    488.79     271.10    0.208620   -13464.144212   -13463.935592   -13463.960269      0.11
         19          9.5      7   1281.59    461.76     268.51    0.206630   -13464.142627   -13463.935997   -13463.960166      0.18
         20         10.0      7   1265.83    505.71     279.40    0.215008   -13464.140170   -13463.925162   -13463.960001      0.29
         21         10.5      7   1300.76    490.89     278.28    0.214147   -13464.138568   -13463.924421   -13463.959844      0.39
         22         11.0      7   1292.67    483.70     267.99    0.206226   -13464.139672   -13463.933446   -13463.959807      0.41
         23         11.5      7   1354.91    453.76     275.11    0.211707   -13464.143942   -13463.932234   -13463.959935      0.33
         24         12.0      7   1369.10    480.14     278.19    0.214074   -13464.149767   -13463.935694   -13463.960149      0.19
         25         12.5      7   1262.28    469.60     278.66    0.214441   -13464.154152   -13463.939711   -13463.960323      0.08
         26         13.0      7   1272.40    485.72     281.16    0.216359   -13464.154873   -13463.938514   -13463.960376      0.04
         27         13.5      7   1243.18    492.17     276.37    0.212673   -13464.151495   -13463.938823   -13463.960310      0.09
         28         14.0      7   1315.87    478.12     269.95    0.207739   -13464.145362   -13463.937623   -13463.960190      0.16
         29         14.5      7   1295.38    502.75     261.54    0.201261   -13464.138721   -13463.937461   -13463.960081      0.24
         30         15.0      7   1284.41    454.93     261.33    0.201104   -13464.133705   -13463.932601   -13463.960028      0.27
         31         15.5      7   1311.88    477.40     262.20    0.201773   -13464.131436   -13463.929662   -13463.960042      0.26
         32         16.0      6   1158.32    473.21     269.74    0.207576   -13464.131542   -13463.923965   -13463.959777      0.43
         33         16.5      6   1258.46    481.68     281.09    0.216311   -13464.133521   -13463.917211   -13463.959922      0.34
         34         17.0      6   1190.34    480.50     291.94    0.224656   -13464.135015   -13463.910359   -13463.960108      0.22
         35         17.5      7   1287.61    480.59     294.56    0.226672   -13464.133949   -13463.907276   -13463.960309      0.09
         36         18.0      7   1306.53    489.83     286.18    0.220223   -13464.128947   -13463.908723   -13463.960221      0.14
         37         18.5      6   1194.81    605.79     284.28    0.218766   -13464.121230   -13463.902464   -13463.960252      0.12
         38         19.0      7   1352.80    473.65     280.00    0.215473   -13464.112582   -13463.897109   -13463.959955      0.32
         39         19.5      6   1207.42    480.20     275.05    0.211659   -13464.106672   -13463.895013   -13463.960013      0.28
         40         20.0      6   1208.12    490.72     270.26    0.207976   -13464.105122   -13463.897147   -13463.960028      0.27
         41         20.5      7   1244.08    481.25     283.47    0.218141   -13464.107405   -13463.889264   -13463.959851      0.39
         42         21.0      7   1282.45    446.46     291.20    0.224090   -13464.111523   -13463.887433   -13463.960093      0.23
         43         21.5      7   1321.53    469.37     301.98    0.232385   -13464.113585   -13463.881200   -13463.960244      0.13
         44         22.0      7   1271.93    479.39     301.07    0.231682   -13464.111427   -13463.879745   -13463.960247      0.13
         45         22.5      8   1351.61    471.32     298.77    0.229917   -13464.105104   -13463.875187   -13463.960126      0.21
         46         23.0      7   1271.98    485.28     284.10    0.218627   -13464.096508   -13463.877882   -13463.959980      0.30
         47         23.5      7   1287.12    474.24     285.45    0.219663   -13464.088437   -13463.868775   -13463.959847      0.39
         48         24.0      7   1303.75    479.23     281.78    0.216840   -13464.082972   -13463.866132   -13463.959780      0.43
         49         24.5      7   1274.52    432.44     280.00    0.215470   -13464.081370   -13463.865900   -13463.959785      0.43
         50         25.0      7   1320.17    472.87     283.96    0.218519   -13464.083549   -13463.865031   -13463.959855      0.38
         51         25.5      7   1233.51    465.90     288.10    0.221706   -13464.088178   -13463.866472   -13463.959961      0.31
         52         26.0      7   1316.13    488.24     294.41    0.226558   -13464.093169   -13463.866611   -13463.960052      0.25
         53         26.5      7   1226.52    490.64     305.25    0.234903   -13464.096610   -13463.861707   -13463.960072      0.24
         54         27.0      7   1298.29    486.20     310.02    0.238575   -13464.097571   -13463.858996   -13463.959984      0.30
         55         27.5      7   1271.80    497.83     310.26    0.238755   -13464.096720   -13463.857965   -13463.959810      0.41
         56         28.0      7   1290.37    472.40     304.79    0.234546   -13464.096254   -13463.861708   -13463.959642      0.52
         57         28.5      7   1289.46    482.03     305.62    0.235189   -13464.098527   -13463.863338   -13463.959600      0.55
         58         29.0      7   1229.57    467.02     313.94    0.241587   -13464.104322   -13463.862735   -13463.959725      0.47
         59         29.5      7   1353.26    488.74     316.96    0.243908   -13464.112228   -13463.868320   -13463.959936      0.33
         60         30.0      7   1303.65    482.52     331.77    0.255311   -13464.119610   -13463.864299   -13463.960113      0.21
         61         30.5      7   1310.71    460.41     349.20    0.268724   -13464.124488   -13463.855764   -13463.960187      0.17
         62         31.0      7   1334.03    452.29     349.64    0.269062   -13464.126007   -13463.856944   -13463.960161      0.18
         63         31.5      7   1277.49    484.60     360.19    0.277176   -13464.124835   -13463.847659   -13463.960087      0.23
         64         32.0      7   1288.81    467.15     347.26    0.267228   -13464.122423   -13463.855196   -13463.960011      0.28
         65         32.5      8   1395.23    498.96     344.93    0.265433   -13464.120289   -13463.854856   -13463.959876      0.37
         66         33.0      7   1294.25    496.11     341.44    0.262750   -13464.119762   -13463.857012   -13463.959950      0.32
         67         33.5      7   1264.01    462.04     336.31    0.258799   -13464.120814   -13463.862014   -13463.959975      0.30
         68         34.0      7   1274.95    457.67     351.27    0.270318   -13464.122933   -13463.852615   -13463.960029      0.27
         69         34.5      7   1302.65    464.12     345.23    0.265666   -13464.124727   -13463.859061   -13463.960086      0.23
         70         35.0      7   1252.74    480.44     340.47    0.262001   -13464.124550   -13463.862550   -13463.960092      0.23
         71         35.5      7   1239.24    492.01     329.51    0.253569   -13464.121747   -13463.868178   -13463.960008      0.28
         72         36.0      7   1310.35    464.78     319.77    0.246077   -13464.117126   -13463.871049   -13463.959840      0.39
         73         36.5      7   1349.32    490.51     312.62    0.240576   -13464.112835   -13463.872259   -13463.959672      0.50
         74         37.0      7   1314.79    486.78     313.45    0.241211   -13464.111163   -13463.869952   -13463.959614      0.54
         75         37.5      7   1301.28    480.74     322.09    0.247863   -13464.113006   -13463.865143   -13463.959714      0.47
         76         38.0      7   1232.42    456.80     331.66    0.255223   -13464.117221   -13463.861998   -13463.959907      0.35
         77         38.5      7   1319.15    458.56     350.26    0.269536   -13464.121403   -13463.851867   -13463.960085      0.23
         78         39.0      7   1309.77    482.99     354.56    0.272846   -13464.123375   -13463.850529   -13463.960169      0.18
         79         39.5      7   1303.69    495.50     345.42    0.265810   -13464.122285   -13463.856475   -13463.960156      0.19
         80         40.0      8   1379.13    485.73     337.12    0.259428   -13464.118938   -13463.859510   -13463.959996      0.29
         81         40.5      7   1244.16    467.20     348.98    0.268555   -13464.115217   -13463.846662   -13463.960035      0.27
         82         41.0      8   1381.69    463.23     347.65    0.267525   -13464.111833   -13463.844308   -13463.959861      0.38
         83         41.5      7   1324.39    432.44     338.94    0.260823   -13464.110193   -13463.849370   -13463.959939      0.33
         84         42.0      7   1287.04    366.80     336.59    0.259019   -13464.110589   -13463.851570   -13463.959924      0.34
         85         42.5      7   1274.41    467.87     345.62    0.265963   -13464.113030   -13463.847067   -13463.959954      0.32
         86         43.0      7   1290.19    499.60     350.46    0.269693   -13464.116378   -13463.846684   -13463.960009      0.28
         87         43.5      7   1230.21    479.65     349.23    0.268748   -13464.118879   -13463.850130   -13463.960032      0.27
         88         44.0      7   1241.63    469.55     352.55    0.271298   -13464.119367   -13463.848069   -13463.959978      0.30
         89         44.5      7   1306.11    424.59     347.67    0.267546   -13464.117926   -13463.850381   -13463.959855      0.38
         90         45.0      7   1277.82    487.04     342.16    0.263303   -13464.115815   -13463.852512   -13463.959737      0.46
         91         45.5      7   1306.11    453.14     344.43    0.265053   -13464.114542   -13463.849489   -13463.959693      0.49
         92         46.0      7   1299.57    479.36     343.78    0.264554   -13464.114766   -13463.850213   -13463.959729      0.46
         93         46.5      7   1311.32    481.13     348.76    0.268384   -13464.116212   -13463.847828   -13463.959809      0.41
         94         47.0      7   1283.50    480.02     353.97    0.272393   -13464.118122   -13463.845729   -13463.959891      0.36
         95         47.5      7   1200.28    473.38     361.50    0.278186   -13464.119736   -13463.841551   -13463.959954      0.32
         96         48.0      7   1274.18    481.76     359.98    0.277018   -13464.120603   -13463.843586   -13463.959997      0.29
         97         48.5      7   1292.18    436.18     367.78    0.283017   -13464.120612   -13463.837595   -13463.960026      0.27
         98         49.0      7   1334.80    421.10     365.28    0.281097   -13464.119758   -13463.838661   -13463.960048      0.26
         99         49.5      7   1333.02    456.80     379.11    0.291736   -13464.118057   -13463.826321   -13463.960044      0.26
        100         50.0      7   1243.57    461.55     388.53    0.298986   -13464.115574   -13463.816588   -13463.960007      0.28
        101         50.5      7   1333.36    471.10     391.42    0.301211   -13464.112589   -13463.811378   -13463.959941      0.33
        102         51.0      8   1327.35    465.44     390.77    0.300710   -13464.109613   -13463.808903   -13463.959792      0.42
        103         51.5      7   1290.74    476.62     384.42    0.295824   -13464.107384   -13463.811560   -13463.959828      0.40
        104         52.0      7   1283.85    417.71     378.34    0.291142   -13464.105812   -13463.814670   -13463.959794      0.42
        105         52.5      7   1255.63    433.65     379.52    0.292050   -13464.104924   -13463.812873   -13463.959760      0.44
        106         53.0      7   1322.95    474.37     370.41    0.285043   -13464.104570   -13463.819526   -13463.959737      0.46
        107         53.5      8   1398.29    408.34     361.95    0.278536   -13464.104646   -13463.826109   -13463.959806      0.41
        108         54.0      8   1374.44    455.26     369.58    0.284406   -13464.104739   -13463.820333   -13463.959840      0.39
        109         54.5      7   1306.65    418.57     375.13    0.288678   -13464.104333   -13463.815655   -13463.959783      0.43
        110         55.0      8   1355.82    454.16     367.17    0.282548   -13464.103338   -13463.820790   -13463.959826      0.40
        111         55.5      8   1360.98    493.40     372.21    0.286426   -13464.101934   -13463.815507   -13463.959787      0.43
        112         56.0      7   1281.84    477.87     366.62    0.282128   -13464.100799   -13463.818671   -13463.959756      0.45
        113         56.5      8   1270.38    475.96     364.61    0.280583   -13464.100498   -13463.819915   -13463.959734      0.46
        114         57.0      7   1300.59    469.47     357.86    0.275388   -13464.101460   -13463.826072   -13463.959803      0.42
        115         57.5      7   1332.25    461.86     362.85    0.279224   -13464.103567   -13463.824343   -13463.959849      0.39
        116         58.0      7   1265.59    454.59     357.94    0.275444   -13464.106516   -13463.831072   -13463.959890      0.36
        117         58.5      7   1314.60    462.74     375.07    0.288627   -13464.109813   -13463.821185   -13463.959903      0.35
        118         59.0      7   1251.28    507.60     375.48    0.288942   -13464.113207   -13463.824265   -13463.959885      0.36
        119         59.5      7   1260.83    493.81     365.09    0.280947   -13464.116535   -13463.835588   -13463.959849      0.39
        120         60.0      7   1260.06    420.67     371.31    0.285737   -13464.119999   -13463.834262   -13463.959829      0.40
        121         60.5      7   1307.76    408.93     382.14    0.294073   -13464.123558   -13463.829485   -13463.959824      0.40
        122         61.0      7   1297.74    478.05     388.14    0.298690   -13464.126672   -13463.827982   -13463.959805      0.41
        123         61.5      7   1285.31    486.81     384.36    0.295782   -13464.128951   -13463.833169   -13463.959766      0.44
        124         62.0      8   1393.01    496.32     380.79    0.293033   -13464.130595   -13463.837563   -13463.959809      0.41
        125         62.5      7   1205.68    505.29     371.87    0.286169   -13464.131725   -13463.845556   -13463.959719      0.47
        126         63.0      7   1304.76    455.55     373.24    0.287222   -13464.132770   -13463.845549   -13463.959733      0.46
        127         63.5      7   1285.39    463.07     374.06    0.287854   -13464.133556   -13463.845702   -13463.959767      0.44
        128         64.0      7   1337.64    487.30     377.64    0.290611   -13464.133763   -13463.843153   -13463.959802      0.42
        129         64.5      7   1325.00    484.16     378.93    0.291600   -13464.133214   -13463.841613   -13463.959821      0.40
        130         65.0      7   1322.65    489.87     375.11    0.288664   -13464.132024   -13463.843360   -13463.959835      0.40
        131         65.5      7   1340.78    492.05     374.39    0.288104   -13464.130523   -13463.842420   -13463.959859      0.38
        132         66.0      7   1359.76    458.91     374.59    0.288259   -13464.128915   -13463.840656   -13463.959889      0.36
        133         66.5      7   1273.23    464.50     360.52    0.277436   -13464.127170   -13463.849734   -13463.959914      0.34
        134         67.0      8   1378.02    485.19     365.30    0.281109   -13464.125288   -13463.844179   -13463.959851      0.38
        135         67.5      7   1320.61    485.34     361.85    0.278457   -13464.123557   -13463.845100   -13463.959876      0.37
        136         68.0      7   1261.04    482.75     355.26    0.273385   -13464.122146   -13463.848761   -13463.959820      0.41
        137         68.5      7   1287.37    471.17     354.34    0.272677   -13464.121644   -13463.848967   -13463.959771      0.44
        138         69.0      7   1321.47    425.55     365.58    0.281324   -13464.122284   -13463.840960   -13463.959739      0.46
        139         69.5      7   1320.93    491.46     366.53    0.282060   -13464.123879   -13463.841819   -13463.959705      0.48
        140         70.0      7   1280.09    493.75     361.54    0.278218   -13464.126240   -13463.848022   -13463.959668      0.50
        141         70.5      7   1284.13    473.02     359.56    0.276691   -13464.129497   -13463.852806   -13463.959656      0.51
        142         71.0      7   1358.22    419.94     363.26    0.279545   -13464.133625   -13463.854080   -13463.959707      0.48
        143         71.5      7   1297.83    496.48     368.40    0.283493   -13464.137873   -13463.854380   -13463.959811      0.41
        144         72.0      7   1305.90    494.37     365.43    0.281214   -13464.140915   -13463.859701   -13463.959907      0.35
        145         72.5      7   1189.84    500.82     375.16    0.288701   -13464.141791   -13463.853090   -13463.959942      0.33
        146         73.0      7   1192.00    478.81     371.35    0.285769   -13464.140574   -13463.854805   -13463.959904      0.35
        147         73.5      8   1291.39    489.10     368.84    0.283836   -13464.138445   -13463.854609   -13463.959847      0.39
        148         74.0      8   1407.34    477.23     365.10    0.280957   -13464.136983   -13463.856027   -13463.959806      0.41
        149         74.5      8   1437.79    493.76     363.95    0.280075   -13464.137126   -13463.857051   -13463.959842      0.39
        150         75.0      8   1360.40    496.25     357.25    0.274915   -13464.138577   -13463.863662   -13463.959931      0.33
        151         75.5      8   1315.87    496.03     348.44    0.268135   -13464.140229   -13463.872094   -13463.960006      0.28

ORCA finished by error termination in SCF gradient
Calling Command: mpirun -np 8  /home/bic1/orca_6_1_1_avx2/orca_scfgrad_mpi amp_frame11_dry_md.scfgrad.inp amp_frame11_dry_md >>amp_frame11_dry_md.grad.log
Check for SCF gradient-logfiles
CMDInterfaceOrca::CalcForces(): Error in gradient calculation, ret=256.

Error: Could not compute the gradient.
       Check the gradient logfile ("amp_frame11_dry_md.grad.log") to obtain more information on that issue.

Aborting MD loop.

Errors occurred in the MD loop.

    Total execution time: 269569.490 seconds (3d 02h 52m 49.490s)

            22 instructions executed
             5 function calls


Timings for individual modules during the MD run:

Startup calculation               ...     8471.375 sec (= 141.190 min)   3.1 %
SCF iterations                    ...   189552.424 sec (=3159.207 min)  70.3 %
SCF gradient evaluation           ...    71444.905 sec (=1190.748 min)  26.5 %
ORCA initialization               ...        0.393 sec (=   0.007 min)   0.0 %
Self time inside of MD module     ...       86.094 sec (=   1.435 min)   0.0 %
------------------------------------------------------------------------------
Sum of individual times           ...   269555.192 sec (=4492.587 min) 100.0 %

Total wall time of MD module      ...   269569.886 sec (=4492.831 min)
             --> "dark time"      ...       14.694 sec (=   0.245 min)   0.0 %


-------------------------------------------------------------------------------------------

