161
1 Eopt=-23.1891893338 (Eh) Einter=-35.972039 (kcal/mol)
Si 3.55625019767418137917 33.84481352241489560129 7.82283052415759172504
Si 3.55593640427730939280 30.76681374616862285620 7.82283149692039447842
O  2.14730563498192772443 34.47995712204303941917 8.40980825153888211787
O  2.14686229033050501869 30.13195802793720901036 8.40980965604175167982
O  3.71008409269345307280 32.30579811957995417515 8.41283351084606856318
O  3.55527628773922899086 33.84681297582913117594 6.16683050696741652530
O  3.55496202023817264859 30.76481349873149895302 6.16683148071126296941
Si 6.21946585174873423085 26.15154206536501746427 7.82287394218233522736
Si 8.88330921918365490342 24.61427032213190457810 7.82291554161026603254
O  4.81039181899062917580 25.51668623360546561685 8.40985212632534206989
O  7.47536479273090304076 25.24941401046578448586 8.40989357701743323048
O  9.03814384334101461604 23.07525464039110829617 8.41291806250757900898
O  6.21949137431820187061 26.14954191147187856359 6.16687394241670894246
O  8.88333532804899661528 24.61627018273548372918 6.16691554184079926415
Si 6.21977960799995077679 29.22954198316222118592 7.82287340847035128633
Si 6.22040689407120162002 35.38154179575103341904 7.82287166451925664035
Si 8.88425016722202975927 33.84427024457777832822 7.82291375747565354004
Si 8.88393629169168264070 30.76627027934180347302 7.82291460698563767551
O  4.81083521815564019164 29.86468585582851886784 8.40985130131868530157
O  4.81133299663852476158 34.74668571225766555699 8.40984984243288558048
O  7.47630573088315131258 34.47941392050994835472 8.40989159069038194616
O  7.47586237976253364934 30.13141404887014118685 8.40989279177212800676
O  6.37361355244420302313 27.69052643040634364979 8.41287612123988104429
O  9.03908394430844097656 32.30525463324190127423 8.41291667166681023105
O  6.21980561956180988403 29.23154162594759242211 6.16687340456872412631
O  6.22043261639201006119 35.37954120993555306995 6.16687164936510257007
O  8.88427615437098694429 33.84626969060676060508 6.16691376561274395840
O  8.88396189318424767123 30.76426994259303171475 6.16691461016497477488
Si 6.22072074604922420349 38.45954151530825271266 7.82287045671763081600
Si 8.88487766473079787488 39.99627023436097772446 7.82291144899406987179
O  4.81177610514815867759 39.09468497635248240840 8.40984815059606560794
O  7.47680353322886848133 39.36141402543007217218 8.40988972526958100673
O  6.37455468163346505861 36.92052623513810516442 8.41287350819682266945
O  9.04002569742912953643 41.53525449936861235756 8.41291304940206075003
O  6.22074680285051329065 38.46154081881758912687 6.16687043712037752385
O  8.88490317660357042939 39.99426934079637874220 6.16691135186150507508
Si 11.54846577380672023594 26.15099867789254162176 7.82295697947777046721
Si 14.21330910911398959229 24.61372707830349781943 7.82299879787475127557
O  10.13939192858502380545 25.51614235738934510778 8.40993508633847852707
O  12.80436466368604264687 25.24887073813182425397 8.40997670372023975460
O  14.36714373528838706306 23.07471151277725240902 8.41300136137241594270
O  11.54849137848716367216 26.14899848730309983580 6.16695698274565629049
O  14.21233531445632003454 24.61572701402741003562 6.16699878113296939830
Si 11.54877961282141285437 29.22899829647034053437 7.82295663280914599369
Si 11.54940670631537003032 35.38099843269041855365 7.82295477028674035580
Si 14.21424962616626785916 33.84372674722210661002 7.82299675195687260754
Si 14.21393573985458580466 30.76572653760146280888 7.82299773714614588016
O  10.13983509786647552176 29.86414244136664919438 8.40993441905956906623
O  10.14033289794192249644 34.74614236887733653703 8.40993306649545324660
O  12.80530571197587441645 34.47887085863202827341 8.40997472794410150243
O  12.80486201257261669184 30.13087118471953473886 8.40997570567646945960
O  11.70261338588090538337 27.68998306905685780066 8.41295917082735655868
O  14.36808419093098621033 32.30471140235359683857 8.41299971455143591470
O  11.54880545422125770472 29.23099834374966121686 6.16695649472133666791
O  11.54943235118140520967 35.37899794529984376368 6.16695480299120912804
O  14.21327591258393496787 33.84572645534042578674 6.16699679129857436521
O  14.21296177445599795419 30.76372677833029811723 6.16699767522347919169
Si 11.54972092760578306070 38.45899882544507875082 7.82295379342062968675
Si 14.21487734361299004604 39.99572669168685479235 7.82299441444346044250
O  10.14077599908722682187 39.09414181786415554143 8.40993111764904455185
O  12.80580346141667824611 39.36087054396117679289 8.40997273710418191683
O  11.70355446203233285019 36.91998297369929815659 8.41295664110206509179
O  14.36902552308912461854 41.53471116429174969653 8.41299609489964339559
O  11.54974659102589384929 38.46099762539574129505 6.16695356457911891823
O  14.21390301724000693184 39.99372599299430675046 6.16699440310095514661
Si 16.87746539657778299670 26.15045546586668478994 7.82304011554274758566
O  15.46839169511624234588 25.51559922067472285789 8.41001837249663175555
O  18.13336401780088991131 25.24832717936805082104 8.41005977586991448902
O  16.87749085239873281239 26.14845510357029212400 6.16704011552837361165
Si 16.87777913487533609782 29.22845530318317130991 7.82303946065320765513
Si 16.87840650319267155055 35.38045527137997936507 7.82303764484246677569
Si 19.54224959804804839791 33.84318370222533900460 7.82307943918051584831
Si 19.54193573193947486288 30.76518362346784130068 7.82308037199069605805
O  15.46883494232102940202 29.86359928735441116032 8.41001746556810658717
O  15.46933272294597117025 34.74559912640611969437 8.41001604698031002272
O  18.13430534179336461875 34.47832742488980528606 8.41005748066495506521
O  18.13386196722436238815 30.13032742417664522350 8.41005879934805378184
O  17.03161313838209878213 27.68943984487199116984 8.41304221004523711258
O  19.69708354085160806335 32.30416803826786775744 8.41308232693375579458
O  16.87780511866988675251 29.23045501559210634923 6.16703948253386613487
O  16.87843199365851631910 35.37845465700426927924 6.16703765340447329635
O  19.54227536122911956795 33.84518324361143726264 6.16707943896166277398
O  19.54196108724109492982 30.76318307888019987217 6.16708037288247723495
Si 16.87872042846387898862 38.45845522222847279181 7.82303645743269271406
O  15.46977615610399681145 39.09359904406782959541 8.41001440471558403544
O  18.13480302777374220113 39.36032777645525015942 8.41005555244132985138
O  17.03255431230456906633 36.91943977222237549540 8.41303947404873042615
O  16.87874623656602324218 38.46045461189083169984 6.16703646052824261403
O  20.79783428664574529421 29.86305523048686438869 8.41010005848473873868
O  20.79833211655962799114 34.74505628268170198680 8.41009857379859404602
H  4.07465742961071075712 24.98677204108949823080 8.03659115491520203989
H  1.41040897680853838381 29.60201496203762516757 8.03674925996898892322
H  1.41040900873630903334 35.00798498524221713524 8.03674926209238194019
H  4.07465743691834969553 39.62322797439661314911 8.03659116062905987121
H  8.94818084675405600592 22.17325470609429771685 8.03830168967523484014
H  8.94818087780179638457 42.43674530074275708103 8.03830168383783494335
H  14.27776169024575203537 22.17320385476337207820 8.03828219084003237072
H  14.27776172809713983725 42.43679616343205651674 8.03828219235885121918
H  18.96055658461465753817 24.87622777387176853381 8.03640577888191920408
H  18.96055653603340829250 39.73377222603181735394 8.03640577822684143428
H  21.62471722991925560109 29.49141993116210613834 8.03658340874819820954
H  21.62471724332631950460 35.11858007885985699659 8.03658340939255744217
H  13.43954239843322540082 34.27033905605965458108 5.76911863304414929132
H  10.79702477851724040647 34.91824967956508629641 5.76839602590940803140
H  8.90770701045596524636 32.96594596317739700453 5.76499475602004363139
H  9.65945432919949098505 30.34299408465017933167 5.76888005131552006333
H  12.30259135732049813328 29.68912267172746055621 5.76803922273019686884
H  14.18560346377153180697 31.64418150399715301546 5.76552257975559978576
H  13.46208429617151480784 39.53603768763078107895 5.76468154267943333480
H  10.78553470309434025864 38.90473309327143169867 5.77122839023707534523
H  8.14831462612099954868 39.50994488511749125337 5.76699954856651064716
H  6.23317385250285926901 37.58286575659305128738 5.76180503719096570592
H  5.45415702065207685934 34.93908511391082072350 5.77152547664976722785
H  3.60566386851090392440 32.96814933230667321595 5.76410508785744468696
H  4.32812544219077111052 30.34544671634148116368 5.76331957734337141375
H  6.21212642399229864054 28.34933201785507250747 5.76816829138127751264
H  7.00946743378701331295 25.75759721992124440249 5.76754704174846732911
H  9.64012207150222266705 25.06582757773250236255 5.76488469565174366238
H  12.31500792555067747003 25.70853944664093404526 5.77192568469255995467
H  14.95343799027421383130 25.09203406445212181097 5.76610003216261279846
H  16.85241664007585171703 27.02653749503081570538 5.76116217487310233736
H  17.64630213632568001003 29.66655897896490401422 5.77122747334656516216
H  19.48194552510089749831 31.64158903491160756971 5.76482831423307828800
H  18.77355784179299647008 34.27390176075768124520 5.76498788538508488699
H  16.88031298566987103982 36.26100719786941795064 5.76894103313644013298
H  16.09309773650135610978 38.86024083723881972219 5.76722976401221387732
P  14.57693251521092392409 36.80603469764191260083 11.33404820405880641943
O  12.49132539815120424009 33.68814302199182009190 12.78978934724091409691
O  12.75795151455855247491 30.87962904348253800890 11.67749219410338135106
O  10.53165835075022727096 31.78846320262204017126 10.58644854649239341882
O  14.43235011981805726577 35.41260473994202584436 12.13529686148144648428
O  8.76860013786949465953 33.99867424070688315396 10.97247131679794129866
O  13.83983994531403993733 37.88220794476293207254 12.10220322820719829338
O  14.02292648486954895759 36.65979141429375687267 9.93434152498298850276
O  16.14346063587987956112 37.10125696067718337190 11.19962631882733994360
N  10.72798857380769987913 34.91200285261528080127 11.70618553338005796149
N  9.00159157104725693443 36.27056397401923959478 10.84815327357853398382
N  9.23755262372102237123 38.63306263545281638017 10.82383740401357030692
C  12.92418651598408807502 32.12604008142294276240 11.05118624683928274521
C  11.54126602863727235615 32.74968738426442627087 10.76865040137757922878
C  13.56791462942784676216 33.16591080474977815129 12.00938498603326287650
C  11.27098261241979670899 33.59950440257306070180 12.03705979399129688545
C  14.25737720896593785369 34.32822911423740919190 11.27024315985520885874
C  11.49594268345249403751 36.01935936185431330614 11.90152698266204467359
C  9.44311031633906949878 34.99696328404928635791 11.16635188753946650309
C  11.02632779933635909231 37.25697227639921038644 11.61921347848003804870
C  9.73874128317530640686 37.40184325281912691707 11.09608690749658066466
H  13.51955971144710311194 31.96909743707897888498 10.14211868564573570950
H  11.57486742466038087684 33.39022554840391876496 9.87413869409995470505
H  14.25142823677921199987 32.67660479723189581591 12.71823743004014239943
H  10.54709855202118795603 33.07876114909100095929 12.67837007270059856978
H  13.61786891717939163016 34.67961141011246439803 10.44311242409060369596
H  15.23384243102601587339 34.04301579999545168675 10.84708895630166836099
H  12.03766948432923555856 30.39993768933882378747 11.21221467238204816397
H  9.68109259392735310712 32.28491583708171930311 10.53109981784672299909
H  12.49245502953844422223 35.87559363567360293246 12.28107032893549543928
H  11.66268329704853279338 38.11764390022121062884 11.74294166955046847534
H  9.83176376179128652666 39.44645669020947309491 10.85824339364165247446
H  8.51296682474084143166 38.76596277758358866095 10.12290129916874548144
H  16.41543462057873625781 37.07118868707929948414 10.25901911052053705475
H  8.13072003639810603204 36.35145408205563910542 10.33759508766644863442
