162
Coordinates from ORCA-job /data/Seafile/amp/frames/frame12/amp_frame12 E -13464.403023353201
  Si      3.556250     33.844814      7.822831
  Si      3.555936     30.766814      7.822831
  O       2.147306     34.479957      8.409808
  O       2.146862     30.131958      8.409810
  O       3.710084     32.305798      8.412834
  O       3.555276     33.846813      6.166831
  O       3.554962     30.764813      6.166831
  Si      6.219466     26.151542      7.822874
  Si      8.883309     24.614270      7.822916
  O       4.810392     25.516686      8.409852
  O       7.475365     25.249414      8.409894
  O       9.038144     23.075255      8.412918
  O       6.219491     26.149542      6.166874
  O       8.883335     24.616270      6.166916
  Si      6.219780     29.229542      7.822873
  Si      6.220407     35.381542      7.822872
  Si      8.884250     33.844270      7.822914
  Si      8.883936     30.766270      7.822915
  O       4.810835     29.864686      8.409851
  O       4.811333     34.746686      8.409850
  O       7.476306     34.479414      8.409892
  O       7.475862     30.131414      8.409893
  O       6.373614     27.690526      8.412876
  O       9.039084     32.305255      8.412917
  O       6.219806     29.231542      6.166873
  O       6.220433     35.379541      6.166872
  O       8.884276     33.846270      6.166914
  O       8.883962     30.764270      6.166915
  Si      6.220721     38.459542      7.822870
  Si      8.884877     39.996270      7.822911
  O       4.811776     39.094685      8.409848
  O       7.476804     39.361414      8.409890
  O       6.374555     36.920526      8.412874
  O       9.040026     41.535254      8.412913
  O       6.220747     38.461541      6.166870
  O       8.884903     39.994269      6.166911
  Si     11.548466     26.150999      7.822957
  Si     14.213309     24.613727      7.822999
  O      10.139392     25.516142      8.409935
  O      12.804365     25.248871      8.409977
  O      14.367144     23.074712      8.413001
  O      11.548491     26.148998      6.166957
  O      14.212335     24.615727      6.166999
  Si     11.548779     29.228999      7.822957
  Si     11.549407     35.380999      7.822955
  Si     14.214250     33.843727      7.822997
  Si     14.213936     30.765727      7.822998
  O      10.139835     29.864142      8.409934
  O      10.140333     34.746142      8.409933
  O      12.805306     34.478871      8.409975
  O      12.804862     30.130871      8.409976
  O      11.702613     27.689983      8.412959
  O      14.368084     32.304711      8.413000
  O      11.548805     29.230998      6.166956
  O      11.549432     35.378998      6.166955
  O      14.213276     33.845726      6.166997
  O      14.212962     30.763727      6.166998
  Si     11.549721     38.458998      7.822954
  Si     14.214877     39.995727      7.822994
  O      10.140776     39.094142      8.409931
  O      12.805803     39.360871      8.409973
  O      11.703555     36.919983      8.412957
  O      14.369026     41.534711      8.412996
  O      11.549747     38.460998      6.166954
  O      14.213903     39.993726      6.166994
  Si     16.877465     26.150455      7.823040
  O      15.468392     25.515599      8.410018
  O      18.133364     25.248327      8.410060
  O      16.877491     26.148455      6.167040
  Si     16.877779     29.228456      7.823039
  Si     16.878407     35.380455      7.823038
  Si     19.542250     33.843184      7.823079
  Si     19.541936     30.765184      7.823080
  O      15.468835     29.863599      8.410017
  O      15.469333     34.745599      8.410016
  O      18.134305     34.478327      8.410057
  O      18.133862     30.130327      8.410059
  O      17.031613     27.689440      8.413042
  O      19.697084     32.304168      8.413082
  O      16.877805     29.230455      6.167039
  O      16.878432     35.378455      6.167038
  O      19.542275     33.845183      6.167079
  O      19.541961     30.763183      6.167080
  Si     16.878720     38.458455      7.823036
  O      15.469776     39.093599      8.410014
  O      18.134803     39.360328      8.410056
  O      17.032554     36.919440      8.413039
  O      16.878746     38.460455      6.167036
  O      20.797834     29.863055      8.410100
  O      20.798332     34.745056      8.410099
  H       4.074657     24.986772      8.036591
  H       1.410409     29.602015      8.036749
  H       1.410409     35.007985      8.036749
  H       4.074657     39.623228      8.036591
  H       8.948181     22.173255      8.038302
  H       8.948181     42.436745      8.038302
  H      14.277762     22.173204      8.038282
  H      14.277762     42.436796      8.038282
  H      18.960557     24.876228      8.036406
  H      18.960557     39.733772      8.036406
  H      21.624717     29.491420      8.036583
  H      21.624717     35.118580      8.036583
  H      13.439542     34.270339      5.769119
  H      10.797025     34.918250      5.768396
  H       8.907707     32.965946      5.764995
  H       9.659454     30.342994      5.768880
  H      12.302591     29.689123      5.768039
  H      14.185604     31.644182      5.765523
  H      13.462084     39.536038      5.764682
  H      10.785535     38.904733      5.771228
  H       8.148315     39.509945      5.767000
  H       6.233174     37.582866      5.761805
  H       5.454157     34.939085      5.771525
  H       3.605664     32.968149      5.764105
  H       4.328125     30.345447      5.763320
  H       6.212126     28.349332      5.768168
  H       7.009467     25.757597      5.767547
  H       9.640122     25.065828      5.764885
  H      12.315008     25.708539      5.771926
  H      14.953438     25.092034      5.766100
  H      16.852417     27.026538      5.761162
  H      17.646302     29.666559      5.771227
  H      19.481946     31.641589      5.764828
  H      18.773558     34.273902      5.764988
  H      16.880313     36.261007      5.768941
  H      16.093098     38.860241      5.767230
  P       9.912063     34.718610     14.238811
  O      11.220911     34.094929     14.543537
  O       8.612926     34.078200     14.574727
  O       9.872996     36.259257     14.821840
  O       9.881407     35.122130     12.590359
  C      10.856438     34.517492     11.816496
  C      10.323579     33.224704     11.185282
  O      11.304023     32.563852     10.370800
  C       9.922642     32.173946     12.208421
  O       9.041952     31.211740     11.657627
  C      11.272437     31.489487     12.512356
  O      11.104454     30.168148     12.920984
  C      11.987224     31.600016     11.131532
  N      13.394851     31.911430     11.221221
  C      14.009943     33.130793     11.209178
  N      15.308099     33.071497     11.209190
  C      15.597811     31.732264     11.208859
  C      16.787736     30.998869     11.133025
  N      18.013767     31.597294     11.091597
  N      16.720213     29.666702     11.156849
  C      15.525007     29.091242     11.205025
  N      14.337856     29.659270     11.224211
  C      14.399281     30.990568     11.217930
  H       8.972436     36.519890     14.646058
  H      11.148944     35.203491     11.010017
  H      11.718823     34.288536     12.453234
  H       9.482469     33.480032     10.535639
  H       9.443931     32.590934     13.095899
  H       9.229473     31.133690     10.713712
  H      11.815492     32.032470     13.290314
  H      10.235877     29.898061     12.574689
  H      11.939493     30.624646     10.624033
  H      13.455750     34.045388     11.180447
  H      17.993737     32.557863     10.784710
  H      18.745834     31.026357     10.699978
  H      15.533481     28.009437     11.217280
162
Coordinates from ORCA-job /data/Seafile/amp/frames/frame12/amp_frame12 E -13464.433989509949
  Si      3.535573     33.840316      7.815831
  Si      3.540422     30.757868      7.813020
  O       2.139046     34.477206      8.410158
  O       2.142494     30.127764      8.409765
  O       3.691569     32.298114      8.391405
  O       3.538607     33.848204      6.167090
  O       3.526631     30.772536      6.164509
  Si      6.211272     26.133185      7.811512
  Si      8.885380     24.597880      7.811112
  O       4.808638     25.512457      8.408196
  O       7.478996     25.241303      8.387700
  O       9.041869     23.070692      8.409929
  O       6.202033     26.128733      6.162864
  O       8.861490     24.598505      6.162484
  Si      6.209668     29.215183      7.780715
  Si      6.203689     35.382515      7.790102
  Si      8.882835     33.840236      7.761502
  Si      8.888041     30.760364      7.752273
  O       4.813174     29.863967      8.374508
  O       4.804390     34.734005      8.381307
  O       7.474797     34.479146      8.339139
  O       7.480093     30.120109      8.328514
  O       6.366554     27.679986      8.373157
  O       9.031538     32.297705      8.340238
  O       6.163948     29.205001      6.134865
  O       6.173012     35.416444      6.144196
  O       8.904602     33.848589      6.115292
  O       8.896807     30.778937      6.106253
  Si      6.205956     38.464693      7.812040
  Si      8.873404     40.012324      7.812866
  O       4.806101     39.094028      8.407393
  O       7.468369     39.360507      8.388851
  O       6.363023     36.917762      8.378056
  O       9.036639     41.538653      8.411651
  O       6.220107     38.487354      6.163443
  O       8.877517     40.020278      6.164112
  Si     11.556089     26.134370      7.786974
  Si     14.227261     24.599159      7.814255
  O      10.147495     25.506310      8.373186
  O      12.816897     25.246187      8.378909
  O      14.370057     23.070619      8.412119
  O      11.540052     26.089623      6.141015
  O      14.220307     24.600581      6.165554
  Si     11.559187     29.228351      7.763030
  Si     11.548160     35.380791      7.762650
  Si     14.215939     33.845488      7.767909
  Si     14.226050     30.768286      7.773901
  O      10.148130     29.864444      8.335900
  O      10.138460     34.741721      8.339154
  O      12.808181     34.488144      8.344951
  O      12.816693     30.126588      8.345606
  O      11.701245     27.686089      8.340617
  O      14.371930     32.309215      8.354816
  O      11.546586     29.249260      6.116919
  O      11.564316     35.364360      6.116098
  O      14.206731     33.818044      6.121357
  O      14.213126     30.754529      6.127049
  Si     11.543816     38.474805      7.784508
  Si     14.215200     40.013474      7.812729
  O      10.135844     39.106164      8.373109
  O      12.804072     39.362065      8.376034
  O      11.696021     36.923810      8.338161
  O      14.366935     41.539905      8.413065
  O      11.556625     38.520356      6.138523
  O      14.232727     40.019988      6.164095
  Si     16.893801     26.142503      7.815819
  O      15.483054     25.505326      8.389640
  O      18.139099     25.245250      8.410492
  O      16.885901     26.125504      6.167079
  Si     16.896411     29.227190      7.797930
  Si     16.892987     35.395367      7.781637
  Si     19.557749     33.851547      7.811182
  Si     19.562326     30.766893      7.810149
  O      15.480570     29.867636      8.356805
  O      15.478258     34.747529      8.333220
  O      18.140937     34.489759      8.371698
  O      18.151497     30.130362      8.381183
  O      17.035174     27.689213      8.385226
  O      19.703397     32.310106      8.390312
  O      16.919349     29.200596      6.151432
  O      16.943395     35.401979      6.135597
  O      19.574674     33.832903      6.162716
  O      19.563974     30.757352      6.161349
  Si     16.886359     38.478444      7.810890
  O      15.472368     39.110044      8.385891
  O      18.137595     39.366106      8.408686
  O      17.030745     36.931912      8.376260
  O      16.887993     38.475945      6.162206
  O      20.801589     29.862095      8.406448
  O      20.802156     34.749315      8.407907
  H       4.074658     24.986772      8.036591
  H       1.410409     29.602015      8.036749
  H       1.410409     35.007985      8.036749
  H       4.074657     39.623228      8.036591
  H       8.948181     22.173255      8.038302
  H       8.948181     42.436745      8.038302
  H      14.277762     22.173204      8.038282
  H      14.277762     42.436796      8.038282
  H      18.960557     24.876228      8.036406
  H      18.960556     39.733772      8.036406
  H      21.624717     29.491420      8.036583
  H      21.624717     35.118580      8.036583
  H      13.432517     34.234026      5.718429
  H      10.820723     34.896483      5.712367
  H       8.931366     32.972357      5.707628
  H       9.673595     30.366242      5.704622
  H      12.295710     29.711630      5.716246
  H      14.176178     31.628791      5.717163
  H      13.487334     39.562522      5.750535
  H      10.798397     38.978547      5.748508
  H       8.143013     39.537869      5.758910
  H       6.232345     37.615221      5.746164
  H       5.402378     34.982244      5.752266
  H       3.588386     32.971865      5.760475
  H       4.295938     30.358035      5.749935
  H       6.143323     28.320651      5.742398
  H       6.989434     25.736946      5.759143
  H       9.612934     25.044690      5.748189
  H      12.302396     25.640442      5.749113
  H      14.963042     25.071371      5.761615
  H      16.859838     26.999202      5.753010
  H      17.693726     29.627144      5.758201
  H      19.499838     31.632942      5.754388
  H      18.810926     34.255651      5.746471
  H      16.952288     36.285532      5.741292
  H      16.103514     38.875734      5.760465
  P       9.838921     35.014438     14.165807
  O      11.111102     34.404134     14.617631
  O       8.510379     34.446869     14.517974
  O       9.832449     36.602048     14.581150
  O       9.888823     35.208392     12.492432
  C      10.861127     34.520391     11.746535
  C      10.317931     33.221934     11.128229
  O      11.301838     32.562167     10.316971
  C       9.915196     32.163258     12.137545
  O       9.033056     31.201225     11.583874
  C      11.259659     31.481873     12.443287
  O      11.097563     30.155821     12.851162
  C      11.982749     31.600164     11.076851
  N      13.392467     31.917959     11.168046
  C      14.000042     33.142243     11.155585
  N      15.300690     33.083920     11.160812
  C      15.587765     31.741662     11.164485
  C      16.780047     31.012467     11.099144
  N      17.998307     31.613264     11.061170
  N      16.715126     29.678074     11.121817
  C      15.518093     29.096810     11.162725
  N      14.327706     29.667562     11.176330
  C      14.400210     30.997893     11.169632
  H       8.943766     36.902552     14.354151
  H      11.172334     35.169005     10.923117
  H      11.723316     34.298557     12.380649
  H       9.480514     33.473539     10.472601
  H       9.430704     32.564609     13.024536
  H       9.223094     31.122229     10.642117
  H      11.798580     32.027978     13.218992
  H      10.239696     29.879984     12.489014
  H      11.939803     30.631866     10.563326
  H      13.437662     34.056454     11.121666
  H      17.986808     32.573362     10.751583
  H      18.736213     31.043088     10.679686
  H      15.527263     28.010946     11.174665
162
Coordinates from ORCA-job /data/Seafile/amp/frames/frame12/amp_frame12 E -13464.456958173803
  Si      3.514059     33.836881      7.814520
  Si      3.523335     30.748858      7.808131
  O       2.131257     34.472460      8.414577
  O       2.138403     30.126324      8.413395
  O       3.669640     32.290938      8.370191
  O       3.525110     33.851795      6.175241
  O       3.500974     30.780465      6.169439
  Si      6.200867     26.115516      7.806122
  Si      8.886675     24.580301      7.803594
  O       4.807528     25.508883      8.410939
  O       7.480477     25.231927      8.364275
  O       9.045008     23.067922      8.410153
  O       6.182601     26.112268      6.167058
  O       8.838742     24.584798      6.164854
  Si      6.200371     29.201437      7.748283
  Si      6.189118     35.382826      7.767570
  Si      8.883671     33.836455      7.714300
  Si      8.892452     30.754254      7.696628
  O       4.814132     29.863244      8.340623
  O       4.798501     34.720402      8.355517
  O       7.474645     34.478757      8.275580
  O       7.484906     30.106809      8.255173
  O       6.358265     27.669709      8.337394
  O       9.024242     32.290123      8.279625
  O       6.112442     29.182398      6.116395
  O       6.131218     35.451649      6.135620
  O       8.930533     33.851904      6.081245
  O       8.909689     30.794847      6.064137
  Si      6.190743     38.470183      7.803172
  Si      8.863254     40.030520      7.806282
  O       4.802795     39.092601      8.407110
  O       7.460105     39.361153      8.364099
  O       6.351481     36.916255      8.344742
  O       9.033407     41.540969      8.413521
  O       6.224915     38.511296      6.164636
  O       8.874683     40.047940      6.167015
  Si     11.563228     26.117638      7.760434
  Si     14.240317     24.582902      7.809470
  O      10.155113     25.493798      8.339234
  O      12.828559     25.241526      8.349830
  O      14.373052     23.067731      8.413708
  O      11.529862     26.036507      6.128128
  O      14.223712     24.587524      6.170299
  Si     11.569145     29.226197      7.717398
  Si     11.547670     35.381557      7.718575
  Si     14.217536     33.847341      7.727018
  Si     14.237414     30.770957      7.736610
  O      10.155515     29.863187      8.274287
  O      10.137639     34.738021      8.282169
  O      12.811748     34.498291      8.292512
  O      12.828105     30.120998      8.291280
  O      11.698538     27.680422      8.274855
  O      14.376143     32.313138      8.306635
  O      11.541153     29.265539      6.084326
  O      11.581273     35.352380      6.084494
  O      14.199327     33.789615      6.093147
  O      14.209215     30.744030      6.101970
  Si     11.538196     38.490588      7.753256
  Si     14.215793     40.033093      7.805573
  O      10.131536     39.119706      8.337470
  O      12.802513     39.365701      8.341816
  O      11.686229     36.929971      8.270052
  O      14.365595     41.543463      8.416331
  O      11.564152     38.573529      6.120840
  O      14.249614     40.047275      6.166569
  Si     16.910608     26.133555      7.810649
  O      15.497942     25.493109      8.367454
  O      18.142057     25.242496      8.413583
  O      16.892280     26.103097      6.171443
  Si     16.914907     29.227120      7.777585
  Si     16.908168     35.409372      7.746914
  Si     19.574756     33.860054      7.802710
  Si     19.584219     30.767352      7.798366
  O      15.493439     29.872573      8.308300
  O      15.490335     34.747322      8.259678
  O      18.149449     34.500877      8.334837
  O      18.170492     30.129836      8.352771
  O      17.038488     27.688485      8.353856
  O      19.710847     32.314833      8.364512
  O      16.958593     29.173028      6.143814
  O      17.009037     35.422650      6.115084
  O      19.607922     33.820193      6.164375
  O      19.586931     30.750083      6.159202
  Si     16.895004     38.498911      7.800404
  O      15.475956     39.127535      8.358940
  O      18.138167     39.370779      8.409726
  O      17.029075     36.944678      8.337815
  O      16.895429     38.488433      6.161261
  O      20.802929     29.860816      8.404431
  O      20.804044     34.752719      8.409341
  H       4.074658     24.986772      8.036591
  H       1.410409     29.602015      8.036749
  H       1.410409     35.007985      8.036749
  H       4.074657     39.623228      8.036591
  H       8.948181     22.173255      8.038302
  H       8.948181     42.436745      8.038302
  H      14.277762     22.173204      8.038282
  H      14.277762     42.436796      8.038282
  H      18.960557     24.876228      8.036406
  H      18.960556     39.733772      8.036406
  H      21.624717     29.491420      8.036583
  H      21.624717     35.118580      8.036583
  H      13.426535     34.198358      5.682265
  H      10.847241     34.880218      5.670984
  H       8.959350     32.981173      5.663999
  H       9.685862     30.390608      5.655066
  H      12.285399     29.729494      5.677973
  H      14.163697     31.610857      5.679718
  H      13.509014     39.592003      5.742381
  H      10.810924     39.042413      5.733773
  H       8.142806     39.567873      5.754687
  H       6.235532     37.645543      5.735140
  H       5.358740     35.021635      5.743731
  H       3.573729     32.978007      5.763539
  H       4.265615     30.368952      5.744393
  H       6.080393     28.297257      5.726889
  H       6.966872     25.720727      5.757508
  H       9.585740     25.026387      5.738657
  H      12.288336     25.582276      5.735219
  H      14.967603     25.052903      5.762299
  H      16.866793     26.972905      5.749523
  H      17.737160     29.591514      5.750836
  H      19.519884     31.622873      5.746944
  H      18.851053     34.239100      5.733027
  H      17.022277     36.306323      5.721781
  H      16.111856     38.888692      5.757975
  P       9.742815     35.004582     14.071728
  O      10.992221     34.387301     14.578635
  O       8.401665     34.433055     14.367205
  O       9.745734     36.576094     14.508386
  O       9.857532     35.182509     12.426159
  C      10.850237     34.501393     11.689861
  C      10.310958     33.212843     11.074045
  O      11.300770     32.560780     10.267741
  C       9.908923     32.157549     12.078239
  O       9.022634     31.194619     11.528085
  C      11.250240     31.480013     12.385071
  O      11.092334     30.153560     12.800059
  C      11.980359     31.599473     11.028169
  N      13.392139     31.922015     11.121712
  C      13.993710     33.149872     11.109757
  N      15.296633     33.092893     11.118829
  C      15.581229     31.748541     11.124185
  C      16.777012     31.024403     11.065082
  N      17.987191     31.627071     11.028885
  N      16.714593     29.688015     11.085923
  C      15.516702     29.101704     11.121016
  N      14.322584     29.673228     11.131240
  C      14.404854     31.002860     11.126272
  H       8.876099     36.932008     14.271671
  H      11.164529     35.153308     10.873167
  H      11.710479     34.287873     12.327969
  H       9.475605     33.462646     10.417813
  H       9.425461     32.559486     12.967160
  H       9.210782     31.110109     10.585140
  H      11.789819     32.030538     13.157365
  H      10.240007     29.874062     12.430343
  H      11.941438     30.635829     10.511545
  H      13.425449     34.062224     11.072152
  H      17.984972     32.587125     10.718592
  H      18.731177     31.058558     10.657162
  H      15.527502     28.014306     11.131117
162
Coordinates from ORCA-job /data/Seafile/amp/frames/frame12/amp_frame12 E -13464.468800973942
  Si      3.497194     33.835935      7.805976
  Si      3.508606     30.743912      7.798536
  O       2.128097     34.470195      8.417219
  O       2.135689     30.128491      8.415975
  O       3.651646     32.288196      8.343636
  O       3.510274     33.855047      6.172573
  O       3.478012     30.784813      6.166101
  Si      6.190543     26.102703      7.796068
  Si      8.885494     24.566465      7.791867
  O       4.806176     25.508993      8.412370
  O       7.480693     25.229078      8.336737
  O       9.045912     23.068130      8.409884
  O       6.164416     26.096692      6.163077
  O       8.819692     24.571771      6.159677
  Si      6.189686     29.190679      7.712997
  Si      6.176002     35.386309      7.734633
  Si      8.883025     33.834575      7.661257
  Si      8.892355     30.749664      7.638548
  O       4.815070     29.868280      8.303777
  O       4.796771     34.709905      8.321455
  O       7.474768     34.484659      8.203008
  O       7.486071     30.095476      8.178816
  O       6.348445     27.663776      8.299414
  O       9.010418     32.285487      8.215129
  O       6.067923     29.160777      6.090765
  O       6.090272     35.482584      6.112517
  O       8.953630     33.850008      6.037146
  O       8.920054     30.805461      6.015306
  Si      6.179687     38.477150      7.789156
  Si      8.857227     40.046166      7.795540
  O       4.802614     39.091077      8.405586
  O       7.457849     39.360494      8.335134
  O       6.341898     36.916868      8.304320
  O       9.033437     41.541809      8.414314
  O       6.225683     38.533139      6.157469
  O       8.871007     40.073439      6.162338
  Si     11.566771     26.103411      7.728390
  Si     14.249246     24.568921      7.801892
  O      10.159403     25.483513      8.301172
  O      12.836359     25.241730      8.317217
  O      14.374045     23.066004      8.415672
  O      11.523531     25.987631      6.105612
  O      14.227713     24.573965      6.168664
  Si     11.572783     29.224719      7.667767
  Si     11.547046     35.383061      7.670540
  Si     14.217257     33.847378      7.681928
  Si     14.243543     30.771499      7.695344
  O      10.157340     29.864407      8.211052
  O      10.136884     34.735628      8.221092
  O      12.816483     34.509862      8.237079
  O      12.834935     30.111391      8.234090
  O      11.690129     27.675730      8.203222
  O      14.375424     32.314004      8.254472
  O      11.537558     29.281763      6.042959
  O      11.591370     35.342757      6.044537
  O      14.186299     33.766959      6.056409
  O      14.204175     30.739900      6.068737
  Si     11.534836     38.504222      7.719582
  Si     14.217789     40.048715      7.794837
  O      10.131042     39.131156      8.299891
  O      12.805232     39.364746      8.305646
  O      11.676188     36.935387      8.198455
  O      14.366761     41.544647      8.418399
  O      11.567371     38.618374      6.096363
  O      14.262376     40.069665      6.161921
  Si     16.922628     26.124958      7.802530
  O      15.508244     25.480893      8.342785
  O      18.141551     25.239202      8.416252
  O      16.899154     26.084792      6.169367
  Si     16.928536     29.225463      7.754102
  Si     16.920533     35.418997      7.710183
  Si     19.588309     33.865111      7.789840
  Si     19.601001     30.765030      7.783608
  O      15.502286     29.877014      8.254233
  O      15.500774     34.742368      8.182175
  O      18.156217     34.507570      8.295453
  O      18.183883     30.126245      8.321182
  O      17.035315     27.686185      8.320301
  O      19.712893     32.315760      8.334668
  O      16.993186     29.151097      6.128776
  O      17.063513     35.443531      6.088799
  O      19.633447     33.810896      6.158193
  O      19.608632     30.743292      6.151010
  Si     16.902644     38.513793      7.788250
  O      15.480767     39.141836      8.329861
  O      18.137936     39.371850      8.411231
  O      17.023922     36.951534      8.298243
  O      16.904824     38.501242      6.155097
  O      20.801530     29.858309      8.402288
  O      20.803397     34.753376      8.410098
  H       4.074658     24.986772      8.036591
  H       1.410409     29.602015      8.036749
  H       1.410409     35.007985      8.036749
  H       4.074657     39.623228      8.036591
  H       8.948181     22.173255      8.038302
  H       8.948181     42.436745      8.038302
  H      14.277762     22.173204      8.038282
  H      14.277762     42.436796      8.038282
  H      18.960557     24.876228      8.036406
  H      18.960556     39.733772      8.036406
  H      21.624717     29.491420      8.036583
  H      21.624717     35.118580      8.036583
  H      13.418439     34.178552      5.638515
  H      10.861502     34.871665      5.621654
  H       8.975997     32.982543      5.611882
  H       9.694926     30.403808      5.599954
  H      12.283958     29.738764      5.632272
  H      14.156827     31.602461      5.636791
  H      13.523154     39.620576      5.729105
  H      10.815974     39.091584      5.711473
  H       8.139750     39.597166      5.744709
  H       6.225283     37.672746      5.716953
  H       5.319338     35.049187      5.720889
  H       3.551320     32.982645      5.756898
  H       4.235119     30.369052      5.731817
  H       6.029632     28.275058      5.703139
  H       6.944851     25.702625      5.748766
  H       9.567401     25.001700      5.722883
  H      12.282777     25.535235      5.712223
  H      14.974918     25.030626      5.757178
  H      16.880403     26.951496      5.740908
  H      17.773165     29.566838      5.735724
  H      19.543795     31.614237      5.734576
  H      18.886833     34.235554      5.714724
  H      17.073567     36.327685      5.696546
  H      16.126226     38.908522      5.749558
  P       9.640180     35.066422     13.949825
  O      10.869574     34.463937     14.525783
  O       8.291103     34.495508     14.214556
  O       9.643024     36.635975     14.359852
  O       9.811407     35.186663     12.327234
  C      10.827940     34.497434     11.629912
  C      10.297242     33.208104     11.019822
  O      11.295443     32.561121     10.219396
  C       9.895846     32.151776     12.021476
  O       9.008429     31.189399     11.469849
  C      11.235940     31.477621     12.332075
  O      11.081800     30.152123     12.754056
  C      11.972645     31.598718     10.981011
  N      13.384299     31.924678     11.076576
  C      13.982697     33.154402     11.064647
  N      15.287681     33.099084     11.077401
  C      15.570892     31.754501     11.084781
  C      16.770181     31.033806     11.032290
  N      17.976677     31.637431     10.996263
  N      16.708570     29.696592     11.050456
  C      15.511449     29.107586     11.080637
  N      14.314591     29.676755     11.088939
  C      14.400754     31.006616     11.084905
  H       8.795840     37.028365     14.111214
  H      11.164115     35.142009     10.815004
  H      11.669310     34.297233     12.296783
  H       9.463846     33.452346     10.360653
  H       9.410298     32.551579     12.910166
  H       9.196830     31.101895     10.526967
  H      11.773407     32.032157     13.103515
  H      10.236158     29.865721     12.373519
  H      11.937421     30.638448     10.460013
  H      13.410039     34.065264     11.021911
  H      17.984742     32.597666     10.687132
  H      18.726851     31.069372     10.635452
  H      15.524704     28.020902     11.088639
162
Coordinates from ORCA-job /data/Seafile/amp/frames/frame12/amp_frame12 E -13464.476853319258
  Si      3.485670     33.838494      7.794368
  Si      3.495513     30.743594      7.787916
  O       2.129901     34.476083      8.419963
  O       2.131450     30.132269      8.417975
  O       3.634898     32.290247      8.318408
  O       3.495964     33.860234      6.162447
  O       3.458119     30.786305      6.157288
  Si      6.180470     26.094732      7.784767
  Si      8.881020     24.555944      7.780079
  O       4.802620     25.511308      8.413225
  O       7.480216     25.233759      8.311527
  O       9.040417     23.067918      8.410979
  O       6.148540     26.084037      6.153553
  O       8.805126     24.558971      6.150020
  Si      6.176200     29.183311      7.682329
  Si      6.164027     35.394479      7.698964
  Si      8.880035     33.834548      7.613366
  Si      8.886422     30.747735      7.589969
  O       4.815562     29.881645      8.272423
  O       4.799620     34.701291      8.287869
  O       7.475930     34.500872      8.132947
  O       7.482528     30.084926      8.111442
  O       6.333214     27.661402      8.267300
  O       8.983521     32.284419      8.160844
  O       6.030773     29.142623      6.063781
  O       6.051947     35.509737      6.081119
  O       8.973834     33.840575      5.992757
  O       8.928803     30.813875      5.970283
  Si      6.172973     38.486904      7.775861
  Si      8.855635     40.058823      7.784403
  O       4.804941     39.095417      8.405796
  O       7.462282     39.358273      8.309380
  O       6.331271     36.921357      8.266786
  O       9.036931     41.543561      8.414895
  O       6.220843     38.552437      6.146512
  O       8.867411     40.094076      6.153001
  Si     11.565499     26.092090      7.697220
  Si     14.253055     24.558427      7.793955
  O      10.160507     25.472681      8.267178
  O      12.842340     25.250667      8.288201
  O      14.369801     23.064332      8.419132
  O      11.519711     25.944278      6.078615
  O      14.229643     24.561037      6.162229
  Si     11.568052     29.225559      7.623849
  Si     11.545665     35.384534      7.626538
  Si     14.214623     33.846311      7.637493
  Si     14.242361     30.770484      7.653118
  O      10.154717     29.872797      8.160263
  O      10.137007     34.732032      8.167522
  O      12.825290     34.527868      8.188253
  O      12.839191     30.095246      8.183317
  O      11.671636     27.672453      8.135810
  O      14.366533     32.312426      8.203419
  O      11.530215     29.302900      6.001657
  O      11.592539     35.328684      6.003179
  O      14.163401     33.750074      6.014969
  O      14.189840     30.746472      6.029201
  Si     11.534771     38.516269      7.689295
  Si     14.222765     40.059961      7.783791
  O      10.136151     39.143872      8.268057
  O      12.815692     39.356056      8.274700
  O      11.665025     36.940257      8.131821
  O      14.370847     41.546101      8.419659
  O      11.569002     38.655672      6.069562
  O      14.273100     40.086082      6.152655
  Si     16.929982     26.116024      7.793138
  O      15.515603     25.466406      8.320271
  O      18.140766     25.234705      8.418408
  O      16.907147     26.068962      6.161693
  Si     16.936583     29.220856      7.728987
  Si     16.930969     35.423679      7.676769
  Si     19.599151     33.866360      7.777155
  Si     19.611629     30.760003      7.769870
  O      15.506838     29.881751      8.195834
  O      15.510764     34.731110      8.108341
  O      18.163368     34.511886      8.261221
  O      18.191389     30.117680      8.290160
  O      17.022991     27.681583      8.289592
  O      19.708199     32.312870      8.307878
  O      17.022787     29.132048      6.106697
  O      17.106400     35.462402      6.060345
  O      19.650252     33.804867      6.147706
  O      19.626836     30.737430      6.139726
  Si     16.910789     38.521838      7.777984
  O      15.490296     39.155944      8.304959
  O      18.142656     39.366132      8.414772
  O      17.013580     36.952286      8.264991
  O      16.919199     38.511616      6.146386
  O      20.799157     29.853001      8.400985
  O      20.805650     34.749404      8.411706
  H       4.074657     24.986772      8.036591
  H       1.410409     29.602015      8.036749
  H       1.410409     35.007985      8.036749
  H       4.074657     39.623228      8.036591
  H       8.948181     22.173255      8.038302
  H       8.948181     42.436745      8.038302
  H      14.277762     22.173204      8.038282
  H      14.277762     42.436796      8.038282
  H      18.960557     24.876228      8.036406
  H      18.960556     39.733772      8.036406
  H      21.624717     29.491420      8.036583
  H      21.624717     35.118580      8.036583
  H      13.410956     34.187336      5.594509
  H      10.856294     34.869830      5.577076
  H       8.966846     32.974057      5.564483
  H       9.697915     30.402176      5.553137
  H      12.291694     29.732987      5.589132
  H      14.154836     31.609820      5.596176
  H      13.526578     39.655925      5.713811
  H      10.812151     39.119613      5.685267
  H       8.132802     39.625480      5.733071
  H       6.179864     37.697163      5.697988
  H       5.294730     35.052866      5.689531
  H       3.511095     32.988383      5.744125
  H       4.198722     30.348177      5.716773
  H       6.002365     28.256901      5.676125
  H       6.922666     25.681009      5.736480
  H       9.566814     24.954899      5.705488
  H      12.291118     25.513690      5.685048
  H      14.985732     24.999294      5.747653
  H      16.912381     26.933139      5.728156
  H      17.796054     29.559542      5.713706
  H      19.575238     31.607903      5.721079
  H      18.927023     34.261226      5.697058
  H      17.091570     36.346180      5.668045
  H      16.155847     38.942300      5.737000
  P       9.463027     35.177440     13.792357
  O      10.635614     34.567617     14.475573
  O       8.085313     34.650058     14.001515
  O       9.494986     36.754282     14.148368
  O       9.733504     35.215418     12.192984
  C      10.787186     34.501108     11.582632
  C      10.273965     33.203987     10.981502
  O      11.284586     32.563462     10.190646
  C       9.875606     32.148488     11.985543
  O       8.987073     31.187187     11.434024
  C      11.216377     31.478672     12.300667
  O      11.069377     30.156729     12.735287
  C      11.957316     31.597762     10.952748
  N      13.368467     31.925323     11.049225
  C      13.964876     33.156487     11.036954
  N      15.271425     33.102806     11.052400
  C      15.555256     31.758639     11.061502
  C      16.757625     31.040021     11.015420
  N      17.963074     31.643674     10.977534
  N      16.696212     29.702541     11.030210
  C      15.500261     29.111845     11.057861
  N      14.301423     29.677824     11.067441
  C      14.387309     31.008244     11.062164
  H       8.681817     37.190180     13.867030
  H      11.177609     35.119488     10.770791
  H      11.582731     34.318930     12.308369
  H       9.441703     33.436237     10.317737
  H       9.388969     32.549840     12.873349
  H       9.176584     31.094345     10.491533
  H      11.752159     32.039945     13.069009
  H      10.238438     29.852680     12.336696
  H      11.922876     30.639528     10.429421
  H      13.388029     34.065889     10.987837
  H      17.981819     32.604409     10.671163
  H      18.719022     31.075038     10.629522
  H      15.515965     28.025366     11.063266
162
Coordinates from ORCA-job /data/Seafile/amp/frames/frame12/amp_frame12 E -13464.483636481249
  Si      3.481035     33.843434      7.789867
  Si      3.486467     30.746824      7.784698
  O       2.135940     34.490328      8.426554
  O       2.127178     30.134082      8.423389
  O       3.619107     32.295360      8.305755
  O       3.490532     33.866614      6.155874
  O       3.445783     30.788229      6.152350
  Si      6.172495     26.092067      7.778410
  Si      8.874829     24.549817      7.774898
  O       4.797679     25.514564      8.416206
  O       7.479775     25.244199      8.295771
  O       9.028425     23.066618      8.416303
  O       6.138846     26.078094      6.145420
  O       8.796419     24.550627      6.143315
  Si      6.163273     29.180080      7.666850
  Si      6.155481     35.404553      7.678483
  Si      8.876811     33.835325      7.589149
  Si      8.879086     30.748889      7.566557
  O       4.817857     29.901641      8.257012
  O       4.806921     34.693038      8.270249
  O       7.479573     34.523181      8.085753
  O       7.478052     30.075280      8.067655
  O       6.314943     27.662143      8.250586
  O       8.948301     32.286110      8.134834
  O       6.002365     29.130896      6.046820
  O       6.021652     35.531594      6.060049
  O       8.993296     33.826988      5.967594
  O       8.940378     30.824628      5.945747
  Si      6.170990     38.496341      7.772337
  Si      8.857644     40.066656      7.780013
  O       4.809213     39.106199      8.411768
  O       7.471385     39.354273      8.295708
  O       6.320631     36.927975      8.247763
  O       9.042037     41.546370      8.418372
  O       6.216147     38.563734      6.141505
  O       8.865588     40.104258      6.146818
  Si     11.560544     26.084167      7.679060
  Si     14.251842     24.552525      7.791287
  O      10.159395     25.461845      8.248479
  O      12.847189     25.266249      8.272619
  O      14.359978     23.062279      8.425702
  O      11.516589     25.910105      6.060002
  O      14.226688     24.553454      6.157422
  Si     11.558463     29.228294      7.600863
  Si     11.544167     35.384792      7.604224
  Si     14.210398     33.845723      7.612008
  Si     14.234778     30.769621      7.624527
  O      10.151382     29.886654      8.137679
  O      10.139012     34.725922      8.140347
  O      12.838309     34.552272      8.165083
  O      12.843264     30.073864      8.155136
  O      11.646808     27.670291      8.088333
  O      14.350872     32.310029      8.170197
  O      11.518425     29.328814      5.976956
  O      11.589063     35.306179      5.979297
  O      14.134386     33.739773      5.988196
  O      14.162779     30.763706      5.999162
  Si     11.537323     38.525353      7.674233
  Si     14.229276     40.065587      7.780259
  O      10.145571     39.157380      8.252904
  O      12.831860     39.340344      8.259423
  O      11.653224     36.944025      8.086801
  O      14.375121     41.548414      8.423760
  O      11.571316     38.682990      6.053065
  O      14.281362     40.093043      6.147460
  Si     16.932284     26.108196      7.788913
  O      15.520627     25.450112      8.307705
  O      18.141251     25.230870      8.423141
  O      16.913210     26.057086      6.155737
  Si     16.939342     29.214290      7.711338
  Si     16.939394     35.423535      7.662373
  Si     19.606110     33.864187      7.774570
  Si     19.615665     30.753994      7.764691
  O      15.508363     29.887643      8.145669
  O      15.520287     34.715493      8.058325
  O      18.171171     34.514963      8.247264
  O      18.193892     30.104885      8.269306
  O      17.002752     27.675928      8.270709
  O      19.698655     32.307307      8.294429
  O      17.046003     29.114964      6.087575
  O      17.136910     35.474224      6.045748
  O      19.654331     33.800319      6.143574
  O      19.636847     30.735092      6.133366
  Si     16.917792     38.522380      7.777187
  O      15.503303     39.169557      8.293747
  O      18.152491     39.354177      8.422866
  O      16.999016     36.948505      8.251011
  O      16.932255     38.512025      6.143524
  O      20.797215     29.845637      8.403595
  O      20.812841     34.740194      8.418520
  H       4.074657     24.986772      8.036591
  H       1.410409     29.602015      8.036749
  H       1.410409     35.007985      8.036749
  H       4.074657     39.623228      8.036591
  H       8.948181     22.173255      8.038302
  H       8.948181     42.436745      8.038302
  H      14.277762     22.173204      8.038282
  H      14.277762     42.436796      8.038282
  H      18.960557     24.876228      8.036406
  H      18.960557     39.733772      8.036406
  H      21.624717     29.491420      8.036583
  H      21.624717     35.118580      8.036583
  H      13.401937     34.212761      5.570160
  H      10.841854     34.860521      5.557378
  H       8.946031     32.960782      5.540601
  H       9.703772     30.398394      5.531795
  H      12.297803     29.726948      5.565160
  H      14.143581     31.632665      5.574913
  H      13.522480     39.688280      5.706099
  H      10.804143     39.127436      5.667367
  H       8.126171     39.642882      5.727776
  H       6.118032     37.714199      5.690664
  H       5.287508     35.039077      5.667886
  H       3.469811     32.995494      5.736531
  H       4.167125     30.321150      5.709603
  H       5.997163     28.246005      5.657290
  H       6.906863     25.664134      5.728138
  H       9.579671     24.898454      5.695870
  H      12.306053     25.514282      5.666148
  H      14.993381     24.970183      5.740693
  H      16.951805     26.919032      5.719567
  H      17.805414     29.566018      5.694692
  H      19.602424     31.606585      5.715551
  H      18.961807     34.302096      5.692564
  H      17.083460     36.355343      5.651296
  H      16.187832     38.970234      5.729921
  P       9.260054     35.265929     13.653385
  O      10.342037     34.609038     14.439276
  O       7.843235     34.818586     13.776686
  O       9.358509     36.844816     13.978857
  O       9.643372     35.239833     12.080272
  C      10.734876     34.506764     11.568651
  C      10.246470     33.197593     10.976417
  O      11.271740     32.566597     10.196921
  C       9.853405     32.143606     11.985464
  O       8.967419     31.178666     11.438215
  C      11.197500     31.484270     12.306303
  O      11.063565     30.169721     12.763508
  C      11.938055     31.595098     10.957708
  N      13.349068     31.921533     11.053329
  C      13.943100     33.154078     11.042216
  N      15.250283     33.102548     11.057717
  C      15.536889     31.759045     11.066220
  C      16.741371     31.041756     11.022465
  N      17.946762     31.644584     10.983602
  N      16.680635     29.704267     11.033233
  C      15.486169     29.111983     11.060856
  N      14.286268     29.674862     11.075170
  C      14.369120     31.005841     11.068762
  H       8.590784     37.334795     13.664155
  H      11.182873     35.096405     10.764674
  H      11.478393     34.347557     12.353283
  H       9.414312     33.414067     10.307285
  H       9.366862     32.548343     12.871843
  H       9.157654     31.078454     10.496809
  H      11.731338     32.059395     13.065989
  H      10.253056     29.836071     12.347969
  H      11.899880     30.636594     10.435527
  H      13.361487     34.061312     10.989354
  H      17.974869     32.606414     10.682824
  H      18.708251     31.075219     10.649329
  H      15.504090     28.025495     11.062116
162
Coordinates from ORCA-job /data/Seafile/amp/frames/frame12/amp_frame12 E -13464.488567843369
  Si      3.482610     33.849172      7.791914
  Si      3.482244     30.751649      7.788298
  O       2.145398     34.510526      8.435264
  O       2.124981     30.131801      8.431645
  O       3.605771     32.301426      8.305716
  O       3.492960     33.872904      6.154131
  O       3.439538     30.790290      6.152596
  Si      6.167655     26.093990      7.778078
  Si      8.868490     24.547869      7.777147
  O       4.792776     25.517499      8.421252
  O       7.479673     25.256830      8.291507
  O       9.012230     23.064347      8.425074
  O       6.135404     26.078475      6.141578
  O       8.792142     24.546692      6.142265
  Si      6.153842     29.180737      7.665812
  Si      6.151880     35.413662      7.672704
  Si      8.875625     33.835906      7.583681
  Si      8.874116     30.751666      7.565798
  O       4.822441     29.923630      8.257238
  O       4.817308     34.685237      8.268424
  O       7.486222     34.545089      8.061417
  O       7.475801     30.067564      8.049047
  O       6.297803     27.665271      8.249619
  O       8.914361     32.289504      8.132709
  O       5.982872     29.125843      6.041665
  O       6.001707     35.548023      6.051171
  O       9.011107     33.814141      5.958686
  O       8.953104     30.833569      5.941163
  Si      6.172818     38.503464      7.776093
  Si      8.861928     40.069547      7.780712
  O       4.814632     39.120437      8.421051
  O       7.481819     39.349449      8.293035
  O       6.312413     36.934309      8.246112
  O       9.047072     41.549211      8.423594
  O       6.214018     38.569362      6.141878
  O       8.865940     40.106468      6.143969
  Si     11.553732     26.079187      7.676071
  Si     14.247084     24.550998      7.794017
  O      10.157225     25.452236      8.247340
  O      12.850988     25.283790      8.271992
  O      14.345659     23.060071      8.434053
  O      11.512346     25.886663      6.053989
  O      14.219553     24.550623      6.156247
  Si     11.548496     29.230856      7.598574
  Si     11.543791     35.383603      7.599311
  Si     14.206646     33.845243      7.603498
  Si     14.224396     30.768437      7.610941
  O      10.150316     29.901810      8.141171
  O      10.143451     34.717575      8.134886
  O      12.853651     34.578405      8.163297
  O      12.848793     30.050548      8.150083
  O      11.622049     27.668669      8.065727
  O      14.333219     32.307620      8.155267
  O      11.503807     29.351187      5.970720
  O      11.586068     35.281112      5.970787
  O      14.107877     33.731996      5.976329
  O      14.129246     30.781976      5.982284
  Si     11.541252     38.530677      7.671286
  Si     14.235394     40.066139      7.782391
  O      10.156557     39.169133      8.252011
  O      12.849185     39.321123      8.257515
  O      11.642786     36.945757      8.063339
  O      14.376271     41.550703      8.429890
  O      11.575336     38.701348      6.046234
  O      14.286804     40.094501      6.146415
  Si     16.930569     26.102351      7.790523
  O      15.523825     25.434379      8.306471
  O      18.143955     25.230091      8.430509
  O      16.916865     26.048130      6.154053
  Si     16.939033     29.206885      7.701805
  Si     16.946434     35.419856      7.663652
  Si     19.609688     33.859835      7.780166
  Si     19.614868     30.748867      7.766741
  O      15.508987     29.893933      8.108525
  O      15.528802     34.699045      8.032982
  O      18.178860     34.517330      8.251596
  O      18.193446     30.090896      8.259583
  O      16.979693     27.670803      8.265189
  O      19.688187     32.301247      8.293978
  O      17.063038     29.097987      6.074404
  O      17.159049     35.478259      6.043898
  O      19.651472     33.796200      6.145843
  O      19.639825     30.735621      6.132125
  Si     16.922580     38.517264      7.782570
  O      15.516638     39.180861      8.293975
  O      18.165206     39.337674      8.432784
  O      16.983462     36.942235      8.253521
  O      16.942336     38.504436      6.145077
  O      20.796581     29.838873      8.409152
  O      20.823577     34.727204      8.428591
  H       4.074657     24.986772      8.036591
  H       1.410409     29.602015      8.036749
  H       1.410409     35.007985      8.036749
  H       4.074657     39.623228      8.036591
  H       8.948181     22.173255      8.038302
  H       8.948181     42.436745      8.038302
  H      14.277762     22.173204      8.038282
  H      14.277762     42.436796      8.038282
  H      18.960557     24.876228      8.036406
  H      18.960557     39.733772      8.036406
  H      21.624717     29.491420      8.036583
  H      21.624717     35.118580      8.036583
  H      13.385665     34.227474      5.565429
  H      10.828689     34.842180      5.558816
  H       8.935111     32.946787      5.537374
  H       9.714955     30.395787      5.535354
  H      12.294154     29.730894      5.561737
  H      14.117564     31.659108      5.573263
  H      13.514662     39.715265      5.705311
  H      10.796553     39.123347      5.659126
  H       8.121735     39.650405      5.727727
  H       6.072212     37.724539      5.693430
  H       5.288953     35.023984      5.660208
  H       3.438393     33.002998      5.735432
  H       4.145577     30.299157      5.710909
  H       6.005840     28.242127      5.650685
  H       6.899517     25.655492      5.726322
  H       9.595038     24.849223      5.696256
  H      12.317363     25.522029      5.661462
  H      14.995416     24.948710      5.738563
  H      16.984736     26.908173      5.717477
  H      17.806536     29.575348      5.682496
  H      19.620077     31.609123      5.717603
  H      18.985148     34.336552      5.699186
  H      17.070094     36.355802      5.647890
  H      16.214440     38.985039      5.727948
  P       9.062629     35.375520     13.510359
  O      10.029908     34.659276     14.389631
  O       7.610253     35.039709     13.534831
  O       9.258902     36.952430     13.804524
  O       9.556384     35.273854     11.967540
  C      10.678880     34.518687     11.571397
  C      10.220400     33.191765     10.994735
  O      11.261147     32.571206     10.228633
  C       9.834835     32.142718     12.013548
  O       8.954443     31.167794     11.477077
  C      11.184357     31.497719     12.340348
  O      11.067227     30.193497     12.826545
  C      11.919934     31.593665     10.987764
  N      13.331420     31.916002     11.080421
  C      13.922860     33.149718     11.071085
  N      15.229679     33.100632     11.083847
  C      15.519951     31.757762     11.090896
  C      16.725217     31.041201     11.045525
  N      17.930699     31.642938     11.008490
  N      16.665719     29.703653     11.052968
  C      15.472621     29.109866     11.082469
  N      14.272590     29.670727     11.102566
  C      14.351654     31.002099     11.095657
  H       8.547722     37.492760     13.445193
  H      11.190608     35.072261     10.779376
  H      11.361255     34.386401     12.415314
  H       9.387770     33.387603     10.319726
  H       9.351167     32.554719     12.898137
  H       9.145476     31.054791     10.537412
  H      11.716379     32.091739     13.086880
  H      10.277387     29.825278     12.402006
  H      11.874242     30.632031     10.470803
  H      13.337059     34.054212     11.018616
  H      17.964884     32.606672     10.715518
  H      18.697547     31.073006     10.688406
  H      15.492047     28.023480     11.079580
162
Coordinates from ORCA-job /data/Seafile/amp/frames/frame12/amp_frame12 E -13464.491772437810
  Si      3.486345     33.854693      7.799473
  Si      3.480299     30.755907      7.796263
  O       2.156169     34.534485      8.444716
  O       2.125587     30.124094      8.441512
  O       3.592267     32.306497      8.314137
  O       3.499698     33.879652      6.158808
  O       3.434831     30.792640      6.158149
  Si      6.164631     26.097566      7.782819
  Si      8.862769     24.547317      7.784308
  O       4.788800     25.518265      8.427829
  O       7.479965     25.268203      8.295605
  O       8.993966     23.061151      8.435173
  O       6.134519     26.082481      6.143637
  O       8.787620     24.544909      6.146986
  Si      6.148036     29.183189      7.672580
  Si      6.151730     35.420949      7.679520
  Si      8.876993     33.836505      7.590965
  Si      8.873299     30.754985      7.577014
  O       4.828418     29.943930      8.266262
  O       4.827992     34.677095      8.278507
  O       7.495011     34.563991      8.055419
  O       7.477297     30.060548      8.045714
  O       6.282897     27.668881      8.258181
  O       8.886854     32.293239      8.144258
  O       5.967012     29.124490      6.045533
  O       5.990386     35.562355      6.055758
  O       9.027570     33.807738      5.963016
  O       8.966541     30.840497      5.949163
  Si      6.175764     38.509000      7.785564
  Si      8.866814     40.070292      7.786770
  O       4.820676     39.137825      8.432154
  O       7.490974     39.345185      8.299227
  O       6.304728     36.939989      8.257762
  O       9.049916     41.552539      8.430542
  O       6.214920     38.573582      6.148645
  O       8.868958     40.104664      6.147317
  Si     11.547375     26.075354      7.682180
  Si     14.241684     24.550809      7.800123
  O      10.155993     25.442507      8.256957
  O      12.855025     25.299712      8.280105
  O      14.327230     23.057367      8.442751
  O      11.506745     25.869777      6.057790
  O      14.210992     24.549012      6.159352
  Si     11.541948     29.232250      7.607918
  Si     11.544741     35.381639      7.606886
  Si     14.204862     33.844717      7.608330
  Si     14.215680     30.766867      7.609778
  O      10.153414     29.915830      8.158175
  O      10.150109     34.707259      8.143984
  O      12.869445     34.603009      8.175757
  O      12.856910     30.027538      8.159781
  O      11.600961     27.666840      8.059716
  O      14.317379     32.305392      8.155308
  O      11.490721     29.367626      5.976900
  O      11.586030     35.259302      5.975580
  O      14.089392     33.725099      5.978472
  O      14.099642     30.795199      5.978644
  Si     11.545380     38.533748      7.677424
  Si     14.240395     40.065073      7.789069
  O      10.167292     39.180092      8.261630
  O      12.865049     39.302446      8.264961
  O      11.633438     36.946256      8.057060
  O      14.372136     41.553383      8.437723
  O      11.581452     38.715302      6.049564
  O      14.290353     40.094665      6.150894
  Si     16.928090     26.097541      7.795919
  O      15.527549     25.418779      8.312434
  O      18.149705     25.233665      8.439460
  O      16.919475     26.039903      6.157086
  Si     16.938734     29.199478      7.698454
  Si     16.953283     35.415126      7.674774
  Si     19.612502     33.854923      7.790795
  Si     19.613191     30.744950      7.772432
  O      15.511429     29.900044      8.084133
  O      15.537515     34.683649      8.026707
  O      18.187569     34.520794      8.267563
  O      18.193914     30.077106      8.257628
  O      16.958415     27.666403      8.268462
  O      19.679961     32.295761      8.301505
  O      17.075045     29.080018      6.068386
  O      17.177835     35.476831      6.052452
  O      19.648604     33.791667      6.153931
  O      19.639854     30.736878      6.134929
  Si     16.926302     38.510729      7.791337
  O      15.529615     39.191960      8.301349
  O      18.180407     39.317844      8.442736
  O      16.969107     36.936483      8.265766
  O      16.950052     38.493340      6.150906
  O      20.797749     29.834376      8.415806
  O      20.837169     34.711246      8.439919
  H       4.074657     24.986772      8.036591
  H       1.410409     29.602015      8.036749
  H       1.410409     35.007985      8.036749
  H       4.074657     39.623228      8.036591
  H       8.948181     22.173255      8.038302
  H       8.948181     42.436745      8.038302
  H      14.277762     22.173204      8.038282
  H      14.277762     42.436796      8.038282
  H      18.960557     24.876228      8.036406
  H      18.960557     39.733772      8.036406
  H      21.624717     29.491420      8.036583
  H      21.624717     35.118580      8.036583
  H      13.364425     34.225850      5.577589
  H      10.820544     34.821457      5.575895
  H       8.945002     32.936983      5.549318
  H       9.731495     30.396025      5.554882
  H      12.284216     29.747040      5.572779
  H      14.087730     31.681069      5.586910
  H      13.507192     39.735795      5.711860
  H      10.791980     39.116535      5.662089
  H       8.120875     39.651900      5.734352
  H       6.047393     37.731351      5.704000
  H       5.290528     35.019131      5.667495
  H       3.421879     33.011249      5.740877
  H       4.131750     30.286418      5.718615
  H       6.017506     28.241904      5.654602
  H       6.896739     25.653534      5.731026
  H       9.602840     24.817005      5.703433
  H      12.322211     25.525053      5.668580
  H      14.993592     24.933212      5.741378
  H      17.006326     26.898858      5.721324
  H      17.804422     29.579769      5.677840
  H      19.630570     31.612729      5.724892
  H      18.998532     34.356400      5.712873
  H      17.064117     36.351495      5.656272
  H      16.233769     38.988435      5.731075
  P       8.919338     35.387615     13.478991
  O       9.823088     34.624666     14.385236
  O       7.452946     35.124175     13.450980
  O       9.181100     36.955409     13.779834
  O       9.454627     35.260937     11.946479
  C      10.607547     34.527156     11.600691
  C      10.193549     33.180229     11.030700
  O      11.254980     32.577160     10.278229
  C       9.820179     32.134391     12.058387
  O       8.954056     31.140504     11.535108
  C      11.179602     31.515271     12.393145
  O      11.088978     30.223096     12.912747
  C      11.907025     31.594440     11.035559
  N      13.320181     31.909975     11.122350
  C      13.910258     33.144282     11.114536
  N      15.216396     33.096586     11.122546
  C      15.508824     31.753925     11.127819
  C      16.713966     31.037757     11.078932
  N      17.919106     31.639037     11.045776
  N      16.655377     29.699855     11.083196
  C      15.462774     29.105147     11.115338
  N      14.262941     29.665600     11.141171
  C      14.340063     30.997128     11.134757
  H       8.497583     37.523486     13.409403
  H      11.133683     35.079161     10.818185
  H      11.266180     34.420024     12.466334
  H       9.361513     33.350709     10.346617
  H       9.335620     32.552533     12.939642
  H       9.148674     31.012756     10.598756
  H      11.705511     32.135955     13.122356
  H      10.319123     29.816518     12.487965
  H      11.851219     30.628906     10.525091
  H      13.322311     34.047129     11.066441
  H      17.956361     32.605375     10.762295
  H      18.691370     31.069217     10.739740
  H      15.482634     28.018714     11.108939
162
Coordinates from ORCA-job /data/Seafile/amp/frames/frame12/amp_frame12 E -13464.494238029667
  Si      3.490372     33.860713      7.807167
  Si      3.478450     30.759847      7.803267
  O       2.169091     34.562259      8.452649
  O       2.129148     30.112502      8.450700
  O       3.577704     32.311173      8.323229
  O       3.506194     33.888237      6.165310
  O       3.427893     30.795058      6.164440
  Si      6.162012     26.101938      7.788783
  Si      8.857163     24.546784      7.792206
  O       4.785959     25.517707      8.434319
  O       7.480153     25.278219      8.302605
  O       8.973730     23.057918      8.444709
  O       6.133353     26.087450      6.148530
  O       8.781073     24.542768      6.154036
  Si      6.144249     29.186877      7.678592
  Si      6.153753     35.427551      7.689150
  Si      8.880832     33.838220      7.599685
  Si      8.875216     30.759025      7.588138
  O       4.834495     29.962437      8.275341
  O       4.838764     34.669056      8.290981
  O       7.505543     34.581474      8.055455
  O       7.481325     30.054292      8.045224
  O       6.270064     27.673163      8.268039
  O       8.865913     32.297436      8.155860
  O       5.950901     29.124942      6.051139
  O       5.984482     35.576229      6.064980
  O       9.041753     33.807694      5.969987
  O       8.980596     30.846365      5.958786
  Si      6.178745     38.514505      7.795329
  Si      8.872388     40.070552      7.793775
  O       4.828342     39.158221      8.442628
  O       7.499193     39.341820      8.307845
  O       6.296829     36.945745      8.272827
  O       9.051379     41.555601      8.437325
  O       6.216869     38.579433      6.157202
  O       8.873927     40.102643      6.153255
  Si     11.541730     26.071994      7.689597
  Si     14.236275     24.550392      7.806464
  O      10.155793     25.432251      8.269125
  O      12.859077     25.313714      8.289859
  O      14.304135     23.054622      8.450588
  O      11.500508     25.856253      6.064700
  O      14.202285     24.546058      6.164413
  Si     11.538225     29.232698      7.618111
  Si     11.547975     35.379415      7.616416
  Si     14.205731     33.843406      7.616160
  Si     14.209109     30.764607      7.611717
  O      10.159062     29.928945      8.175949
  O      10.159672     34.696190      8.156631
  O      12.885339     34.623985      8.189669
  O      12.866158     30.005954      8.172288
  O      11.582700     27.665039      8.059164
  O      14.303712     32.302622      8.160066
  O      11.481895     29.378114      5.985448
  O      11.589309     35.241548      5.983876
  O      14.079790     33.720271      5.984805
  O      14.075669     30.803430      5.979497
  Si     11.550115     38.535722      7.684144
  Si     14.245119     40.064393      7.795585
  O      10.177930     39.189960      8.273127
  O      12.879495     39.285776      8.273473
  O      11.625897     36.946205      8.056298
  O      14.362815     41.555797      8.445565
  O      11.589546     38.728473      6.055735
  O      14.294174     40.096796      6.156916
  Si     16.925976     26.092746      7.801363
  O      15.532052     25.402982      8.320074
  O      18.157744     25.241896      8.448524
  O      16.922241     26.030416      6.161860
  Si     16.939280     29.191936      7.695236
  Si     16.960416     35.410173      7.686995
  Si     19.616006     33.850052      7.801447
  Si     19.612024     30.741766      7.777780
  O      15.515597     29.905536      8.064001
  O      15.547273     34.668626      8.027992
  O      18.197593     34.525659      8.286073
  O      18.195695     30.063722      8.257263
  O      16.939705     27.662413      8.273607
  O      19.673933     32.290888      8.310781
  O      17.085232     29.059734      6.064624
  O      17.195710     35.472789      6.063916
  O      19.649353     33.787188      6.163552
  O      19.640375     30.737701      6.138753
  Si     16.930223     38.504358      7.799000
  O      15.542622     39.203586      8.309105
  O      18.197946     39.293731      8.450904
  O      16.956019     36.931530      8.279162
  O      16.957959     38.482431      6.157372
  O      20.799845     29.832500      8.422074
  O      20.852382     34.692687      8.450243
  H       4.074657     24.986772      8.036591
  H       1.410409     29.602015      8.036749
  H       1.410409     35.007985      8.036749
  H       4.074657     39.623228      8.036591
  H       8.948181     22.173255      8.038302
  H       8.948181     42.436745      8.038302
  H      14.277762     22.173204      8.038282
  H      14.277762     42.436796      8.038282
  H      18.960557     24.876228      8.036406
  H      18.960557     39.733772      8.036406
  H      21.624717     29.491420      8.036583
  H      21.624717     35.118580      8.036583
  H      13.346264     34.219584      5.595535
  H      10.816298     34.802929      5.597348
  H       8.964235     32.931834      5.564663
  H       9.752219     30.398754      5.578726
  H      12.275267     29.766992      5.588367
  H      14.060626     31.698033      5.605454
  H      13.503624     39.750782      5.720286
  H      10.790555     39.111739      5.669139
  H       8.122385     39.652392      5.743424
  H       6.037110     37.737720      5.715858
  H       5.289537     35.023741      5.680347
  H       3.416724     33.021072      5.747224
  H       4.120410     30.280901      5.726659
  H       6.025010     28.243149      5.661702
  H       6.894523     25.653957      5.738488
  H       9.602284     24.799160      5.711968
  H      12.322521     25.520978      5.680370
  H      14.988752     24.921798      5.746010
  H      17.018378     26.889069      5.726870
  H      17.804411     29.575534      5.675817
  H      19.637882     31.616023      5.733551
  H      19.005468     34.363194      5.727297
  H      17.067445     36.346123      5.668837
  H      16.248544     38.984912      5.734978
  P       8.814612     35.397811     13.466503
  O       9.596445     34.512764     14.373232
  O       7.330391     35.311129     13.383604
  O       9.248011     36.917837     13.819051
  O       9.374581     35.245249     11.941496
  C      10.547258     34.525778     11.633617
  C      10.168881     33.164848     11.070118
  O      11.252063     32.583002     10.332521
  C       9.807954     32.122541     12.106297
  O       8.958385     31.107212     11.597611
  C      11.177953     31.532944     12.449899
  O      11.116536     30.253484     13.002174
  C      11.897238     31.595391     11.088424
  N      13.312369     31.902833     11.167712
  C      13.901895     33.137525     11.161329
  N      15.207573     33.090249     11.164303
  C      15.500772     31.747362     11.167361
  C      16.705731     31.031531     11.115209
  N      17.910132     31.633001     11.087373
  N      16.647615     29.693187     11.115928
  C      15.454951     29.098135     11.150003
  N      14.255179     29.658788     11.180501
  C      14.331941     30.990343     11.175709
  H       8.636903     37.562428     13.446830
  H      11.086563     35.076314     10.858943
  H      11.188542     34.433513     12.513702
  H       9.339590     33.312543     10.376915
  H       9.319985     32.547333     12.982519
  H       9.160036     30.959782     10.665756
  H      11.695020     32.181818     13.160722
  H      10.364694     29.811094     12.581987
  H      11.830814     30.626214     10.584708
  H      13.313129     34.040053     11.120012
  H      17.948674     32.602377     10.815221
  H      18.688417     31.064182     10.795675
  H      15.474779     28.011760     11.140881
162
Coordinates from ORCA-job /data/Seafile/amp/frames/frame12/amp_frame12 E -13464.496583542812
  Si      3.493938     33.867161      7.813016
  Si      3.476128     30.763441      7.808667
  O       2.184740     34.594451      8.457745
  O       2.135275     30.097761      8.458524
  O       3.561531     32.315777      8.330637
  O       3.510778     33.897678      6.171631
  O       3.420169     30.796718      6.170716
  Si      6.159521     26.106627      7.796120
  Si      8.851826     24.545939      7.800823
  O       4.784376     25.515391      8.440738
  O       7.480189     25.286824      8.311936
  O       8.951097     23.054569      8.453421
  O       6.132493     26.093409      6.156348
  O       8.774296     24.540943      6.163278
  Si      6.141691     29.191302      7.684864
  Si      6.157230     35.433108      7.698006
  Si      8.886094     33.839919      7.607390
  Si      8.878684     30.762376      7.600059
  O       4.839687     29.979153      8.284251
  O       4.849391     34.661000      8.302338
  O       7.517150     34.597497      8.057944
  O       7.486928     30.047668      8.048333
  O       6.258840     27.677613      8.279087
  O       8.850941     32.301399      8.165650
  O       5.935860     29.127257      6.059238
  O       5.982881     35.587616      6.075010
  O       9.052450     33.809943      5.977100
  O       8.994703     30.848753      5.970831
  Si      6.181306     38.519816      7.803051
  Si      8.878355     40.070649      7.799728
  O       4.837952     39.181141      8.451060
  O       7.506611     39.338916      8.316043
  O       6.288444     36.951230      8.287194
  O       9.051529     41.557934      8.442947
  O       6.218757     38.585615      6.165196
  O       8.879961     40.100863      6.159733
  Si     11.536808     26.069302      7.698758
  Si     14.230710     24.549462      7.812900
  O      10.156606     25.421069      8.283274
  O      12.862983     25.325784      8.300904
  O      14.275604     23.051945      8.457160
  O      11.494426     25.847591      6.074867
  O      14.193120     24.542508      6.171283
  Si     11.536586     29.232384      7.630975
  Si     11.552423     35.376711      7.624409
  Si     14.208606     33.841114      7.625131
  Si     14.203832     30.762004      7.616825
  O      10.166000     29.940670      8.195566
  O      10.171012     34.684218      8.169191
  O      12.899634     34.640085      8.201314
  O      12.875303     29.986993      8.188132
  O      11.566334     27.663259      8.064790
  O      14.291741     32.299484      8.168633
  O      11.477890     29.383545      5.998132
  O      11.594683     35.226876      5.992081
  O      14.077956     33.716759      5.993421
  O      14.054476     30.807756      5.984821
  Si     11.555222     38.536541      7.688354
  Si     14.249680     40.064402      7.799681
  O      10.188154     39.198207      8.282966
  O      12.892485     39.271193      8.279776
  O      11.619035     36.945497      8.056878
  O      14.348236     41.557361      8.452251
  O      11.598549     38.740485      6.061588
  O      14.298364     40.101014      6.162114
  Si     16.924359     26.087744      7.806261
  O      15.537265     25.386614      8.328063
  O      18.167893     25.254809      8.457086
  O      16.924566     26.020559      6.167724
  Si     16.940102     29.184236      7.692014
  Si     16.967048     35.405099      7.697917
  Si     19.620037     33.845541      7.810591
  Si     19.611251     30.738885      7.782366
  O      15.520829     29.910677      8.047507
  O      15.557740     34.653560      8.034233
  O      18.208378     34.531770      8.304037
  O      18.198364     30.050559      8.257707
  O      16.923311     27.658471      8.279619
  O      19.669294     32.286562      8.319949
  O      17.093650     29.037812      6.062954
  O      17.210939     35.466898      6.075793
  O      19.652618     33.783979      6.173081
  O      19.641164     30.737695      6.143286
  Si     16.934773     38.498474      7.803783
  O      15.555848     39.215919      8.314206
  O      18.218076     39.264503      8.456004
  O      16.943910     36.927282      8.290789
  O      16.966509     38.472752      6.162719
  O      20.802737     29.833350      8.427833
  O      20.868491     34.671932      8.458577
  H       4.074657     24.986772      8.036591
  H       1.410409     29.602015      8.036749
  H       1.410409     35.007985      8.036749
  H       4.074657     39.623228      8.036591
  H       8.948181     22.173255      8.038302
  H       8.948181     42.436745      8.038302
  H      14.277762     22.173204      8.038282
  H      14.277762     42.436796      8.038282
  H      18.960557     24.876228      8.036406
  H      18.960557     39.733772      8.036406
  H      21.624717     29.491420      8.036583
  H      21.624717     35.118580      8.036583
  H      13.332724     34.210300      5.616289
  H      10.814663     34.786885      5.618443
  H       8.985448     32.928069      5.581080
  H       9.774425     30.399049      5.606896
  H      12.269870     29.786341      5.609848
  H      14.036340     31.710286      5.627291
  H      13.503537     39.761270      5.727734
  H      10.791298     39.108449      5.676576
  H       8.125254     39.652867      5.752694
  H       6.036831     37.742542      5.726627
  H       5.287560     35.032147      5.694403
  H       3.418450     33.031358      5.752409
  H       4.111491     30.279097      5.734645
  H       6.029004     28.246155      5.671607
  H       6.893176     25.656429      5.748675
  H       9.597678     24.792041      5.721910
  H      12.320187     25.514305      5.695840
  H      14.980622     24.914877      5.751695
  H      17.023975     26.879556      5.733405
  H      17.805737     29.564651      5.675524
  H      19.641918     31.618467      5.742844
  H      19.007088     34.361815      5.740806
  H      17.075870     36.340249      5.682334
  H      16.260049     38.976845      5.737481
  P       8.732834     35.468826     13.441473
  O       9.374922     34.498635     14.368608
  O       7.254403     35.580321     13.318247
  O       9.356322     36.922030     13.800320
  O       9.289144     35.228931     11.925698
  C      10.481047     34.523127     11.662733
  C      10.142206     33.146433     11.111549
  O      11.251629     32.590793     10.391813
  C       9.797519     32.108741     12.157825
  O       8.968213     31.069114     11.663847
  C      11.179293     31.553512     12.510902
  O      11.149898     30.288213     13.096537
  C      11.890887     31.598847     11.146760
  N      13.308430     31.896838     11.216011
  C      13.899208     33.131176     11.210159
  N      15.204703     33.082747     11.207307
  C      15.496475     31.739232     11.208006
  C      16.701043     31.022930     11.153696
  N      17.904799     31.624238     11.131912
  N      16.642124     29.684314     11.150886
  C      15.448774     29.090149     11.186157
  N      14.249130     29.651818     11.220481
  C      14.327270     30.983388     11.218045
  H       8.839685     37.629165     13.399371
  H      11.033593     35.067939     10.893334
  H      11.104354     34.450028     12.557836
  H       9.317320     33.265236     10.407079
  H       9.303562     32.541015     13.026814
  H       9.180551     30.898669     10.738216
  H      11.685100     32.232244     13.201817
  H      10.413468     29.812425     12.686227
  H      11.813334     30.626037     10.650352
  H      13.311365     34.034521     11.177415
  H      17.944408     32.597099     10.873481
  H      18.689451     31.056955     10.855146
  H      15.467761     28.003900     11.175179
162
Coordinates from ORCA-job /data/Seafile/amp/frames/frame12/amp_frame12 E -13464.498789281995
  Si      3.495664     33.873192      7.814158
  Si      3.473221     30.766285      7.810125
  O       2.201181     34.627252      8.457835
  O       2.143030     30.082248      8.462819
  O       3.545563     32.319907      8.332824
  O       3.511381     33.906044      6.174749
  O       3.413122     30.797820      6.174419
  Si      6.157374     26.110714      7.802195
  Si      8.847734     24.544784      7.807224
  O       4.784469     25.511775      8.445212
  O       7.480302     25.293120      8.320352
  O       8.929215     23.051806      8.459035
  O       6.132123     26.099153      6.164250
  O       8.769011     24.539542      6.171572
  Si      6.140077     29.195730      7.688286
  Si      6.159805     35.437854      7.700900
  Si      8.890610     33.842865      7.608609
  Si      8.882059     30.765179      7.607245
  O       4.842918     29.991928      8.289694
  O       4.857618     34.654463      8.307738
  O       7.526804     34.611828      8.057531
  O       7.492746     30.041500      8.051223
  O       6.250925     27.681582      8.287292
  O       8.843068     32.305605      8.167731
  O       5.923299     29.130798      6.066336
  O       5.982367     35.596017      6.080531
  O       9.057359     33.814463      5.978950
  O       9.005629     30.848552      5.979575
  Si      6.182484     38.524738      7.806187
  Si      8.883492     40.070979      7.802456
  O       4.848132     39.203684      8.455329
  O       7.512217     39.336713      8.321043
  O       6.279820     36.956053      8.295483
  O       9.050353     41.559167      8.445761
  O       6.219362     38.591290      6.169985
  O       8.885297     40.099757      6.164348
  Si     11.533487     26.068043      7.705106
  Si     14.225714     24.547810      7.816854
  O      10.158495     25.411009      8.294217
  O      12.866066     25.334737      8.308983
  O      14.244421     23.049726      8.460233
  O      11.490045     25.844128      6.083614
  O      14.185573     24.538728      6.177199
  Si     11.536822     29.232425      7.640924
  Si     11.557324     35.374496      7.625013
  Si     14.213041     33.838231      7.628593
  Si     14.200975     30.760001      7.620322
  O      10.172413     29.950038      8.210161
  O      10.182333     34.673995      8.174769
  O      12.909654     34.648126      8.203524
  O      12.882325     29.975315      8.200663
  O      11.553370     27.662490      8.071658
  O      14.283340     32.296907      8.175200
  O      11.478911     29.385384      6.009400
  O      11.600860     35.217966      5.994130
  O      14.082973     33.714410      5.997726
  O      14.038960     30.808367      5.989590
  Si     11.560051     38.536776      7.687009
  Si     14.253738     40.065589      7.799148
  O      10.196328     39.203672      8.287252
  O      12.902443     39.261058      8.280868
  O      11.613266     36.944639      8.054556
  O      14.330729     41.557873      8.455673
  O      11.606964     38.751270      6.063875
  O      14.302706     40.106654      6.163961
  Si     16.923744     26.082971      7.808428
  O      15.542419     25.371635      8.332963
  O      18.178645     25.270382      8.462763
  O      16.925902     26.011938      6.172251
  Si     16.941392     29.177277      7.687320
  Si     16.972260     35.401165      7.701717
  Si     19.624216     33.842334      7.814994
  Si     19.611402     30.736525      7.784381
  O      15.526677     29.915340      8.033572
  O      15.567755     34.640199      8.039176
  O      18.217974     34.538294      8.314771
  O      18.201627     30.039472      8.257060
  O      16.911636     27.654878      8.283854
  O      19.666216     32.283481      8.325644
  O      17.100798     29.017169      6.061727
  O      17.222260     35.461891      6.082253
  O      19.657621     33.783084      6.179140
  O      19.642718     30.736890      6.146692
  Si     16.939745     38.494405      7.803198
  O      15.567863     39.227725      8.313648
  O      18.238652     39.233378      8.455791
  O      16.934412     36.924317      8.295655
  O      16.974635     38.467128      6.164284
  O      20.806165     29.836792      8.431601
  O      20.882955     34.652223      8.462656
  H       4.074657     24.986772      8.036591
  H       1.410409     29.602015      8.036749
  H       1.410409     35.007985      8.036749
  H       4.074657     39.623228      8.036591
  H       8.948181     22.173255      8.038302
  H       8.948181     42.436745      8.038302
  H      14.277762     22.173204      8.038282
  H      14.277762     42.436796      8.038282
  H      18.960557     24.876228      8.036406
  H      18.960557     39.733772      8.036406
  H      21.624717     29.491420      8.036583
  H      21.624717     35.118580      8.036583
  H      13.325790     34.199322      5.630788
  H      10.815726     34.776721      5.630199
  H       9.004155     32.927160      5.591477
  H       9.792386     30.397418      5.629813
  H      12.268088     29.804168      5.629938
  H      14.021098     31.716159      5.643128
  H      13.506658     39.767490      5.730929
  H      10.794284     39.109768      5.680706
  H       8.128118     39.653808      5.759210
  H       6.043541     37.745785      5.733006
  H       5.282706     35.042963      5.703486
  H       3.423958     33.040299      5.753374
  H       4.105612     30.280468      5.739470
  H       6.028361     28.250239      5.679872
  H       6.892546     25.659938      5.758112
  H       9.591025     24.794640      5.729703
  H      12.316229     25.505476      5.709263
  H      14.971265     24.912578      5.755529
  H      17.024943     26.871425      5.738176
  H      17.809272     29.549395      5.674725
  H      19.643476     31.619609      5.749953
  H      19.004343     34.354651      5.749291
  H      17.087807     36.336399      5.690450
  H      16.267384     38.967495      5.736145
  P       8.699681     35.539815     13.433099
  O       9.123236     34.460978     14.364557
  O       7.276390     35.938430     13.272999
  O       9.588258     36.840336     13.827140
  O       9.216899     35.204324     11.924341
  C      10.425025     34.517785     11.681355
  C      10.119703     33.127679     11.143849
  O      11.253940     32.598029     10.441939
  C       9.791677     32.096794     12.201353
  O       8.981772     31.034843     11.723015
  C      11.183818     31.575017     12.563508
  O      11.183485     30.324109     13.180278
  C      11.888747     31.603585     11.197561
  N      13.307471     31.893598     11.255840
  C      13.899662     33.127495     11.250077
  N      15.205353     33.077093     11.242233
  C      15.494591     31.732639     11.240554
  C      16.698972     31.015526     11.186869
  N      17.901879     31.616534     11.170445
  N      16.638575     29.676831     11.181626
  C      15.444324     29.083950     11.216446
  N      14.244661     29.646915     11.252371
  C      14.325376     30.978467     11.252049
  H       9.236584     37.627443     13.395800
  H      10.976934     35.062005     10.911595
  H      11.045543     34.463311     12.580184
  H       9.300516     33.217925     10.428295
  H       9.287437     32.537370     13.060637
  H       9.206340     30.841245     10.804908
  H      11.678759     32.281354     13.234652
  H      10.457954     29.821703     12.782762
  H      11.801277     30.627014     10.708943
  H      13.312957     34.032257     11.226021
  H      17.943139     32.592570     10.925680
  H      18.692858     31.050914     10.909292
  H      15.462213     27.997567     11.204882
162
Coordinates from ORCA-job /data/Seafile/amp/frames/frame12/amp_frame12 E -13464.500270999040
  Si      3.496215     33.878733      7.814481
  Si      3.470537     30.768793      7.811537
  O       2.217118     34.659313      8.454440
  O       2.150961     30.067552      8.464737
  O       3.530023     32.323946      8.333365
  O       3.512093     33.911890      6.177571
  O       3.412151     30.799452      6.178264
  Si      6.155720     26.114656      7.808252
  Si      8.844647     24.544134      7.812231
  O       4.785990     25.507116      8.447982
  O       7.480354     25.298001      8.328307
  O       8.908509     23.049877      8.461497
  O       6.133817     26.107077      6.172417
  O       8.767049     24.541353      6.178693
  Si      6.139187     29.200373      7.694836
  Si      6.161155     35.441540      7.704869
  Si      8.892580     33.846632      7.613906
  Si      8.883502     30.768089      7.618025
  O       4.844047     30.001367      8.296400
  O       4.863328     34.649354      8.312426
  O       7.533329     34.624645      8.063372
  O       7.497471     30.036050      8.061306
  O       6.245618     27.684905      8.295854
  O       8.840160     32.309949      8.173102
  O       5.917828     29.137114      6.076386
  O       5.984586     35.598764      6.086980
  O       9.055473     33.819251      5.985407
  O       9.010983     30.848806      5.992378
  Si      6.183156     38.528790      7.808987
  Si      8.887947     40.070892      7.805403
  O       4.858450     39.225585      8.456869
  O       7.516941     39.334739      8.326239
  O       6.270803     36.960348      8.302672
  O       9.048102     41.559713      8.446920
  O       6.220721     38.591822      6.174813
  O       8.890554     40.095602      6.169428
  Si     11.531268     26.069218      7.710973
  Si     14.220618     24.546042      7.819320
  O      10.160660     25.402724      8.302624
  O      12.867620     25.341462      8.315425
  O      14.211484     23.047900      8.459643
  O      11.488357     25.848512      6.091831
  O      14.179394     24.537933      6.182106
  Si     11.536672     29.233817      7.653091
  Si     11.560837     35.372813      7.628067
  Si     14.216822     33.835174      7.634291
  Si     14.199181     30.759161      7.628038
  O      10.176052     29.957107      8.225698
  O      10.191091     34.666289      8.182247
  O      12.913905     34.648147      8.205785
  O      12.884954     29.971785      8.214458
  O      11.542477     27.663211      8.082859
  O      14.277555     32.295002      8.186116
  O      11.482358     29.387473      6.023703
  O      11.604884     35.214315      5.999022
  O      14.090039     33.714187      6.004769
  O      14.027450     30.807939      5.998981
  Si     11.564595     38.535791      7.687743
  Si     14.257091     40.066939      7.797943
  O      10.202537     39.206673      8.291161
  O      12.909938     39.254963      8.282614
  O      11.607770     36.943623      8.058028
  O      14.312583     41.557802      8.456817
  O      11.613438     38.755326      6.068294
  O      14.305064     40.108425      6.165144
  Si     16.923199     26.079157      7.809780
  O      15.546488     25.358164      8.335550
  O      18.188627     25.286371      8.465522
  O      16.923796     26.008513      6.176181
  Si     16.941370     29.171735      7.686169
  Si     16.974116     35.398092      7.704181
  Si     19.627028     33.840046      7.817826
  Si     19.611091     30.734066      7.786459
  O      15.531437     29.919658      8.028911
  O      15.575784     34.628347      8.049007
  O      18.225221     34.544393      8.321537
  O      18.204123     30.030481      8.258804
  O      16.903607     27.651473      8.289050
  O      19.662933     32.280913      8.330067
  O      17.103442     29.002278      6.064308
  O      17.224253     35.457352      6.087503
  O      19.658493     33.784572      6.183893
  O      19.641882     30.735819      6.150727
  Si     16.944510     38.491307      7.800984
  O      15.578808     39.238748      8.311134
  O      18.259020     39.202101      8.451279
  O      16.926501     36.922139      8.298134
  O      16.979048     38.463260      6.164727
  O      20.809702     29.841566      8.434076
  O      20.895275     34.634333      8.463668
  H       4.074657     24.986772      8.036591
  H       1.410409     29.602015      8.036749
  H       1.410409     35.007985      8.036749
  H       4.074657     39.623228      8.036591
  H       8.948181     22.173255      8.038302
  H       8.948181     42.436745      8.038302
  H      14.277762     22.173204      8.038282
  H      14.277762     42.436796      8.038282
  H      18.960557     24.876228      8.036406
  H      18.960557     39.733772      8.036406
  H      21.624717     29.491420      8.036583
  H      21.624717     35.118580      8.036583
  H      13.324029     34.190627      5.643893
  H      10.816565     34.774425      5.639089
  H       9.016279     32.928681      5.603378
  H       9.801063     30.396176      5.650389
  H      12.267989     29.820729      5.651194
  H      14.014261     31.717307      5.655554
  H      13.509319     39.766648      5.733398
  H      10.798181     39.108556      5.685305
  H       8.131994     39.651221      5.765045
  H       6.057058     37.742961      5.739358
  H       5.279155     35.051868      5.711260
  H       3.437806     33.046490      5.753226
  H       4.106870     30.283706      5.744710
  H       6.029593     28.257909      5.688377
  H       6.893901     25.666932      5.766481
  H       9.585008     24.808081      5.736084
  H      12.311986     25.500355      5.719831
  H      14.960237     24.918585      5.757682
  H      17.022598     26.868618      5.742776
  H      17.809703     29.536154      5.675415
  H      19.640499     31.619592      5.756064
  H      18.993511     34.344444      5.756072
  H      17.095640     36.333058      5.695949
  H      16.266776     38.953891      5.733895
  P       8.787055     35.592804     13.515573
  O       9.122601     34.496269     14.462240
  O       7.419229     36.163892     13.407086
  O       9.858328     36.774372     13.828294
  O       9.161387     35.152782     11.997293
  C      10.382742     34.508625     11.702975
  C      10.104464     33.107735     11.178377
  O      11.258842     32.602276     10.489949
  C       9.793891     32.083713     12.247575
  O       8.998071     31.004410     11.785391
  C      11.193795     31.587905     12.613578
  O      11.216247     30.347203     13.251299
  C      11.891944     31.605950     11.245588
  N      13.310209     31.891585     11.292566
  C      13.903190     33.125217     11.287524
  N      15.209347     33.072905     11.275091
  C      15.496186     31.727649     11.269889
  C      16.700726     31.009606     11.218636
  N      17.902907     31.610001     11.205500
  N      16.638436     29.670980     11.212349
  C      15.443478     29.079368     11.245779
  N      14.243801     29.643323     11.282066
  C      14.327185     30.974825     11.283100
  H       9.607334     37.576345     13.354189
  H      10.888595     35.070053     10.915125
  H      11.043214     34.474961     12.575062
  H       9.289939     33.171093     10.454009
  H       9.279381     32.530885     13.098017
  H       9.234765     30.788090     10.875610
  H      11.681895     32.312931     13.269788
  H      10.496803     29.827606     12.865134
  H      11.797205     30.626999     10.763125
  H      13.316865     34.031070     11.271460
  H      17.947340     32.588698     10.973323
  H      18.699348     31.045804     10.959022
  H      15.460352     27.992799     11.234240
162
Coordinates from ORCA-job /data/Seafile/amp/frames/frame12/amp_frame12 E -13464.501172352519
  Si      3.497073     33.883556      7.812332
  Si      3.468903     30.771476      7.811709
  O       2.230534     34.685287      8.448871
  O       2.156716     30.058067      8.464785
  O       3.518099     32.328281      8.330615
  O       3.513633     33.914593      6.176289
  O       3.416048     30.801483      6.179092
  Si      6.154460     26.118331      7.810787
  Si      8.841842     24.544432      7.814231
  O       4.787445     25.504599      8.448424
  O       7.480251     25.303352      8.331680
  O       8.891135     23.049093      8.461180
  O       6.136099     26.114085      6.175447
  O       8.768103     24.545074      6.181185
  Si      6.138002     29.204610      7.699516
  Si      6.162389     35.443925      7.705695
  Si      8.893303     33.849776      7.617654
  Si      8.882572     30.770404      7.624874
  O       4.844837     30.009736      8.300103
  O       4.868815     34.645046      8.312474
  O       7.537922     34.634197      8.066900
  O       7.499643     30.032957      8.068615
  O       6.241541     27.688170      8.299929
  O       8.838031     32.313121      8.175519
  O       5.917405     29.142999      6.081853
  O       5.987374     35.598460      6.088311
  O       9.054349     33.821810      5.989529
  O       9.012798     30.849945      5.999767
  Si      6.184632     38.531844      7.810264
  Si      8.891910     40.070340      7.807830
  O       4.867330     39.242673      8.456261
  O       7.522059     39.332068      8.329108
  O       6.264292     36.963237      8.304688
  O       9.046521     41.559829      8.447179
  O       6.222670     38.589501      6.176697
  O       8.895975     40.089976      6.172301
  Si     11.529245     26.071519      7.714508
  Si     14.215808     24.544817      7.819753
  O      10.161606     25.397064      8.305958
  O      12.867943     25.347858      8.318193
  O      14.183265     23.046434      8.456615
  O      11.488863     25.855377      6.095712
  O      14.175538     24.540246      6.183326
  Si     11.534483     29.235860      7.662293
  Si     11.563254     35.372523      7.633441
  Si     14.218790     33.833032      7.641475
  Si     14.196904     30.759234      7.636135
  O      10.175555     29.962297      8.235672
  O      10.196207     34.662063      8.188154
  O      12.915505     34.646581      8.209915
  O      12.883564     29.971717      8.224353
  O      11.532915     27.664673      8.090873
  O      14.273199     32.293741      8.196812
  O      11.485466     29.391231      6.033766
  O      11.608244     35.214079      6.004969
  O      14.093858     33.714828      6.012241
  O      14.018393     30.809892      6.007821
  Si     11.568907     38.534742      7.691869
  Si     14.259921     40.067470      7.798307
  O      10.207675     39.208660      8.294851
  O      12.916582     39.250359      8.285981
  O      11.603913     36.943172      8.064298
  O      14.299735     41.557834      8.457266
  O      11.618010     38.753709      6.073389
  O      14.305593     40.104932      6.165968
  Si     16.921788     26.076769      7.811016
  O      15.548455     25.347037      8.335407
  O      18.194987     25.297282      8.466246
  O      16.918941     26.010462      6.178166
  Si     16.939141     29.167968      7.688260
  Si     16.973649     35.396001      7.707959
  Si     19.628049     33.837807      7.820476
  Si     19.609259     30.731070      7.788864
  O      15.533048     29.923024      8.029956
  O      15.581097     34.618956      8.059078
  O      18.229966     34.548749      8.325594
  O      18.204174     30.023476      8.261329
  O      16.896053     27.648532      8.293508
  O      19.657715     32.278017      8.332939
  O      17.102184     28.995371      6.067749
  O      17.219632     35.454296      6.091878
  O      19.653802     33.786303      6.186962
  O      19.638327     30.734627      6.153788
  Si     16.948014     38.488474      7.799927
  O      15.588039     39.247560      8.309191
  O      18.275296     39.177491      8.445697
  O      16.919096     36.920159      8.300094
  O      16.979020     38.459951      6.164591
  O      20.811802     29.844388      8.435663
  O      20.904876     34.619929      8.463379
  H       4.074657     24.986772      8.036591
  H       1.410409     29.602015      8.036749
  H       1.410409     35.007985      8.036749
  H       4.074657     39.623228      8.036591
  H       8.948181     22.173255      8.038302
  H       8.948181     42.436745      8.038302
  H      14.277762     22.173204      8.038282
  H      14.277762     42.436796      8.038282
  H      18.960557     24.876228      8.036406
  H      18.960557     39.733772      8.036406
  H      21.624717     29.491420      8.036583
  H      21.624717     35.118580      8.036583
  H      13.324827     34.186477      5.651815
  H      10.819245     34.777908      5.642536
  H       9.024091     32.930585      5.608349
  H       9.801769     30.395261      5.658191
  H      12.269157     29.831754      5.664898
  H      14.011536     31.718066      5.661615
  H      13.508934     39.763763      5.735409
  H      10.802834     39.104611      5.688190
  H       8.136543     39.647993      5.767178
  H       6.069473     37.738188      5.742273
  H       5.276953     35.058677      5.711825
  H       3.452895     33.049218      5.750037
  H       4.110123     30.283648      5.746925
  H       6.032290     28.265803      5.690398
  H       6.894289     25.671425      5.768891
  H       9.582440     24.822614      5.738763
  H      12.309146     25.499580      5.723507
  H      14.951510     24.928447      5.757083
  H      17.022323     26.870785      5.746050
  H      17.805572     29.530257      5.675226
  H      19.635963     31.618354      5.759259
  H      18.980326     34.337680      5.761417
  H      17.097711     36.330320      5.698911
  H      16.260618     38.939981      5.732258
  P       8.824099     35.615645     13.544549
  O       9.151316     34.538305     14.517159
  O       7.476088     36.238147     13.469355
  O       9.960476     36.755354     13.774168
  O       9.115409     35.106918     12.032274
  C      10.349058     34.497495     11.711407
  C      10.093908     33.089658     11.201629
  O      11.262541     32.601901     10.525061
  C       9.797688     32.074868     12.284694
  O       9.006132     30.984955     11.841447
  C      11.201838     31.593438     12.651034
  O      11.236637     30.358646     13.299785
  C      11.895667     31.605397     11.281188
  N      13.313021     31.889740     11.320870
  C      13.906652     33.123068     11.317874
  N      15.212941     33.069268     11.302299
  C      15.498271     31.723735     11.293148
  C      16.702666     31.004376     11.244599
  N      17.904956     31.603094     11.233666
  N      16.638296     29.665811     11.237772
  C      15.442875     29.075435     11.269303
  N      14.243680     29.640286     11.305728
  C      14.328882     30.971779     11.307531
  H       9.746200     37.542865     13.258829
  H      10.826652     35.069254     10.912330
  H      11.027990     34.484497     12.569896
  H       9.280893     33.127512     10.473873
  H       9.280732     32.527692     13.130979
  H       9.250243     30.746288     10.939067
  H      11.687126     32.327447     13.299136
  H      10.520854     29.829300     12.920134
  H      11.797109     30.624698     10.803284
  H      13.319937     34.029078     11.306865
  H      17.954444     32.583656     11.011344
  H      18.704723     31.039118     10.998255
  H      15.458676     27.988784     11.256987
162
Coordinates from ORCA-job /data/Seafile/amp/frames/frame12/amp_frame12 E -13464.502299393258
  Si      3.498194     33.889033      7.806455
  Si      3.467828     30.774967      7.810021
  O       2.246820     34.715487      8.438339
  O       2.163213     30.049386      8.462383
  O       3.505057     32.333947      8.323361
  O       3.514547     33.915128      6.170458
  O       3.426102     30.804761      6.177067
  Si      6.153491     26.122860      7.811136
  Si      8.838837     24.545824      7.814398
  O       4.790096     25.502125      8.446520
  O       7.480372     25.310658      8.332806
  O       8.869631     23.049126      8.457646
  O       6.140146     26.122726      6.175377
  O       8.773457     24.551608      6.180887
  Si      6.136549     29.209822      7.704185
  Si      6.163686     35.445697      7.703085
  Si      8.892637     33.853721      7.619806
  Si      8.879496     30.772537      7.631356
  O       4.845224     30.018753      8.302374
  O       4.875352     34.640109      8.307753
  O       7.542176     34.644407      8.070090
  O       7.500630     30.030402      8.077988
  O       6.237447     27.692202      8.301576
  O       8.837542     32.316523      8.175747
  O       5.922250     29.150883      6.085575
  O       5.992749     35.593918      6.084871
  O       9.050019     33.823408      5.991677
  O       9.011081     30.850496      6.005966
  Si      6.186768     38.534871      7.808663
  Si      8.896432     40.068970      7.808267
  O       4.878701     39.262345      8.452114
  O       7.528750     39.327695      8.329034
  O       6.257391     36.965811      8.301344
  O       9.044534     41.558856      8.445176
  O       6.223918     38.583885      6.174952
  O       8.902743     40.082208      6.172193
  Si     11.527070     26.076048      7.718338
  Si     14.209608     24.544021      7.818362
  O      10.162362     25.391589      8.306826
  O      12.867336     25.355680      8.319483
  O      14.147642     23.045226      8.449377
  O      11.491516     25.869629      6.098424
  O      14.172708     24.545892      6.181903
  Si     11.530456     29.238727      7.672925
  Si     11.565850     35.373109      7.638820
  Si     14.220454     33.830621      7.649911
  Si     14.193902     30.759988      7.647173
  O      10.171721     29.966483      8.244770
  O      10.200153     34.660013      8.191640
  O      12.914402     34.641182      8.213581
  O      12.878161     29.976026      8.234878
  O      11.521545     27.667323      8.102132
  O      14.269567     32.292801      8.210232
  O      11.489860     29.394257      6.044660
  O      11.612226     35.217996      6.010282
  O      14.099272     33.716914      6.020415
  O      14.010222     30.811870      6.019265
  Si     11.574146     38.532761      7.696942
  Si     14.262797     40.067284      7.798173
  O      10.212987     39.209476      8.296525
  O      12.923361     39.246150      8.289444
  O      11.600133     36.942595      8.073056
  O      14.285515     41.557232      8.456112
  O      11.622291     38.746217      6.077839
  O      14.305188     40.096020      6.165140
  Si     16.919066     26.075278      7.811890
  O      15.549522     25.334427      8.332637
  O      18.200582     25.308841      8.464701
  O      16.909063     26.017899      6.178801
  Si     16.934305     29.165009      7.693369
  Si     16.970439     35.394267      7.711241
  Si     19.627872     33.835400      7.821175
  Si     19.605805     30.727112      7.790819
  O      15.532997     29.927322      8.038140
  O      15.586047     34.608198      8.072480
  O      18.233891     34.553532      8.325415
  O      18.202529     30.016773      8.264801
  O      16.887585     27.645563      8.298734
  O      19.649379     32.274692      8.333464
  O      17.095568     28.993596      6.072889
  O      17.205591     35.451171      6.094264
  O      19.644652     33.790396      6.187219
  O      19.631952     30.732287      6.155776
  Si     16.951147     38.485224      7.797622
  O      15.598232     39.257329      8.305435
  O      18.293346     39.149287      8.435726
  O      16.910010     36.917878      8.300135
  O      16.975394     38.458043      6.162319
  O      20.813531     29.847716      8.436070
  O      20.915051     34.603050      8.460238
  H       4.074657     24.986772      8.036591
  H       1.410409     29.602015      8.036749
  H       1.410409     35.007985      8.036749
  H       4.074657     39.623228      8.036591
  H       8.948181     22.173255      8.038302
  H       8.948181     42.436745      8.038302
  H      14.277762     22.173204      8.038282
  H      14.277762     42.436796      8.038282
  H      18.960557     24.876228      8.036406
  H      18.960557     39.733772      8.036406
  H      21.624717     29.491420      8.036583
  H      21.624717     35.118580      8.036583
  H      13.332258     34.186808      5.654714
  H      10.824116     34.789882      5.638296
  H       9.026117     32.933465      5.607899
  H       9.794919     30.393085      5.658191
  H      12.271638     29.839379      5.677133
  H      14.014450     31.715155      5.662262
  H      13.506086     39.759275      5.735699
  H      10.809362     39.096649      5.687921
  H       8.142066     39.645200      5.764557
  H       6.082533     37.730155      5.741512
  H       5.277357     35.063327      5.705204
  H       3.471450     33.049616      5.742726
  H       4.116775     30.280855      5.746807
  H       6.037366     28.276761      5.687989
  H       6.894906     25.676097      5.767238
  H       9.583511     24.843071      5.739920
  H      12.306491     25.505342      5.723165
  H      14.942137     24.944795      5.754154
  H      17.021417     26.878115      5.748680
  H      17.795279     29.527925      5.673680
  H      19.629615     31.614834      5.759145
  H      18.962481     34.333076      5.764570
  H      17.093786     36.326878      5.697901
  H      16.248296     38.924042      5.729466
  P       8.833500     35.632321     13.547622
  O       9.315468     34.647427     14.555730
  O       7.435816     36.142427     13.553285
  O       9.894246     36.861691     13.613057
  O       9.051806     35.044856     12.052422
  C      10.304281     34.484364     11.708425
  C      10.083487     33.066916     11.221144
  O      11.268058     32.598294     10.560145
  C       9.806239     32.068602     12.326248
  O       9.017629     30.966429     11.911023
  C      11.215777     31.604440     12.692372
  O      11.262810     30.377888     13.355618
  C      11.904370     31.605786     11.319283
  N      13.320183     31.890342     11.350549
  C      13.915506     33.122801     11.350149
  N      15.221679     33.066406     11.331251
  C      15.504762     31.720677     11.317359
  C      16.708303     30.998549     11.273348
  N      17.911587     31.593471     11.264767
  N      16.640642     29.660215     11.267149
  C      15.444421     29.072160     11.295639
  N      14.246335     29.638906     11.331398
  C      14.333979     30.970358     11.333232
  H       9.605385     37.592680     13.053202
  H      10.748904     35.067939     10.897851
  H      10.995766     34.502927     12.556394
  H       9.270875     33.067332     10.492162
  H       9.288800     32.529085     13.168350
  H       9.268871     30.700396     11.018328
  H      11.698636     32.348939     13.330159
  H      10.546705     29.839933     12.988585
  H      11.802576     30.621244     10.848787
  H      13.328491     34.028745     11.343692
  H      17.969657     32.575802     11.053894
  H      18.713904     31.028337     11.041601
  H      15.458201     27.985508     11.282430
162
Coordinates from ORCA-job /data/Seafile/amp/frames/frame12/amp_frame12 E -13464.502869461254
  Si      3.500057     33.894257      7.796192
  Si      3.467216     30.778850      7.805766
  O       2.263817     34.745921      8.423877
  O       2.169387     30.042307      8.458822
  O       3.492098     32.339955      8.312643
  O       3.513962     33.914549      6.159203
  O       3.435026     30.808105      6.171627
  Si      6.152720     26.127572      7.808933
  Si      8.835253     24.547380      7.811892
  O       4.792903     25.500106      8.443989
  O       7.481442     25.319911      8.330903
  O       8.845299     23.049292      8.452131
  O       6.142531     26.130172      6.171942
  O       8.777829     24.555852      6.177163
  Si      6.134291     29.214842      7.705180
  Si      6.165682     35.447077      7.694376
  Si      8.892178     33.855814      7.611691
  Si      8.876837     30.773417      7.633154
  O       4.846717     30.029563      8.301492
  O       4.883555     34.633585      8.297479
  O       7.548273     34.654267      8.064145
  O       7.501214     30.027984      8.081745
  O       6.231272     27.696691      8.300224
  O       8.835153     32.319759      8.169486
  O       5.924307     29.156754      6.084744
  O       5.997385     35.591150      6.074618
  O       9.045193     33.820992      5.982750
  O       9.009029     30.848005      6.006485
  Si      6.189600     38.538041      7.801946
  Si      8.901647     40.067029      7.803203
  O       4.891799     39.283532      8.444932
  O       7.536849     39.321544      8.322886
  O       6.251148     36.967863      8.291726
  O       9.044091     41.556699      8.441020
  O       6.222878     38.581404      6.167259
  O       8.909459     40.078300      6.165751
  Si     11.524351     26.078848      7.718758
  Si     14.203456     24.543365      7.812955
  O      10.163203     25.384793      8.304538
  O      12.867779     25.364780      8.316926
  O      14.110685     23.044157      8.438579
  O      11.492274     25.880807      6.096805
  O      14.170770     24.549701      6.175497
  Si     11.525648     29.239432      7.676980
  Si     11.568782     35.372551      7.631518
  Si     14.222000     33.826934      7.648170
  Si     14.189833     30.758444      7.649505
  O      10.168662     29.969527      8.248089
  O      10.203665     34.657457      8.181766
  O      12.914860     34.637837      8.207167
  O      12.874180     29.975316      8.238354
  O      11.508783     27.668363      8.107475
  O      14.265221     32.290547      8.213323
  O      11.490473     29.393430      6.047815
  O      11.617950     35.219682      6.002215
  O      14.105234     33.715693      6.017780
  O      14.001419     30.810030      6.021553
  Si     11.579878     38.530700      7.693441
  Si     14.266029     40.065979      7.793871
  O      10.219750     39.209995      8.291159
  O      12.931127     39.238601      8.286289
  O      11.597349     36.940709      8.069163
  O      14.272324     41.555494      8.452904
  O      11.627771     38.742697      6.072979
  O      14.307143     40.088194      6.159467
  Si     16.915403     26.073562      7.809374
  O      15.550731     25.320539      8.326079
  O      18.204645     25.319321      8.461283
  O      16.899357     26.022736      6.175181
  Si     16.929188     29.161472      7.692567
  Si     16.967676     35.391975      7.708266
  Si     19.627802     33.832405      7.816848
  Si     19.601785     30.723003      7.788298
  O      15.532333     29.930983      8.038962
  O      15.591063     34.595469      8.075974
  O      18.237860     34.558290      8.318896
  O      18.200049     30.009639      8.262074
  O      16.876516     27.642751      8.298827
  O      19.639200     32.271382      8.328758
  O      17.089319     28.990510      6.071148
  O      17.193557     35.447564      6.089349
  O      19.639941     33.793663      6.181708
  O      19.627494     30.727606      6.152331
  Si     16.953556     38.481217      7.790495
  O      15.608716     39.266687      8.297402
  O      18.310201     39.121199      8.421813
  O      16.899206     36.914761      8.294318
  O      16.972427     38.457718      6.154102
  O      20.813856     29.850282      8.434704
  O      20.925735     34.583669      8.454436
  H       4.074657     24.986772      8.036591
  H       1.410409     29.602015      8.036749
  H       1.410409     35.007985      8.036749
  H       4.074657     39.623228      8.036591
  H       8.948181     22.173255      8.038302
  H       8.948181     42.436745      8.038302
  H      14.277762     22.173204      8.038282
  H      14.277762     42.436796      8.038282
  H      18.960557     24.876228      8.036406
  H      18.960557     39.733772      8.036406
  H      21.624717     29.491420      8.036583
  H      21.624717     35.118580      8.036583
  H      13.342345     34.186575      5.645527
  H      10.830849     34.799421      5.620921
  H       9.021521     32.931987      5.597568
  H       9.786435     30.385589      5.652708
  H      12.271632     29.839408      5.680127
  H      14.017510     31.708388      5.654005
  H      13.502641     39.764003      5.730400
  H      10.816136     39.091474      5.679316
  H       8.146466     39.648614      5.755227
  H       6.085634     37.726657      5.734657
  H       5.280699     35.064816      5.691973
  H       3.481990     33.048209      5.732405
  H       4.118549     30.273108      5.743651
  H       6.042026     28.285446      5.682356
  H       6.893161     25.678345      5.762338
  H       9.586184     24.855284      5.738617
  H      12.304110     25.513398      5.718257
  H      14.936262     24.956243      5.748066
  H      17.024510     26.882004      5.746600
  H      17.783890     29.526505      5.665794
  H      19.628750     31.608387      5.752433
  H      18.953967     34.333151      5.761389
  H      17.087126     36.322267      5.689734
  H      16.239202     38.915211      5.722614
  P       8.807136     35.665441     13.514969
  O       9.463596     34.818687     14.551141
  O       7.368214     36.033809     13.610452
  O       9.735626     36.991877     13.394328
  O       8.975684     34.980823     12.052608
  C      10.248169     34.477378     11.687280
  C      10.072638     33.045370     11.229407
  O      11.273651     32.596221     10.585721
  C       9.815556     32.068523     12.360428
  O       9.030341     30.952043     11.979465
  C      11.232075     31.625695     12.726156
  O      11.294669     30.412548     13.411965
  C      11.912660     31.609192     11.349100
  N      13.327981     31.892011     11.371017
  C      13.926351     33.123060     11.372804
  N      15.231968     33.063164     11.351033
  C      15.512053     31.717040     11.333913
  C      16.713710     30.991210     11.294599
  N      17.918622     31.581195     11.290748
  N      16.642212     29.652884     11.289027
  C      15.444515     29.068141     11.313926
  N      14.248144     29.638186     11.348370
  C      14.339019     30.969437     11.350194
  H       9.345063     37.644001     12.800997
  H      10.652000     35.069602     10.862116
  H      10.950537     34.535316     12.523835
  H       9.261274     33.001117     10.499030
  H       9.302787     32.541326     13.198050
  H       9.278895     30.662768     11.093522
  H      11.711392     32.386568     13.347285
  H      10.577419     29.862712     13.065373
  H      11.806893     30.619358     10.889542
  H      13.340075     34.029294     11.370022
  H      17.985642     32.565482     11.092479
  H      18.722985     31.013790     11.081695
  H      15.455233     27.981589     11.299668
162
Coordinates from ORCA-job /data/Seafile/amp/frames/frame12/amp_frame12 E -13464.503373202562
  Si      3.502140     33.898641      7.787116
  Si      3.466514     30.782504      7.800926
  O       2.276955     34.770227      8.411086
  O       2.174499     30.036404      8.456221
  O       3.480896     32.344912      8.303665
  O       3.514418     33.915436      6.148980
  O       3.436978     30.811620      6.165690
  Si      6.151709     26.132064      7.805279
  Si      8.831297     24.548176      7.807620
  O       4.794352     25.499969      8.442283
  O       7.482644     25.328846      8.326765
  O       8.823664     23.049197      8.446964
  O       6.141215     26.134900      6.167151
  O       8.777357     24.555615      6.171803
  Si      6.132400     29.219681      7.701281
  Si      6.167899     35.449187      7.687116
  Si      8.893766     33.858475      7.601159
  Si      8.876430     30.775794      7.628084
  O       4.849683     30.040997      8.297593
  O       4.891217     34.627246      8.288931
  O       7.555418     34.663717      8.055206
  O       7.502661     30.027793      8.076257
  O       6.224896     27.701648      8.296366
  O       8.830766     32.323489      8.159568
  O       5.920435     29.160223      6.079688
  O       6.000102     35.593610      6.066100
  O       9.045447     33.822058      5.971270
  O       9.009716     30.849035      6.000123
  Si      6.192356     38.541630      7.796266
  Si      8.906643     40.065795      7.799502
  O       4.902751     39.302723      8.439050
  O       7.544066     39.316263      8.317513
  O       6.245618     36.970315      8.284405
  O       9.044402     41.555661      8.439039
  O       6.222510     38.583904      6.160564
  O       8.916154     40.077823      6.160833
  Si     11.521218     26.079067      7.714573
  Si     14.198508     24.542526      7.805370
  O      10.163782     25.377893      8.299898
  O      12.869185     25.373495      8.310827
  O      14.080728     23.043083      8.427712
  O      11.489674     25.883358      6.091019
  O      14.169412     24.549835      6.166765
  Si     11.521997     29.238815      7.672711
  Si     11.572793     35.372458      7.623055
  Si     14.224067     33.824143      7.643871
  Si     14.186368     30.756015      7.644675
  O      10.168195     29.973413      8.244267
  O      10.208311     34.655044      8.170643
  O      12.919610     34.640614      8.201268
  O      12.874048     29.968540      8.234813
  O      11.497318     27.668050      8.103083
  O      14.260682     32.287820      8.209913
  O      11.488882     29.391741      6.042240
  O      11.625620     35.219258      5.992906
  O      14.109341     33.713674      6.012502
  O      13.993988     30.808939      6.016517
  Si     11.585251     38.530556      7.689693
  Si     14.269730     40.064891      7.790824
  O      10.227151     39.212678      8.287693
  O      12.939684     39.230177      8.283400
  O      11.596423     36.939768      8.061530
  O      14.263056     41.554584      8.451056
  O      11.634142     38.745814      6.068209
  O      14.311063     40.084103      6.155323
  Si     16.912062     26.070878      7.805069
  O      15.552172     25.307447      8.318604
  O      18.207258     25.326813      8.458378
  O      16.894224     26.021556      6.169768
  Si     16.925891     29.157223      7.686748
  Si     16.968222     35.389690      7.705645
  Si     19.629060     33.829133      7.812597
  Si     19.598759     30.719592      7.784673
  O      15.532206     29.933125      8.030669
  O      15.596920     34.584046      8.074016
  O      18.243404     34.562827      8.314420
  O      18.198213     30.002249      8.255677
  O      16.864753     27.639866      8.294839
  O      19.630837     32.268342      8.323809
  O      17.087426     28.983946      6.064503
  O      17.190411     35.444047      6.084909
  O      19.640412     33.793838      6.176339
  O      19.626449     30.722825      6.147595
  Si     16.955587     38.477590      7.784207
  O      15.618611     39.275107      8.291544
  O      18.323800     39.099481      8.409849
  O      16.889947     36.912123      8.289469
  O      16.970875     38.456421      6.146536
  O      20.813408     29.850994      8.433695
  O      20.936612     34.565499      8.449409
  H       4.074657     24.986772      8.036591
  H       1.410409     29.602015      8.036749
  H       1.410409     35.007985      8.036749
  H       4.074657     39.623228      8.036591
  H       8.948181     22.173255      8.038302
  H       8.948181     42.436745      8.038302
  H      14.277762     22.173204      8.038282
  H      14.277762     42.436796      8.038282
  H      18.960557     24.876228      8.036406
  H      18.960557     39.733772      8.036406
  H      21.624717     29.491420      8.036583
  H      21.624717     35.118580      8.036583
  H      13.348881     34.186390      5.637692
  H      10.838797     34.803022      5.607413
  H       9.021071     32.932888      5.586520
  H       9.784173     30.383357      5.644660
  H      12.270077     29.838778      5.675676
  H      14.018484     31.705796      5.646048
  H      13.500893     39.773425      5.726804
  H      10.821603     39.090665      5.673196
  H       8.151634     39.653101      5.748364
  H       6.085559     37.728717      5.728816
  H       5.285502     35.065766      5.681993
  H       3.487840     33.047803      5.724503
  H       4.114022     30.267358      5.739051
  H       6.043618     28.290490      5.675817
  H       6.888463     25.678438      5.756780
  H       9.585810     24.857471      5.735139
  H      12.301320     25.516890      5.711408
  H      14.933810     24.960718      5.741479
  H      17.029451     26.879787      5.742055
  H      17.777360     29.523630      5.656459
  H      19.633323     31.602453      5.745674
  H      18.953533     34.333586      5.757988
  H      17.082633     36.317687      5.683658
  H      16.233890     38.910429      5.717724
  P       8.662912     35.714021     13.370761
  O       9.225957     34.893597     14.480262
  O       7.233694     36.128307     13.363832
  O       9.638409     37.005073     13.249577
  O       8.898639     34.959957     11.949247
  C      10.195905     34.471023     11.655879
  C      10.060771     33.025076     11.228463
  O      11.276732     32.593636     10.602572
  C       9.818321     32.067776     12.381450
  O       9.036989     30.937703     12.033001
  C      11.241080     31.643919     12.748255
  O      11.318452     30.444701     13.455947
  C      11.915486     31.609849     11.369127
  N      13.331432     31.888806     11.384086
  C      13.932630     33.118571     11.389240
  N      15.237644     33.055871     11.365939
  C      15.515291     31.709295     11.345527
  C      16.715162     30.980694     11.308355
  N      17.921297     31.567051     11.310261
  N      16.640779     29.642182     11.300999
  C      15.441607     29.060268     11.322265
  N      14.246672     29.633254     11.356003
  C      14.340288     30.964249     11.359950
  H       9.308446     37.644288     12.608544
  H      10.628665     35.050200     10.836014
  H      10.854476     34.557265     12.524712
  H       9.253173     32.943019     10.496276
  H       9.310967     32.554667     13.213852
  H       9.278860     30.627263     11.152120
  H      11.715668     32.421266     13.352686
  H      10.603549     29.881688     13.126161
  H      11.805222     30.615569     10.919737
  H      13.347600     34.025316     11.390449
  H      17.993913     32.553149     11.123618
  H      18.727587     30.997917     11.114268
  H      15.449689     27.973844     11.305724
162
Coordinates from ORCA-job /data/Seafile/amp/frames/frame12/amp_frame12 E -13464.503810332777
  Si      3.503059     33.901729      7.781394
  Si      3.465570     30.785824      7.797157
  O       2.286537     34.790076      8.399525
  O       2.179169     30.030647      8.453322
  O       3.469826     32.348482      8.298316
  O       3.513818     33.915322      6.142739
  O       3.436534     30.817802      6.161512
  Si      6.150639     26.136248      7.801653
  Si      8.827558     24.548592      7.802712
  O       4.795750     25.499579      8.440278
  O       7.484002     25.336830      8.322265
  O       8.801812     23.048968      8.440310
  O       6.137984     26.139225      6.163177
  O       8.775220     24.553511      6.166467
  Si      6.131268     29.224606      7.696794
  Si      6.167797     35.452888      7.683029
  Si      8.894193     33.864199      7.592793
  Si      8.876711     30.779949      7.622222
  O       4.851797     30.049727      8.293677
  O       4.895623     34.622961      8.283462
  O       7.559729     34.674716      8.049765
  O       7.504066     30.029846      8.070846
  O       6.219184     27.706379      8.291947
  O       8.828286     32.328628      8.151511
  O       5.915602     29.164328      6.075186
  O       6.001595     35.598590      6.061467
  O       9.042555     33.828367      5.962769
  O       9.007507     30.853283      5.993799
  Si      6.194155     38.546137      7.791843
  Si      8.911000     40.065100      7.797540
  O       4.912987     39.323101      8.432472
  O       7.549916     39.311899      8.313599
  O       6.238265     36.974239      8.279354
  O       9.043925     41.555254      8.437682
  O       6.222165     38.589153      6.155779
  O       8.923216     40.079128      6.158492
  Si     11.518399     26.078972      7.709533
  Si     14.194145     24.541574      7.797663
  O      10.164784     25.370881      8.294504
  O      12.870461     25.380570      8.303965
  O      14.051575     23.041847      8.414940
  O      11.484781     25.885152      6.085167
  O      14.169951     24.548930      6.158607
  Si     11.519720     29.237563      7.665465
  Si     11.577855     35.373345      7.616143
  Si     14.227100     33.821485      7.640449
  Si     14.184771     30.753098      7.639674
  O      10.168821     29.976097      8.236875
  O      10.212385     34.656113      8.160793
  O      12.924172     34.642124      8.197204
  O      12.874336     29.962642      8.229004
  O      11.487704     27.667598      8.098465
  O      14.258647     32.284924      8.206490
  O      11.487003     29.385980      6.034318
  O      11.635111     35.222804      5.985853
  O      14.116697     33.712096      6.008953
  O      13.993521     30.804189      6.011727
  Si     11.590148     38.531283      7.688044
  Si     14.273453     40.064249      7.790615
  O      10.233769     39.216074      8.286340
  O      12.946408     39.224740      8.282978
  O      11.597699     36.939603      8.057000
  O      14.254350     41.554434      8.449752
  O      11.640438     38.750459      6.066489
  O      14.317728     40.079555      6.154753
  Si     16.908731     26.067519      7.800962
  O      15.553976     25.294158      8.312227
  O      18.208987     25.332828      8.454639
  O      16.888549     26.017805      6.165132
  Si     16.923048     29.153161      7.682595
  Si     16.969414     35.388199      7.703292
  Si     19.631140     33.826364      7.806781
  Si     19.596468     30.716659      7.781697
  O      15.532565     29.934440      8.027284
  O      15.603267     34.573772      8.074035
  O      18.249955     34.568305      8.308651
  O      18.197250     29.995761      8.251081
  O      16.855700     27.636537      8.291159
  O      19.623900     32.266377      8.318073
  O      17.083804     28.977861      6.060193
  O      17.187528     35.440851      6.081275
  O      19.644355     33.793229      6.170055
  O      19.626193     30.716199      6.144204
  Si     16.956606     38.475246      7.780525
  O      15.627494     39.283716      8.290326
  O      18.335170     39.082183      8.398476
  O      16.883483     36.910509      8.286349
  O      16.967275     38.456843      6.142184
  O      20.813261     29.851906      8.432629
  O      20.947602     34.547471      8.442518
  H       4.074657     24.986772      8.036591
  H       1.410409     29.602015      8.036749
  H       1.410409     35.007985      8.036749
  H       4.074657     39.623228      8.036591
  H       8.948181     22.173255      8.038302
  H       8.948181     42.436745      8.038302
  H      14.277762     22.173204      8.038282
  H      14.277762     42.436796      8.038282
  H      18.960557     24.876228      8.036406
  H      18.960557     39.733772      8.036406
  H      21.624717     29.491420      8.036583
  H      21.624717     35.118580      8.036583
  H      13.358709     34.186157      5.631334
  H      10.849259     34.809832      5.595894
  H       9.017252     32.939305      5.578239
  H       9.779537     30.386059      5.635607
  H      12.266945     29.835282      5.667991
  H      14.024709     31.699243      5.638119
  H      13.503386     39.779564      5.726433
  H      10.826421     39.092363      5.671958
  H       8.158586     39.656949      5.743929
  H       6.089120     37.732972      5.724938
  H       5.290703     35.067137      5.675844
  H       3.495012     33.045340      5.722506
  H       4.109641     30.268124      5.735361
  H       6.041943     28.294934      5.671608
  H       6.883025     25.680215      5.751853
  H       9.582438     24.861742      5.731913
  H      12.296141     25.519624      5.704417
  H      14.932699     24.967789      5.738033
  H      17.028587     26.875470      5.737902
  H      17.772025     29.518562      5.651034
  H      19.638820     31.594357      5.739557
  H      18.954062     34.329647      5.753076
  H      17.076377     36.313515      5.679191
  H      16.223969     38.905981      5.718948
  P       8.512790     35.763341     13.191416
  O       8.975814     34.974287     14.366876
  O       7.095948     36.197620     13.062005
  O       9.515825     37.033703     13.095388
  O       8.838879     34.952490     11.818332
  C      10.153947     34.464717     11.615125
  C      10.053577     33.004325     11.223854
  O      11.281891     32.587566     10.613712
  C       9.824974     32.073115     12.402135
  O       9.043220     30.932867     12.093926
  C      11.253776     31.663864     12.766771
  O      11.342871     30.478827     13.496079
  C      11.920990     31.609252     11.385546
  N      13.337416     31.883439     11.392446
  C      13.941809     33.111778     11.401847
  N      15.246510     33.045740     11.378432
  C      15.521072     31.698207     11.354199
  C      16.719172     30.966712     11.319257
  N      17.926398     31.549607     11.327336
  N      16.641993     29.628228     11.308915
  C      15.441053     29.049583     11.325048
  N      14.247302     29.625805     11.357026
  C      14.344145     30.956411     11.364707
  H       9.240929     37.658539     12.415304
  H      10.627253     35.023166     10.804288
  H      10.760602     34.579609     12.518094
  H       9.250692     32.888744     10.492490
  H       9.325404     32.581006     13.227211
  H       9.269198     30.603524     11.216239
  H      11.726797     32.456656     13.352283
  H      10.625920     29.907663     13.184844
  H      11.805750     30.609585     10.947901
  H      13.358910     34.019914     11.407734
  H      18.002865     32.537133     11.152322
  H      18.734324     30.978641     11.143989
  H      15.446329     27.963139     11.305978
162
Coordinates from ORCA-job /data/Seafile/amp/frames/frame12/amp_frame12 E -13464.504249734335
  Si      3.503618     33.903774      7.777164
  Si      3.464085     30.788915      7.794321
  O       2.294026     34.805435      8.389441
  O       2.182810     30.026161      8.450685
  O       3.460267     32.351256      8.295589
  O       3.511776     33.913199      6.138466
  O       3.433725     30.825067      6.158813
  Si      6.149261     26.139636      7.798043
  Si      8.823956     24.548375      7.797456
  O       4.796933     25.499113      8.438396
  O       7.485201     25.343675      8.317387
  O       8.780853     23.048515      8.432931
  O       6.133316     26.142158      6.159887
  O       8.772227     24.550284      6.161296
  Si      6.129720     29.228727      7.691127
  Si      6.166813     35.457104      7.677785
  Si      8.894214     33.869753      7.581097
  Si      8.876737     30.783618      7.613790
  O       4.852480     30.055847      8.289432
  O       4.898603     34.620284      8.277823
  O       7.562430     34.684605      8.041505
  O       7.504215     30.032684      8.063580
  O       6.213928     27.710346      8.286613
  O       8.827135     32.333429      8.141601
  O       5.908845     29.167597      6.070501
  O       6.000201     35.606119      6.056645
  O       9.038233     33.834587      5.951591
  O       9.003398     30.856071      5.985566
  Si      6.195591     38.550482      7.787751
  Si      8.914872     40.064745      7.795781
  O       4.922398     39.341755      8.425808
  O       7.555041     39.307990      8.309957
  O       6.231143     36.978144      8.274165
  O       9.043860     41.554812      8.436609
  O       6.221701     38.595818      6.151842
  O       8.929150     40.082223      6.157074
  Si     11.515699     26.078108      7.703601
  Si     14.190309     24.540321      7.790704
  O      10.165729     25.363787      8.288629
  O      12.871277     25.385833      8.296792
  O      14.025139     23.040270      8.401617
  O      11.478509     25.884568      6.079218
  O      14.172417     24.547722      6.151778
  Si     11.518143     29.235539      7.655920
  Si     11.583349     35.373789      7.605774
  Si     14.230530     33.818121      7.635455
  Si     14.184065     30.749232      7.634718
  O      10.169463     29.977556      8.225761
  O      10.215691     34.657887      8.146734
  O      12.927999     34.641860      8.190753
  O      12.874119     29.957191      8.221559
  O      11.479878     27.666556      8.092866
  O      14.257638     32.281491      8.201890
  O      11.486060     29.378126      6.024737
  O      11.646173     35.227342      5.976001
  O      14.125975     33.709085      6.004531
  O      13.997953     30.796159      6.007190
  Si     11.594367     38.531944      7.684606
  Si     14.276941     40.063827      7.791059
  O      10.239523     39.218666      8.284087
  O      12.951319     39.221097      8.281692
  O      11.600681     36.939074      8.050192
  O      14.246048     41.554231      8.448524
  O      11.645994     38.756850      6.063991
  O      14.326858     40.075624      6.155424
  Si     16.905423     26.063479      7.798327
  O      15.555566     25.281189      8.307988
  O      18.209814     25.336903      8.451239
  O      16.882551     26.012942      6.162467
  Si     16.920082     29.148890      7.681346
  Si     16.970917     35.386915      7.700087
  Si     19.633463     33.823477      7.800817
  Si     19.594219     30.713345      7.780568
  O      15.532702     29.934694      8.028667
  O      15.609056     34.564866      8.073167
  O      18.256543     34.573805      8.302073
  O      18.196532     29.989243      8.249582
  O      16.848446     27.632362      8.289095
  O      19.617610     32.264478      8.312937
  O      17.079237     28.971926      6.059380
  O      17.186508     35.438392      6.077616
  O      19.649995     33.791468      6.164201
  O      19.625068     30.707854      6.143270
  Si     16.956808     38.473644      7.778370
  O      15.634697     39.291207      8.291867
  O      18.343510     39.069266      8.388774
  O      16.879283     36.909191      8.283699
  O      16.962355     38.458559      6.139908
  O      20.813264     29.852464      8.432324
  O      20.957850     34.530355      8.434988
  H       4.074657     24.986772      8.036591
  H       1.410409     29.602015      8.036749
  H       1.410409     35.007985      8.036749
  H       4.074657     39.623228      8.036591
  H       8.948181     22.173255      8.038302
  H       8.948181     42.436745      8.038302
  H      14.277762     22.173204      8.038282
  H      14.277762     42.436796      8.038282
  H      18.960557     24.876228      8.036406
  H      18.960557     39.733772      8.036406
  H      21.624717     29.491420      8.036583
  H      21.624717     35.118580      8.036583
  H      13.371000     34.185051      5.623677
  H      10.860483     34.819212      5.581357
  H       9.011744     32.945395      5.567684
  H       9.771512     30.384686      5.624956
  H      12.266151     29.826738      5.658361
  H      14.034961     31.689480      5.630579
  H      13.509976     39.783455      5.726286
  H      10.830304     39.098031      5.671935
  H       8.164662     39.661528      5.740827
  H       6.093855     37.738475      5.721669
  H       5.291701     35.072068      5.670372
  H       3.501351     33.039771      5.724523
  H       4.104489     30.272330      5.732620
  H       6.036520     28.297362      5.668858
  H       6.877044     25.681771      5.747710
  H       9.577254     24.868000      5.729196
  H      12.290129     25.521033      5.697304
  H      14.933428     24.977098      5.738117
  H      17.024695     26.870613      5.735822
  H      17.767292     29.513047      5.650447
  H      19.641707     31.584428      5.735617
  H      18.955557     34.323103      5.748013
  H      17.072419     36.310691      5.675709
  H      16.210994     38.902158      5.724354
  P       8.398768     35.840918     12.983245
  O       8.809152     35.131593     14.225915
  O       6.986141     36.244448     12.752160
  O       9.387177     37.118782     12.858989
  O       8.802969     34.953571     11.680556
  C      10.125773     34.461451     11.563357
  C      10.050859     32.987120     11.215004
  O      11.288757     32.580629     10.619299
  C       9.834095     32.085959     12.418928
  O       9.054269     30.936273     12.151102
  C      11.268123     31.691712     12.783108
  O      11.367498     30.524669     13.539277
  C      11.926976     31.609267     11.399455
  N      13.343982     31.877423     11.396359
  C      13.951917     33.104185     11.409842
  N      15.256527     33.034562     11.387313
  C      15.527325     31.685875     11.359684
  C      16.723803     30.951354     11.327814
  N      17.932199     31.530989     11.342383
  N      16.643391     29.612993     11.314085
  C      15.440640     29.037910     11.324098
  N      14.248123     29.617362     11.353488
  C      14.348492     30.947577     11.365540
  H       9.128812     37.701771     12.136418
  H      10.636705     34.991845     10.757392
  H      10.687141     34.608342     12.491064
  H       9.252859     32.841113     10.484548
  H       9.338350     32.616990     13.232090
  H       9.261433     30.594239     11.274203
  H      11.740634     32.502299     13.344564
  H      10.645895     29.947213     13.250643
  H      11.804816     30.603523     10.976991
  H      13.371760     34.014316     11.419924
  H      18.011631     32.519957     11.178416
  H      18.741479     30.958294     11.171369
  H      15.442966     27.951483     11.302644
162
Coordinates from ORCA-job /data/Seafile/amp/frames/frame12/amp_frame12 E -13464.504751460299
  Si      3.504463     33.905216      7.773147
  Si      3.461571     30.792952      7.792176
  O       2.302552     34.822425      8.377234
  O       2.186642     30.021075      8.447990
  O       3.448420     32.354301      8.295377
  O       3.507578     33.906671      6.134331
  O       3.427458     30.836601      6.156903
  Si      6.147013     26.143481      7.792836
  Si      8.819182     24.547495      7.790110
  O       4.798211     25.498680      8.436333
  O       7.487112     25.353111      8.309528
  O       8.750665     23.047305      8.421320
  O       6.125073     26.144172      6.155383
  O       8.769028     24.545105      6.154072
  Si      6.126851     29.233718      7.681787
  Si      6.165668     35.462095      7.668840
  Si      8.894597     33.875823      7.557174
  Si      8.876276     30.787345      7.597084
  O       4.852496     30.062781      8.283182
  O       4.902651     34.616707      8.269424
  O       7.566270     34.695253      8.023864
  O       7.502665     30.037968      8.049513
  O       6.206341     27.715248      8.277596
  O       8.826050     32.338917      8.121097
  O       5.896933     29.170895      6.062976
  O       5.994733     35.618882      6.048938
  O       9.032570     33.841075      5.928810
  O       8.997290     30.856697      5.969364
  Si      6.197318     38.555462      7.782667
  Si      8.919154     40.064913      7.793805
  O       4.934446     39.365602      8.416501
  O       7.561704     39.301980      8.304848
  O       6.222208     36.982365      8.266337
  O       9.043748     41.554505      8.436095
  O       6.220354     38.605602      6.147011
  O       8.935338     40.088979      6.155887
  Si     11.511855     26.076275      7.696262
  Si     14.185544     24.538578      7.782695
  O      10.166986     25.353166      8.281042
  O      12.872500     25.392517      8.287432
  O      13.990116     23.037265      8.381871
  O      11.468049     25.881126      6.072113
  O      14.179110     24.547245      6.144046
  Si     11.516148     29.232196      7.642157
  Si     11.591281     35.375241      7.584918
  Si     14.235450     33.814329      7.626572
  Si     14.183515     30.743898      7.629701
  O      10.169750     29.979892      8.206627
  O      10.219612     34.660949      8.118101
  O      12.933093     34.643081      8.178036
  O      12.873353     29.949518      8.210990
  O      11.470227     27.664618      8.085224
  O      14.256342     32.277807      8.194320
  O      11.485558     29.365704      6.011161
  O      11.664842     35.234688      5.956354
  O      14.139800     33.702813      5.996927
  O      14.008854     30.782370      6.002670
  Si     11.598971     38.533821      7.677237
  Si     14.281137     40.063630      7.792677
  O      10.246563     39.222404      8.279674
  O      12.956534     39.217133      8.278288
  O      11.606319     36.938968      8.035298
  O      14.233901     41.554221      8.447126
  O      11.652084     38.769671      6.058532
  O      14.342626     40.070325      6.157486
  Si     16.900469     26.057624      7.798321
  O      15.557821     25.262418      8.305776
  O      18.210219     25.340353      8.447846
  O      16.872803     26.006877      6.162381
  Si     16.914650     29.143252      7.686249
  Si     16.973491     35.386400      7.695318
  Si     19.636713     33.819427      7.793121
  Si     19.590480     30.708073      7.783297
  O      15.532159     29.935682      8.038824
  O      15.616242     34.555510      8.069850
  O      18.266116     34.582683      8.292120
  O      18.195365     29.979518      8.253527
  O      16.837996     27.625732      8.290264
  O      19.607949     32.262007      8.307183
  O      17.070788     28.965019      6.064803
  O      17.187205     35.437392      6.072520
  O      19.658421     33.787636      6.156835
  O      19.621040     30.693571      6.146451
  Si     16.955654     38.472807      7.777959
  O      15.642700     39.301288      8.298025
  O      18.351368     39.056896      8.378147
  O      16.875054     36.908322      8.281029
  O      16.952926     38.463522      6.139351
  O      20.813962     29.852896      8.434214
  O      20.972218     34.506884      8.423667
  H       4.074657     24.986772      8.036591
  H       1.410409     29.602015      8.036749
  H       1.410409     35.007985      8.036749
  H       4.074657     39.623228      8.036591
  H       8.948181     22.173255      8.038302
  H       8.948181     42.436745      8.038302
  H      14.277762     22.173204      8.038282
  H      14.277762     42.436796      8.038282
  H      18.960557     24.876228      8.036406
  H      18.960557     39.733772      8.036406
  H      21.624717     29.491420      8.036583
  H      21.624717     35.118580      8.036583
  H      13.389462     34.181075      5.610268
  H      10.879860     34.833310      5.554329
  H       9.004654     32.951252      5.546349
  H       9.760729     30.380273      5.606532
  H      12.265979     29.812606      5.644464
  H      14.051496     31.673518      5.622121
  H      13.523136     39.788735      5.725770
  H      10.833879     39.112632      5.672524
  H       8.171497     39.668939      5.737751
  H       6.099793     37.746571      5.717863
  H       5.289384     35.080976      5.662497
  H       3.509613     33.026751      5.732905
  H       4.095505     30.280680      5.730138
  H       6.024969     28.298237      5.666087
  H       6.867687     25.682799      5.742205
  H       9.570824     24.878503      5.727194
  H      12.281207     25.523814      5.687907
  H      14.938471     24.993546      5.744125
  H      17.016294     26.865341      5.737485
  H      17.759605     29.506974      5.657851
  H      19.642191     31.567464      5.733690
  H      18.958326     34.312421      5.741551
  H      17.068401     36.309700      5.672051
  H      16.188608     38.899960      5.738309
  P       8.159562     35.976000     12.441163
  O       8.421925     35.446510     13.805753
  O       6.781695     36.286716     11.975630
  O       9.118832     37.269987     12.274905
  O       8.749430     34.950736     11.327380
  C      10.070080     34.459643     11.432533
  C      10.046065     32.962537     11.181489
  O      11.301410     32.569532     10.617545
  C       9.846913     32.121984     12.432146
  O       9.073832     30.954857     12.237078
  C      11.288411     31.755864     12.802465
  O      11.402747     30.627891     13.612951
  C      11.936240     31.614515     11.418368
  N      13.354525     31.871098     11.398750
  C      13.968756     33.094973     11.418142
  N      15.273247     33.019155     11.398103
  C      15.537302     31.668636     11.366300
  C      16.731149     30.928862     11.340033
  N      17.941532     31.503180     11.364478
  N      16.644878     29.590835     11.321185
  C      15.439217     29.021859     11.321247
  N      14.248975     29.606635     11.346172
  C      14.355124     30.936290     11.365047
  H       8.921980     37.751733     11.463441
  H      10.684716     34.927017     10.660361
  H      10.503158     34.680752     12.413410
  H       9.259908     32.754612     10.452409
  H       9.353909     32.695756     13.218111
  H       9.244202     30.590077     11.361183
  H      11.759021     32.599200     13.315928
  H      10.675234     30.038845     13.364428
  H      11.801712     30.597056     11.029007
  H      13.393837     34.008740     11.432841
  H      18.025238     32.494098     11.216615
  H      18.752406     30.927556     11.212743
  H      15.436506     27.935481     11.296120
162
Coordinates from ORCA-job /data/Seafile/amp/frames/frame12/amp_frame12 E -13464.505144254896
  Si      3.503772     33.905673      7.770403
  Si      3.461267     30.793402      7.793126
  O       2.303933     34.824868      8.374702
  O       2.186761     30.020743      8.448415
  O       3.447477     32.355433      8.295043
  O       3.505724     33.903794      6.131698
  O       3.429215     30.836003      6.157863
  Si      6.146647     26.144024      7.794413
  Si      8.818932     24.547471      7.791115
  O       4.798325     25.498065      8.437213
  O       7.487215     25.354197      8.310704
  O       8.747394     23.046883      8.420823
  O       6.125695     26.145841      6.157105
  O       8.771043     24.547078      6.155117
  Si      6.126733     29.234485      7.684775
  Si      6.164740     35.462526      7.662905
  Si      8.894157     33.875185      7.556249
  Si      8.875765     30.787652      7.600639
  O       4.852043     30.064144      8.285466
  O       4.902556     34.617091      8.264760
  O       7.564640     34.695607      8.017833
  O       7.502314     30.037939      8.053225
  O       6.205650     27.715554      8.279765
  O       8.824955     32.339474      8.123206
  O       5.898404     29.172456      6.065918
  O       5.991648     35.619259      6.043320
  O       9.034362     33.836710      5.928249
  O       8.997752     30.855471      5.973050
  Si      6.197017     38.555528      7.781164
  Si      8.919136     40.064973      7.794482
  O       4.934893     39.366123      8.415712
  O       7.562098     39.300842      8.304657
  O       6.220984     36.982221      8.262502
  O       9.042867     41.554557      8.436758
  O       6.220202     38.605516      6.145616
  O       8.935555     40.088033      6.156725
  Si     11.511390     26.077061      7.698280
  Si     14.184757     24.538550      7.783333
  O      10.167129     25.351935      8.282974
  O      12.872575     25.393585      8.288648
  O      13.986419     23.036822      8.380246
  O      11.467563     25.882820      6.074267
  O      14.179511     24.549993      6.144843
  Si     11.515691     29.233126      7.646647
  Si     11.590916     35.374748      7.584871
  Si     14.234992     33.813958      7.627658
  Si     14.183360     30.744170      7.633284
  O      10.169641     29.982113      8.210843
  O      10.219547     34.659678      8.116639
  O      12.932365     34.642398      8.178227
  O      12.873025     29.950139      8.214619
  O      11.469225     27.665051      8.088778
  O      14.255125     32.278181      8.196817
  O      11.486114     29.367768      6.016017
  O      11.665367     35.234270      5.956512
  O      14.138689     33.701965      5.998190
  O      14.008109     30.782540      6.006241
  Si     11.598875     38.533332      7.677953
  Si     14.280997     40.063658      7.792809
  O      10.246440     39.222214      8.280483
  O      12.957006     39.216579      8.278827
  O      11.605587     36.938633      8.035770
  O      14.231364     41.554141      8.446882
  O      11.651113     38.769228      6.059549
  O      14.342415     40.068830      6.157605
  Si     16.900243     26.057339      7.799997
  O      15.557832     25.260832      8.307346
  O      18.211152     25.341491      8.448347
  O      16.871024     26.008820      6.164202
  Si     16.913745     29.142976      7.689248
  Si     16.972713     35.386399      7.694755
  Si     19.636526     33.819164      7.792847
  Si     19.590054     30.707016      7.783928
  O      15.532456     29.936675      8.043414
  O      15.616036     34.555353      8.070461
  O      18.266579     34.583744      8.291530
  O      18.195776     29.977808      8.255721
  O      16.836634     27.624989      8.292747
  O      19.606426     32.261282      8.306807
  O      17.069557     28.965141      6.067899
  O      17.185684     35.438344      6.072316
  O      19.656095     33.788520      6.156691
  O      19.618974     30.692367      6.147210
  Si     16.955813     38.472881      7.777242
  O      15.643215     39.301861      8.298439
  O      18.352452     39.054964      8.376826
  O      16.874207     36.908312      8.280445
  O      16.950546     38.463976      6.138847
  O      20.814691     29.853647      8.434740
  O      20.973400     34.504852      8.422584
  H       4.074657     24.986772      8.036591
  H       1.410409     29.602015      8.036749
  H       1.410409     35.007985      8.036749
  H       4.074657     39.623228      8.036591
  H       8.948181     22.173255      8.038302
  H       8.948181     42.436745      8.038302
  H      14.277762     22.173204      8.038282
  H      14.277762     42.436796      8.038282
  H      18.960557     24.876228      8.036406
  H      18.960557     39.733772      8.036406
  H      21.624717     29.491420      8.036583
  H      21.624717     35.118580      8.036583
  H      13.388579     34.180489      5.611372
  H      10.880008     34.834467      5.553683
  H       9.009446     32.946297      5.547332
  H       9.762455     30.380522      5.610989
  H      12.266578     29.814722      5.649306
  H      14.051357     31.673514      5.625169
  H      13.522611     39.788344      5.725817
  H      10.833030     39.113240      5.674089
  H       8.172047     39.667303      5.738530
  H       6.101112     37.746138      5.716379
  H       5.285209     35.082385      5.657252
  H       3.510429     33.022923      5.732122
  H       4.096869     30.278898      5.731972
  H       6.025844     28.299836      5.668758
  H       6.868508     25.684984      5.743734
  H       9.572344     24.883470      5.729504
  H      12.280791     25.526990      5.688793
  H      14.938692     24.997928      5.746164
  H      17.015312     26.867669      5.740171
  H      17.757970     29.507722      5.660824
  H      19.639350     31.566236      5.734225
  H      18.954917     34.312436      5.742049
  H      17.067936     36.310981      5.672059
  H      16.185283     38.900430      5.739301
  P       8.193136     36.019717     12.430749
  O       8.516855     35.564904     13.809455
  O       6.793881     36.299006     12.009091
  O       9.134472     37.310487     12.159353
  O       8.744852     34.943312     11.348174
  C      10.069981     34.460689     11.430541
  C      10.049348     32.961746     11.186027
  O      11.306568     32.568793     10.623661
  C       9.854137     32.127540     12.441914
  O       9.084494     30.956059     12.254659
  C      11.295703     31.768526     12.814100
  O      11.413266     30.647426     13.633393
  C      11.940987     31.617080     11.429944
  N      13.358958     31.871649     11.405253
  C      13.973950     33.094932     11.424860
  N      15.278336     33.017994     11.403260
  C      15.541027     31.667350     11.370581
  C      16.734284     30.926441     11.345047
  N      17.944832     31.499679     11.370358
  N      16.646424     29.588493     11.325705
  C      15.440397     29.020518     11.325449
  N      14.250845     29.606223     11.351264
  C      14.358405     30.935853     11.370553
  H       8.904347     37.745175     11.330021
  H      10.670854     34.926814     10.648178
  H      10.517733     34.689376     12.402825
  H       9.263630     32.746532     10.458257
  H       9.359075     32.702510     13.225418
  H       9.252761     30.586988     11.380001
  H      11.765548     32.617058     13.319813
  H      10.687071     30.054936     13.389456
  H      11.803455     30.597284     11.048752
  H      13.399449     34.009100     11.440568
  H      18.030382     32.490920     11.225483
  H      18.755939     30.923817     11.221336
  H      15.436673     27.934149     11.299612
162
Coordinates from ORCA-job /data/Seafile/amp/frames/frame12/amp_frame12 E -13464.505714496223
  Si      3.503573     33.905762      7.768514
  Si      3.460856     30.794329      7.793812
  O       2.306590     34.829861      8.370373
  O       2.187969     30.018847      8.447978
  O       3.444320     32.356414      8.295754
  O       3.503794     33.899421      6.129800
  O       3.430335     30.838606      6.158485
  Si      6.146147     26.145107      7.794159
  Si      8.818153     24.547463      7.789890
  O       4.799142     25.497040      8.437128
  O       7.488028     25.357023      8.309543
  O       8.738298     23.046450      8.417092
  O       6.124582     26.147538      6.156982
  O       8.773216     24.547756      6.153832
  Si      6.126298     29.235999      7.685563
  Si      6.163857     35.463317      7.658180
  Si      8.893403     33.875518      7.550232
  Si      8.875152     30.788267      7.600869
  O       4.851699     30.065941      8.286447
  O       4.903310     34.616098      8.260927
  O       7.564456     34.697691      8.010812
  O       7.501676     30.038870      8.054621
  O       6.203752     27.716557      8.279457
  O       8.824630     32.340855      8.121049
  O       5.898246     29.174560      6.066773
  O       5.988777     35.621292      6.038996
  O       9.031618     33.833979      5.922563
  O       8.996191     30.853524      5.973331
  Si      6.197101     38.556177      7.779175
  Si      8.919733     40.064905      7.794170
  O       4.937966     39.371849      8.412697
  O       7.563703     39.298489      8.303439
  O       6.218171     36.982722      8.258878
  O       9.041959     41.554374      8.436729
  O       6.219544     38.606351      6.143629
  O       8.936438     40.088799      6.156559
  Si     11.510426     26.077687      7.698837
  Si     14.183260     24.538370      7.781929
  O      10.167698     25.348873      8.282881
  O      12.872876     25.395624      8.287760
  O      13.975959     23.035902      8.373935
  O      11.465127     25.885311      6.074721
  O      14.181917     24.552494      6.143534
  Si     11.515000     29.233065      7.648352
  Si     11.592056     35.374937      7.579052
  Si     14.235775     33.813232      7.626570
  Si     14.183318     30.743519      7.636331
  O      10.169420     29.983866      8.210848
  O      10.219905     34.659620      8.107975
  O      12.932052     34.641667      8.174723
  O      12.872311     29.949763      8.216408
  O      11.466569     27.665053      8.091712
  O      14.254298     32.278237      8.197943
  O      11.486711     29.365840      6.017911
  O      11.669819     35.236282      5.951046
  O      14.142274     33.700080      5.997437
  O      14.010957     30.778980      6.009276
  Si     11.599388     38.533232      7.676220
  Si     14.281358     40.063448      7.793018
  O      10.247418     39.222482      8.279548
  O      12.957744     39.215553      8.278075
  O      11.606036     36.938331      8.032527
  O      14.225931     41.553960      8.445832
  O      11.650947     38.771071      6.058276
  O      14.345806     40.065701      6.157797
  Si     16.898793     26.056314      7.801301
  O      15.558275     25.255818      8.308126
  O      18.211881     25.343457      8.447604
  O      16.866769     26.010017      6.165461
  Si     16.911463     29.142080      7.693689
  Si     16.972054     35.386822      7.693386
  Si     19.636627     33.818534      7.790364
  Si     19.588688     30.705381      7.785073
  O      15.532571     29.938258      8.051891
  O      15.617090     34.553792      8.071264
  O      18.268559     34.586785      8.288275
  O      18.195727     29.974874      8.259047
  O      16.833584     27.623282      8.295512
  O      19.602824     32.260712      8.304846
  O      17.065189     28.965292      6.072219
  O      17.182535     35.439148      6.070888
  O      19.655652     33.789196      6.154274
  O      19.616062     30.688050      6.148452
  Si     16.955194     38.473168      7.776851
  O      15.644704     39.304513      8.300454
  O      18.354387     39.051615      8.373499
  O      16.872733     36.908557      8.279762
  O      16.946029     38.466087      6.138498
  O      20.815567     29.855084      8.435513
  O      20.977067     34.498380      8.418575
  H       4.074657     24.986772      8.036591
  H       1.410409     29.602015      8.036749
  H       1.410409     35.007985      8.036749
  H       4.074657     39.623228      8.036591
  H       8.948181     22.173255      8.038302
  H       8.948181     42.436745      8.038302
  H      14.277762     22.173204      8.038282
  H      14.277762     42.436796      8.038282
  H      18.960557     24.876228      8.036406
  H      18.960557     39.733772      8.036406
  H      21.624717     29.491420      8.036583
  H      21.624717     35.118580      8.036583
  H      13.393385     34.178364      5.608146
  H      10.885642     34.837533      5.545320
  H       9.007663     32.943038      5.542871
  H       9.760468     30.378376      5.610814
  H      12.267045     29.812421      5.650654
  H      14.056482     31.668683      5.625683
  H      13.525310     39.788701      5.725032
  H      10.832679     39.116866      5.674602
  H       8.173076     39.668363      5.737836
  H       6.102605     37.746479      5.714773
  H       5.282728     35.084176      5.652720
  H       3.514240     33.016495      5.734525
  H       4.097857     30.280925      5.733013
  H       6.024865     28.301485      5.670210
  H       6.867028     25.686669      5.743013
  H       9.573292     24.890514      5.730795
  H      12.278225     25.531648      5.687159
  H      14.940552     25.005428      5.749129
  H      17.011518     26.869434      5.742633
  H      17.753671     29.507936      5.665242
  H      19.637297     31.560959      5.733640
  H      18.952334     34.310703      5.740302
  H      17.064384     36.311812      5.670836
  H      16.177105     38.900759      5.743524
  P       8.176082     36.109428     12.219206
  O       8.572950     35.851465     13.629302
  O       6.750614     36.279142     11.826497
  O       9.048239     37.389956     11.742036
  O       8.731038     34.925164     11.259972
  C      10.057357     34.459375     11.386255
  C      10.052420     32.955021     11.179128
  O      11.315138     32.565472     10.627123
  C       9.864300     32.144508     12.452112
  O       9.098295     30.966648     12.291403
  C      11.307764     31.796602     12.827210
  O      11.430267     30.690788     13.666024
  C      11.948981     31.622019     11.443851
  N      13.366951     31.872153     11.411383
  C      13.984668     33.094069     11.432361
  N      15.288896     33.014213     11.409966
  C      15.548567     31.662991     11.375774
  C      16.740509     30.919454     11.352173
  N      17.951988     31.489977     11.380306
  N      16.649692     29.581783     11.331588
  C      15.442482     29.016585     11.329011
  N      14.254133     29.604699     11.354538
  C      14.364365     30.934083     11.375325
  H       8.765967     37.702752     10.874816
  H      10.674749     34.906189     10.605161
  H      10.478428     34.717899     12.363166
  H       9.270420     32.715750     10.454405
  H       9.368899     32.732022     13.226285
  H       9.254712     30.586854     11.418992
  H      11.776958     32.655906     13.315293
  H      10.703297     30.093807     13.435316
  H      11.806707     30.597242     11.078127
  H      13.412211     34.009498     11.449723
  H      18.040466     32.481772     11.242034
  H      18.763373     30.912797     11.238084
  H      15.436404     27.930299     11.301889
162
Coordinates from ORCA-job /data/Seafile/amp/frames/frame12/amp_frame12 E -13464.507178899497
  Si      3.502103     33.904097      7.770263
  Si      3.461478     30.793066      7.800191
  O       2.303608     34.823410      8.374412
  O       2.186111     30.019339      8.450982
  O       3.448653     32.355768      8.303252
  O       3.501493     33.891553      6.131688
  O       3.436289     30.836331      6.164628
  Si      6.145950     26.143991      7.799229
  Si      8.819956     24.547634      7.795554
  O       4.798847     25.495285      8.440018
  O       7.487770     25.355918      8.314564
  O       8.741048     23.045704      8.420452
  O       6.127566     26.148736      6.162048
  O       8.781273     24.552824      6.159403
  Si      6.127061     29.234813      7.695885
  Si      6.161207     35.462196      7.652388
  Si      8.890314     33.870003      7.556277
  Si      8.873822     30.786495      7.617345
  O       4.849767     30.063098      8.295417
  O       4.900707     34.618388      8.258820
  O       7.558028     34.693125      8.003675
  O       7.499428     30.037793      8.069500
  O       6.204915     27.714330      8.286891
  O       8.823755     32.339200      8.137598
  O       5.906225     29.175788      6.076129
  O       5.981125     35.618992      6.033947
  O       9.030225     33.818638      5.928883
  O       8.997953     30.847905      5.989869
  Si      6.195689     38.554097      7.780054
  Si      8.917374     40.065404      7.796983
  O       4.934352     39.364438      8.415779
  O       7.562068     39.298086      8.306450
  O       6.218547     36.980953      8.256581
  O       9.040177     41.555035      8.438997
  O       6.219109     38.602876      6.144412
  O       8.932877     40.086555      6.159380
  Si     11.511250     26.080045      7.709477
  Si     14.184453     24.539220      7.790149
  O      10.167492     25.350136      8.292609
  O      12.872890     25.394494      8.297337
  O      13.983813     23.035208      8.380092
  O      11.466124     25.890833      6.085471
  O      14.183641     24.559420      6.151897
  Si     11.515499     29.235262      7.666052
  Si     11.587383     35.373266      7.583715
  Si     14.232612     33.814326      7.634149
  Si     14.184195     30.745763      7.651981
  O      10.169047     29.986778      8.226832
  O      10.215627     34.656401      8.110588
  O      12.926343     34.639052      8.179948
  O      12.871479     29.954191      8.232101
  O      11.470195     27.666147      8.107326
  O      14.252981     32.281351      8.209309
  O      11.488475     29.371384      6.036176
  O      11.665717     35.233346      5.955899
  O      14.138381     33.698790      6.005014
  O      14.012264     30.780045      6.024245
  Si     11.595905     38.531324      7.679957
  Si     14.278480     40.062999      7.795971
  O      10.243194     39.220087      8.283228
  O      12.954155     39.217037      8.281611
  O      11.603702     36.937390      8.037990
  O      14.223348     41.554332      8.446415
  O      11.644000     38.765925      6.062007
  O      14.343281     40.061328      6.160467
  Si     16.899769     26.058204      7.808670
  O      15.557584     25.260254      8.318665
  O      18.213360     25.343111      8.450873
  O      16.864012     26.016908      6.172952
  Si     16.909771     29.144635      7.705730
  Si     16.968253     35.388327      7.696794
  Si     19.634272     33.819955      7.792181
  Si     19.588258     30.704845      7.787851
  O      15.532684     29.940078      8.072197
  O      15.611701     34.560565      8.077783
  O      18.265819     34.586814      8.291100
  O      18.196957     29.975036      8.268422
  O      16.835857     27.623897      8.304953
  O      19.602191     32.260693      8.305498
  O      17.059480     28.972181      6.083442
  O      17.175406     35.443077      6.074905
  O      19.647004     33.793032      6.156241
  O      19.610110     30.687756      6.151269
  Si     16.954017     38.474797      7.780980
  O      15.639722     39.300499      8.307536
  O      18.349710     39.059053      8.379593
  O      16.874481     36.909846      8.284321
  O      16.940607     38.466828      6.143001
  O      20.817470     29.857491      8.437178
  O      20.974096     34.502270      8.419774
  H       4.074658     24.986772      8.036591
  H       1.410409     29.602015      8.036749
  H       1.410409     35.007985      8.036749
  H       4.074657     39.623228      8.036591
  H       8.948181     22.173255      8.038302
  H       8.948181     42.436745      8.038302
  H      14.277762     22.173204      8.038282
  H      14.277762     42.436796      8.038282
  H      18.960557     24.876228      8.036406
  H      18.960556     39.733772      8.036406
  H      21.624717     29.491420      8.036583
  H      21.624717     35.118580      8.036583
  H      13.388635     34.174532      5.614488
  H      10.883693     34.830912      5.549913
  H       9.009470     32.926540      5.551865
  H       9.765672     30.375838      5.629816
  H      12.268548     29.816830      5.667067
  H      14.056012     31.669421      5.639471
  H      13.524225     39.782256      5.726579
  H      10.826776     39.115825      5.679663
  H       8.169721     39.664918      5.741502
  H       6.099763     37.743508      5.715349
  H       5.273334     35.083770      5.648463
  H       3.514144     33.007276      5.739443
  H       4.107271     30.281816      5.740346
  H       6.029828     28.302474      5.678957
  H       6.870935     25.689606      5.747901
  H       9.581742     24.898441      5.739471
  H      12.278241     25.539955      5.693871
  H      14.943623     25.011083      5.758665
  H      17.006175     26.877635      5.751762
  H      17.748553     29.514272      5.676584
  H      19.629046     31.560727      5.736466
  H      18.943761     34.315188      5.743287
  H      17.058458     36.316003      5.675100
  H      16.172397     38.904194      5.749554
  P       8.321414     36.287417     12.101439
  O       9.103802     36.468445     13.354882
  O       6.831900     36.283142     12.102345
  O       8.876442     37.415250     11.071457
  O       8.743850     34.905642     11.369985
  C      10.083421     34.466536     11.393193
  C      10.068850     32.963006     11.196456
  O      11.328962     32.564660     10.637423
  C       9.886359     32.160966     12.474973
  O       9.121573     30.980524     12.318416
  C      11.327252     31.814534     12.850664
  O      11.448719     30.711978     13.693974
  C      11.964021     31.629277     11.466991
  N      13.381502     31.876403     11.425517
  C      14.001428     33.097094     11.445394
  N      15.305447     33.014407     11.418686
  C      15.562212     31.662993     11.384018
  C      16.752854     30.916714     11.360091
  N      17.964881     31.485079     11.387083
  N      16.658717     29.579518     11.339429
  C      15.450635     29.016750     11.339570
  N      14.263730     29.606920     11.369205
  C      14.376627     30.936196     11.388565
  H       8.347601     37.442993     10.265836
  H      10.643778     34.907064     10.566407
  H      10.567433     34.737789     12.336851
  H       9.281840     32.718014     10.480331
  H       9.389873     32.745024     13.251104
  H       9.270001     30.602724     11.443874
  H      11.800028     32.673881     13.334820
  H      10.723618     30.113168     13.462126
  H      11.817845     30.600725     11.114823
  H      13.430656     34.013350     11.462559
  H      18.056682     32.477091     11.252622
  H      18.776248     30.907503     11.245301
  H      15.442272     27.930547     11.311373
162
Coordinates from ORCA-job /data/Seafile/amp/frames/frame12/amp_frame12 E -13464.507777109833
  Si      3.502202     33.903684      7.771315
  Si      3.461493     30.793143      7.802211
  O       2.302539     34.820918      8.376764
  O       2.185706     30.018857      8.452570
  O       3.450907     32.355707      8.307792
  O       3.501231     33.888743      6.132736
  O       3.435469     30.836610      6.166510
  Si      6.145233     26.143754      7.799415
  Si      8.820139     24.547324      7.796077
  O       4.798267     25.495228      8.441357
  O       7.487608     25.356220      8.314402
  O       8.741085     23.045285      8.421778
  O       6.126325     26.147962      6.162162
  O       8.783337     24.552797      6.159925
  Si      6.126788     29.234586      7.695922
  Si      6.160953     35.462203      7.649723
  Si      8.890097     33.867333      7.552903
  Si      8.873839     30.786133      7.618297
  O       4.849804     30.063318      8.296916
  O       4.900998     34.618819      8.258665
  O       7.557534     34.691707      7.995177
  O       7.498597     30.037863      8.068766
  O       6.204896     27.714073      8.287270
  O       8.822734     32.338863      8.139112
  O       5.904920     29.175363      6.076153
  O       5.975810     35.622063      6.032319
  O       9.029589     33.812150      5.925196
  O       9.000255     30.845413      5.990535
  Si      6.195095     38.554111      7.779026
  Si      8.917104     40.065871      7.796389
  O       4.933691     39.363131      8.417167
  O       7.562587     39.296577      8.307019
  O       6.219422     36.981145      8.256097
  O       9.039765     41.555151      8.440205
  O       6.219516     38.603812      6.143382
  O       8.930546     40.087860      6.158783
  Si     11.510810     26.080313      7.710719
  Si     14.184870     24.539744      7.791704
  O      10.167033     25.350348      8.295156
  O      12.873110     25.395071      8.298671
  O      13.987023     23.035352      8.382204
  O      11.464760     25.890056      6.086973
  O      14.184764     24.561339      6.153406
  Si     11.516330     29.235822      7.668811
  Si     11.586352     35.372612      7.578916
  Si     14.232052     33.814669      7.632909
  Si     14.185019     30.745968      7.654675
  O      10.169919     29.989278      8.228153
  O      10.215480     34.653954      8.104754
  O      12.925873     34.640401      8.176912
  O      12.872921     29.953166      8.235149
  O      11.471425     27.666356      8.108814
  O      14.251561     32.282424      8.209488
  O      11.490123     29.373433      6.038775
  O      11.665083     35.230372      5.950963
  O      14.138160     33.697324      6.003427
  O      14.013221     30.780363      6.026263
  Si     11.594845     38.531135      7.676360
  Si     14.277928     40.062705      7.795335
  O      10.242617     39.219622      8.281865
  O      12.953710     39.215854      8.279367
  O      11.603363     36.937075      8.032792
  O      14.221193     41.554161      8.446107
  O      11.642005     38.767655      6.058752
  O      14.345278     40.061711      6.159798
  Si     16.900031     26.058126      7.810591
  O      15.557048     25.261980      8.322984
  O      18.214083     25.342944      8.452534
  O      16.864433     26.016612      6.174867
  Si     16.909812     29.144791      7.707291
  Si     16.967890     35.388781      7.696254
  Si     19.633820     33.820285      7.791076
  Si     19.588406     30.704354      7.786846
  O      15.533400     29.940168      8.075961
  O      15.609746     34.563678      8.076173
  O      18.265519     34.587002      8.291650
  O      18.198046     29.973865      8.269442
  O      16.835598     27.623797      8.306675
  O      19.601820     32.260461      8.303243
  O      17.058708     28.972500      6.084610
  O      17.176068     35.444877      6.074754
  O      19.645272     33.794168      6.155214
  O      19.608731     30.686321      6.150098
  Si     16.953678     38.475285      7.781312
  O      15.637748     39.298393      8.310272
  O      18.347498     39.062216      8.382358
  O      16.874834     36.910168      8.285000
  O      16.939092     38.466990      6.143423
  O      20.818384     29.858782      8.437715
  O      20.973591     34.502513      8.419740
  H       4.074658     24.986772      8.036591
  H       1.410409     29.602015      8.036749
  H       1.410409     35.007985      8.036749
  H       4.074657     39.623228      8.036591
  H       8.948181     22.173255      8.038302
  H       8.948181     42.436745      8.038302
  H      14.277762     22.173204      8.038282
  H      14.277762     42.436796      8.038282
  H      18.960557     24.876228      8.036406
  H      18.960556     39.733772      8.036406
  H      21.624717     29.491420      8.036583
  H      21.624717     35.118580      8.036583
  H      13.389039     34.175067      5.613393
  H      10.881662     34.828018      5.546938
  H       9.010497     32.918623      5.550920
  H       9.770468     30.373517      5.634711
  H      12.272054     29.816000      5.669865
  H      14.056759     31.671261      5.644209
  H      13.526706     39.784097      5.724089
  H      10.824915     39.119981      5.678115
  H       8.167104     39.665817      5.741626
  H       6.096236     37.745119      5.713763
  H       5.266951     35.087367      5.647842
  H       3.512189     33.003505      5.742216
  H       4.106635     30.282574      5.741860
  H       6.026920     28.301328      5.679937
  H       6.869543     25.688781      5.747814
  H       9.584552     24.898544      5.741226
  H      12.277584     25.542511      5.693804
  H      14.946325     25.011553      5.761203
  H      17.005946     26.877653      5.753912
  H      17.747817     29.515583      5.678718
  H      19.627947     31.559402      5.735416
  H      18.943497     34.318382      5.742353
  H      17.058844     36.318192      5.675666
  H      16.172201     38.907690      5.750700
  P       8.365208     36.399093     11.833322
  O       9.222929     36.821232     12.974401
  O       6.878292     36.409994     11.922248
  O       8.853175     37.296309     10.566285
  O       8.748481     34.896678     11.365155
  C      10.091202     34.467472     11.375290
  C      10.077345     32.962470     11.195126
  O      11.339165     32.561133     10.638715
  C       9.895706     32.172713     12.479979
  O       9.132982     30.989276     12.330264
  C      11.336473     31.830605     12.859080
  O      11.458336     30.735138     13.711531
  C      11.972505     31.632127     11.477287
  N      13.389992     31.875945     11.430998
  C      14.011642     33.095857     11.450387
  N      15.315375     33.011153     11.421538
  C      15.569956     31.659412     11.386526
  C      16.759390     30.911309     11.361741
  N      17.971725     31.478321     11.389120
  N      16.663045     29.574212     11.339647
  C      15.454087     29.013218     11.341129
  N      14.268272     29.605216     11.373532
  C      14.383436     30.934335     11.392955
  H       8.277148     37.162249      9.804799
  H      10.643082     34.894882     10.535699
  H      10.584167     34.755230     12.308726
  H       9.290071     32.706839     10.482580
  H       9.397800     32.761826     13.251545
  H       9.276824     30.610113     11.455719
  H      11.809145     32.693513     13.336841
  H      10.735783     30.132454     13.481840
  H      11.822648     30.600250     11.135772
  H      13.442132     34.012940     11.467691
  H      18.065049     32.471024     11.259495
  H      18.783401     30.900666     11.250124
  H      15.443958     27.927094     11.311539
162
Coordinates from ORCA-job /data/Seafile/amp/frames/frame12/amp_frame12 E -13464.508595112362
  Si      3.504510     33.904354      7.782689
  Si      3.461656     30.793604      7.805562
  O       2.300410     34.820130      8.384107
  O       2.185604     30.016905      8.455019
  O       3.451645     32.354948      8.315638
  O       3.512827     33.894295      6.143951
  O       3.433783     30.840228      6.169741
  Si      6.144899     26.142865      7.796797
  Si      8.820314     24.546562      7.792576
  O       4.798073     25.495180      8.441687
  O       7.487836     25.355581      8.310660
  O       8.745410     23.045594      8.423220
  O       6.124058     26.146672      6.159066
  O       8.780875     24.549983      6.156355
  Si      6.125982     29.233739      7.693200
  Si      6.166025     35.458749      7.674023
  Si      8.892308     33.864848      7.569644
  Si      8.874526     30.786045      7.616207
  O       4.851914     30.064764      8.297368
  O       4.903040     34.616719      8.279454
  O       7.564671     34.689211      8.018089
  O       7.499898     30.035500      8.062782
  O       6.204883     27.713456      8.285260
  O       8.821613     32.335567      8.145841
  O       5.899575     29.174250      6.073402
  O       5.985010     35.617918      6.056091
  O       9.028720     33.818148      5.940344
  O       9.003631     30.854177      5.987930
  Si      6.195358     38.553637      7.783340
  Si      8.917834     40.067020      7.792294
  O       4.933465     39.364288      8.420299
  O       7.563649     39.297519      8.306885
  O       6.225212     36.982329      8.273336
  O       9.040177     41.555396      8.439245
  O       6.220911     38.594565      6.147407
  O       8.927897     40.088839      6.154141
  Si     11.510780     26.078804      7.702676
  Si     14.186185     24.539764      7.787392
  O      10.166921     25.351490      8.290027
  O      12.873677     25.395742      8.291921
  O      13.991616     23.036883      8.383609
  O      11.465481     25.884598      6.079069
  O      14.185149     24.558958      6.148678
  Si     11.517668     29.236046      7.662438
  Si     11.584474     35.372057      7.589159
  Si     14.230731     33.817451      7.643079
  Si     14.185673     30.748002      7.655683
  O      10.170727     29.988334      8.223632
  O      10.218292     34.649719      8.118704
  O      12.927982     34.647309      8.188485
  O      12.875458     29.949101      8.233395
  O      11.472254     27.665682      8.096811
  O      14.249027     32.283349      8.215262
  O      11.492816     29.381694      6.031980
  O      11.658701     35.218825      5.960981
  O      14.132974     33.700927      6.012633
  O      14.010273     30.790826      6.026607
  Si     11.595482     38.531646      7.671598
  Si     14.278529     40.063024      7.792186
  O      10.244810     39.223197      8.276013
  O      12.955744     39.213159      8.274627
  O      11.600452     36.938634      8.032199
  O      14.221094     41.554068      8.445533
  O      11.645191     38.764820      6.052909
  O      14.347013     40.065667      6.156542
  Si     16.901180     26.058571      7.807951
  O      15.556807     25.264438      8.319905
  O      18.214841     25.343389      8.453371
  O      16.869510     26.014935      6.171954
  Si     16.912356     29.145059      7.702336
  Si     16.968525     35.388694      7.703311
  Si     19.633539     33.821274      7.794603
  Si     19.589843     30.705764      7.785428
  O      15.534880     29.939812      8.067350
  O      15.609573     34.565068      8.082130
  O      18.265525     34.586467      8.299797
  O      18.199470     29.973818      8.265379
  O      16.834700     27.624908      8.303115
  O      19.603221     32.260961      8.304378
  O      17.063054     28.971343      6.079163
  O      17.177254     35.442548      6.081271
  O      19.642448     33.794985      6.158491
  O      19.610647     30.689493      6.148097
  Si     16.954660     38.475096      7.781418
  O      15.637863     39.298326      8.307885
  O      18.347772     39.062877      8.384561
  O      16.873476     36.911076      8.288837
  O      16.942070     38.462192      6.143311
  O      20.819055     29.859419      8.438113
  O      20.973535     34.504426      8.422968
  H       4.074657     24.986772      8.036591
  H       1.410409     29.602015      8.036749
  H       1.410409     35.007985      8.036749
  H       4.074657     39.623228      8.036591
  H       8.948181     22.173255      8.038302
  H       8.948181     42.436745      8.038302
  H      14.277762     22.173204      8.038282
  H      14.277762     42.436796      8.038282
  H      18.960557     24.876228      8.036406
  H      18.960557     39.733772      8.036406
  H      21.624717     29.491420      8.036583
  H      21.624717     35.118580      8.036583
  H      13.383040     34.181080      5.626490
  H      10.872445     34.813618      5.564098
  H       9.009455     32.925366      5.563453
  H       9.776670     30.384510      5.634251
  H      12.276842     29.824740      5.667209
  H      14.052072     31.685256      5.652102
  H      13.528879     39.789088      5.719349
  H      10.829833     39.118561      5.670008
  H       8.162958     39.667958      5.738421
  H       6.091260     37.735217      5.720982
  H       5.277699     35.082503      5.669841
  H       3.520450     33.011331      5.748528
  H       4.102823     30.285625      5.742868
  H       6.021361     28.300875      5.676014
  H       6.866157     25.686531      5.743858
  H       9.583046     24.890678      5.735165
  H      12.279283     25.537391      5.687143
  H      14.948053     25.004255      5.753471
  H      17.012196     26.875415      5.750308
  H      17.750817     29.516035      5.673092
  H      19.630754     31.563235      5.734923
  H      18.943248     34.323138      5.746219
  H      17.058662     36.315141      5.680831
  H      16.179075     38.905255      5.745754
  P       8.259283     36.320373     11.874725
  O       9.001354     36.741815     13.093903
  O       6.771940     36.347132     11.810904
  O       8.886978     37.202113     10.661025
  O       8.675097     34.807226     11.460821
  C      10.035961     34.427615     11.423121
  C      10.065521     32.927107     11.208297
  O      11.338990     32.551379     10.656491
  C       9.885574     32.116196     12.480106
  O       9.144867     30.920503     12.309376
  C      11.330427     31.795578     12.865624
  O      11.467376     30.695858     13.710884
  C      11.973909     31.617243     11.485961
  N      13.391155     31.866109     11.443760
  C      14.010832     33.087287     11.464524
  N      15.314534     33.004341     11.433181
  C      15.571024     31.652963     11.394910
  C      16.760813     30.906255     11.364694
  N      17.972632     31.474363     11.390530
  N      16.665757     29.568736     11.339105
  C      15.457137     29.006179     11.343038
  N      14.270976     29.597341     11.380063
  C      14.385570     30.926411     11.401756
  H       8.378093     37.091312      9.849095
  H      10.547389     34.899255     10.581431
  H      10.546100     34.711954     12.347787
  H       9.286789     32.663869     10.483683
  H       9.373096     32.688349     13.254083
  H       9.307546     30.550164     11.434534
  H      11.785328     32.662316     13.353151
  H      10.760619     30.078917     13.470999
  H      11.829018     30.588538     11.134597
  H      13.439168     34.003292     11.483421
  H      18.065440     32.467735     11.263673
  H      18.784769     30.897977     11.250397
  H      15.447971     27.919974     11.310716
162
Coordinates from ORCA-job /data/Seafile/amp/frames/frame12/amp_frame12 E -13464.508976440062
  Si      3.504092     33.903263      7.791084
  Si      3.462548     30.793063      7.809459
  O       2.296156     34.815114      8.390319
  O       2.184538     30.017457      8.456332
  O       3.454148     32.353342      8.322346
  O       3.517101     33.895205      6.152509
  O       3.436827     30.842697      6.173662
  Si      6.145684     26.141311      7.798183
  Si      8.822303     24.546710      7.793821
  O       4.798940     25.493168      8.442468
  O       7.488493     25.353604      8.311626
  O       8.750944     23.045914      8.425073
  O       6.124600     26.146967      6.160341
  O       8.783595     24.550531      6.157665
  Si      6.126502     29.232145      7.697585
  Si      6.166076     35.455979      7.688506
  Si      8.891403     33.863601      7.591065
  Si      8.874465     30.785217      7.625453
  O       4.851653     30.061808      8.301399
  O       4.899956     34.618556      8.292502
  O       7.563521     34.687056      8.039167
  O       7.500070     30.033697      8.069759
  O       6.205997     27.711460      8.288197
  O       8.822916     32.332537      8.162076
  O       5.902875     29.174699      6.077289
  O       5.991168     35.609842      6.069470
  O       9.028498     33.820777      5.961518
  O       9.003052     30.860930      5.997261
  Si      6.193973     38.551978      7.786444
  Si      8.915818     40.067593      7.792326
  O       4.930305     39.359513      8.422900
  O       7.561400     39.298408      8.307948
  O       6.229743     36.981846      8.282589
  O       9.036472     41.555648      8.439334
  O       6.219529     38.587406      6.150765
  O       8.926133     40.087675      6.154071
  Si     11.512334     26.078938      7.704590
  Si     14.188561     24.540414      7.789531
  O      10.167624     25.353438      8.291703
  O      12.873954     25.393660      8.293476
  O      13.998627     23.037820      8.387221
  O      11.467132     25.886479      6.080888
  O      14.187491     24.559582      6.150882
  Si     11.519267     29.236265      7.667286
  Si     11.580946     35.372967      7.609801
  Si     14.228226     33.820328      7.660273
  Si     14.186864     30.750829      7.666689
  O      10.170513     29.984905      8.228761
  O      10.216257     34.649432      8.141524
  O      12.925204     34.648528      8.207797
  O      12.875342     29.951014      8.240908
  O      11.475399     27.665563      8.099761
  O      14.248896     32.285108      8.230068
  O      11.494525     29.385905      6.037135
  O      11.652298     35.216376      5.981704
  O      14.128427     33.704149      6.029683
  O      14.012038     30.797422      6.037454
  Si     11.593855     38.531538      7.677629
  Si     14.277168     40.062967      7.795837
  O      10.243018     39.225852      8.277132
  O      12.953415     39.215283      8.279032
  O      11.597119     36.940525      8.046689
  O      14.220868     41.554918      8.446631
  O      11.644703     38.755357      6.057618
  O      14.346726     40.063282      6.160181
  Si     16.902233     26.060861      7.809952
  O      15.557053     25.268612      8.322513
  O      18.215364     25.343355      8.454223
  O      16.869563     26.018127      6.173902
  Si     16.913281     29.147857      7.707411
  Si     16.966144     35.390114      7.713623
  Si     19.631606     33.823859      7.799203
  Si     19.590719     30.708168      7.788554
  O      15.535519     29.940831      8.076072
  O      15.607204     34.568693      8.097018
  O      18.263231     34.586237      8.307638
  O      18.200680     29.976497      8.269819
  O      16.837821     27.626979      8.306428
  O      19.604651     32.263249      8.307873
  O      17.060967     28.977181      6.083653
  O      17.170215     35.441921      6.090915
  O      19.636929     33.798190      6.163098
  O      19.609314     30.692241      6.151132
  Si     16.953344     38.476498      7.787837
  O      15.635209     39.297833      8.313420
  O      18.345178     39.068229      8.389581
  O      16.874710     36.913082      8.297521
  O      16.939870     38.460923      6.149864
  O      20.820824     29.861938      8.439457
  O      20.970897     34.509606      8.425978
  H       4.074658     24.986772      8.036591
  H       1.410409     29.602015      8.036749
  H       1.410409     35.007985      8.036749
  H       4.074657     39.623228      8.036591
  H       8.948181     22.173255      8.038302
  H       8.948181     42.436745      8.038302
  H      14.277762     22.173204      8.038282
  H      14.277762     42.436796      8.038282
  H      18.960557     24.876228      8.036406
  H      18.960556     39.733772      8.036406
  H      21.624717     29.491420      8.036583
  H      21.624717     35.118580      8.036583
  H      13.373203     34.176204      5.644552
  H      10.867844     34.806721      5.586632
  H       9.012683     32.929274      5.582031
  H       9.779896     30.399563      5.641569
  H      12.276523     29.833243      5.673482
  H      14.048584     31.692528      5.664425
  H      13.529991     39.784664      5.722079
  H      10.831228     39.109542      5.671640
  H       8.163539     39.662964      5.738189
  H       6.093575     37.726652      5.726127
  H       5.286726     35.072178      5.681040
  H       3.523293     33.013512      5.754426
  H       4.105551     30.288487      5.745779
  H       6.022614     28.302010      5.678039
  H       6.866816     25.688362      5.743926
  H       9.585595     24.890663      5.736040
  H      12.279902     25.538593      5.687896
  H      14.950339     25.003022      5.754083
  H      17.009471     26.878829      5.752079
  H      17.749548     29.519888      5.676715
  H      19.628953     31.565843      5.737759
  H      18.936974     34.325989      5.751697
  H      17.051705     36.313783      5.689098
  H      16.179084     38.905561      5.750361
  P       8.220490     36.266420     11.916330
  O       9.015560     36.759693     13.073572
  O       6.731938     36.262469     11.933251
  O       8.768023     37.092062     10.628662
  O       8.645473     34.739343     11.564164
  C      10.013332     34.392528     11.466591
  C      10.062934     32.897986     11.228282
  O      11.340886     32.539874     10.675891
  C       9.888446     32.071359     12.491935
  O       9.163031     30.868602     12.307362
  C      11.335651     31.765320     12.879787
  O      11.483641     30.659945     13.716308
  C      11.981699     31.604378     11.500272
  N      13.397895     31.858680     11.460487
  C      14.016591     33.080391     11.482962
  N      15.320366     32.998402     11.449011
  C      15.578148     31.647289     11.406915
  C      16.768326     30.901178     11.372178
  N      17.980205     31.469115     11.395863
  N      16.674018     29.563777     11.343732
  C      15.465745     29.000512     11.349292
  N      14.279202     29.590949     11.390232
  C      14.393170     30.919963     11.414390
  H       8.210512     36.951943      9.854259
  H      10.482908     34.895494     10.617598
  H      10.549600     34.671090     12.379332
  H       9.288496     32.636479     10.500832
  H       9.366382     32.628594     13.269557
  H       9.332338     30.510358     11.428438
  H      11.779157     32.633230     13.375443
  H      10.786658     30.035410     13.467616
  H      11.843138     30.577111     11.142448
  H      13.443908     33.995637     11.504450
  H      18.073353     32.462365     11.271240
  H      18.792050     30.892814     11.252697
  H      15.457251     27.914322     11.314634
162
Coordinates from ORCA-job /data/Seafile/amp/frames/frame12/amp_frame12 E -13464.508979865823
  Si      3.502978     33.900832      7.798666
  Si      3.463345     30.792403      7.810381
  O       2.289294     34.803992      8.398780
  O       2.182531     30.020952      8.456331
  O       3.461063     32.350575      8.328484
  O       3.517629     33.895632      6.160371
  O       3.435758     30.847437      6.174745
  Si      6.146735     26.137574      7.795736
  Si      8.825533     24.546297      7.792216
  O       4.800910     25.490142      8.442253
  O       7.489995     25.350589      8.308452
  O       8.760059     23.046872      8.426766
  O       6.121746     26.142218      6.157927
  O       8.786661     24.546744      6.156269
  Si      6.125714     29.228033      7.693396
  Si      6.165792     35.450494      7.697389
  Si      8.891225     33.859729      7.606300
  Si      8.874150     30.781297      7.622121
  O       4.850774     30.055391      8.298882
  O       4.894905     34.623254      8.302835
  O       7.560646     34.679366      8.055064
  O       7.499157     30.031162      8.065056
  O       6.207684     27.708058      8.284502
  O       8.826793     32.325697      8.169121
  O       5.902016     29.171039      6.073222
  O       5.995321     35.602163      6.077849
  O       9.031480     33.823574      5.976735
  O       9.000153     30.866591      5.994062
  Si      6.192268     38.548116      7.788356
  Si      8.911750     40.069059      7.789466
  O       4.922836     39.343157      8.428052
  O       7.556357     39.301221      8.305137
  O       6.244844     36.977448      8.289326
  O       9.030606     41.555467      8.438856
  O       6.212281     38.579824      6.153427
  O       8.922228     40.091014      6.151354
  Si     11.515354     26.076839      7.700513
  Si     14.193883     24.540781      7.791028
  O      10.169019     25.356703      8.288974
  O      12.874728     25.389285      8.290783
  O      14.012125     23.039122      8.392645
  O      11.468859     25.882348      6.077170
  O      14.195383     24.556617      6.152623
  Si     11.522889     29.234520      7.660108
  Si     11.575958     35.374583      7.630017
  Si     14.224289     33.824401      7.677880
  Si     14.189365     30.754216      7.673986
  O      10.169850     29.976741      8.218535
  O      10.212064     34.648734      8.162426
  O      12.920247     34.649790      8.227957
  O      12.874828     29.952825      8.240030
  O      11.482103     27.664217      8.092803
  O      14.248568     32.286943      8.243341
  O      11.500721     29.388100      6.030395
  O      11.645444     35.215880      6.001980
  O      14.123149     33.709978      6.047050
  O      14.021142     30.806426      6.044387
  Si     11.590430     38.531649      7.681196
  Si     14.274778     40.062474      7.800545
  O      10.239523     39.229531      8.273595
  O      12.948264     39.218402      8.281609
  O      11.592676     36.942766      8.060307
  O      14.219957     41.555654      8.447831
  O      11.643866     38.744182      6.059794
  O      14.349906     40.060631      6.165074
  Si     16.904003     26.064283      7.811591
  O      15.557733     25.275807      8.325844
  O      18.215351     25.342446      8.454770
  O      16.870723     26.020306      6.175462
  Si     16.915239     29.152274      7.711787
  Si     16.962665     35.392670      7.725099
  Si     19.628593     33.828119      7.803867
  Si     19.592420     30.712217      7.792338
  O      15.536031     29.941816      8.085084
  O      15.602240     34.575253      8.113308
  O      18.258673     34.585411      8.315729
  O      18.202358     29.981194      8.274475
  O      16.843503     27.630498      8.308184
  O      19.606677     32.267396      8.310924
  O      17.059478     28.985666      6.087508
  O      17.162094     35.442655      6.101572
  O      19.632342     33.803026      6.167896
  O      19.609278     30.694708      6.154862
  Si     16.950315     38.479225      7.797720
  O      15.629552     39.296023      8.323023
  O      18.338665     39.079485      8.398511
  O      16.877655     36.916020      8.308459
  O      16.936556     38.461969      6.159936
  O      20.823813     29.866537      8.441318
  O      20.965286     34.518844      8.430170
  H       4.074657     24.986772      8.036591
  H       1.410409     29.602015      8.036749
  H       1.410409     35.007985      8.036749
  H       4.074657     39.623228      8.036591
  H       8.948181     22.173255      8.038302
  H       8.948181     42.436745      8.038302
  H      14.277762     22.173204      8.038282
  H      14.277762     42.436796      8.038282
  H      18.960557     24.876228      8.036406
  H      18.960556     39.733772      8.036406
  H      21.624717     29.491420      8.036583
  H      21.624717     35.118580      8.036583
  H      13.365191     34.178161      5.662643
  H      10.861285     34.804845      5.607873
  H       9.016165     32.933703      5.593410
  H       9.777119     30.408393      5.635087
  H      12.284161     29.834714      5.669391
  H      14.053781     31.703119      5.674734
  H      13.536410     39.778612      5.723647
  H      10.832756     39.099048      5.670161
  H       8.162810     39.661926      5.734659
  H       6.093461     37.717543      5.729890
  H       5.290533     35.066053      5.687680
  H       3.518172     33.014984      5.759861
  H       4.102947     30.293885      5.743640
  H       6.017787     28.298140      5.673350
  H       6.863582     25.685172      5.739443
  H       9.588104     24.886480      5.733612
  H      12.280702     25.534269      5.683149
  H      14.958615     24.998512      5.755246
  H      17.006203     26.881017      5.752476
  H      17.750826     29.524775      5.680686
  H      19.628783     31.567568      5.740110
  H      18.930423     34.328442      5.756893
  H      17.043783     36.314038      5.698946
  H      16.178887     38.910595      5.759229
  P       8.086092     36.136838     11.865362
  O       8.919808     36.785989     12.912844
  O       6.604356     36.064095     11.981446
  O       8.510213     36.837015     10.466345
  O       8.571741     34.599122     11.662488
  C       9.950422     34.317820     11.507442
  C      10.051041     32.832463     11.239996
  O      11.341606     32.514355     10.694342
  C       9.887562     31.983151     12.492197
  O       9.196632     30.764648     12.286395
  C      11.338903     31.710081     12.888233
  O      11.509227     30.599284     13.713814
  C      11.992026     31.577398     11.510796
  N      13.405965     31.842156     11.476810
  C      14.022524     33.064890     11.503807
  N      15.326516     32.985134     11.467686
  C      15.586963     31.634442     11.418784
  C      16.778015     30.889650     11.377722
  N      17.989942     31.457495     11.400341
  N      16.685122     29.552323     11.342772
  C      15.477627     28.987645     11.348112
  N      14.290422     29.576583     11.393776
  C      14.403117     30.905465     11.424103
  H       7.879038     36.646689      9.761687
  H      10.365292     34.866662     10.657906
  H      10.503966     34.599165     12.410508
  H       9.290105     32.565085     10.504222
  H       9.344567     32.515908     13.272116
  H       9.373329     30.430888     11.399208
  H      11.757844     32.583713     13.394802
  H      10.833096     29.958340     13.449899
  H      11.866092     30.552397     11.142494
  H      13.448031     33.978888     11.529763
  H      18.083154     32.451174     11.281107
  H      18.801420     30.881323     11.254003
  H      15.470495     27.901594     11.308625
162
Coordinates from ORCA-job /data/Seafile/amp/frames/frame12/amp_frame12 E -13464.509220932388
  Si      3.500768     33.898702      7.794280
  Si      3.463647     30.791307      7.806228
  O       2.284654     34.793257      8.401258
  O       2.180264     30.026495      8.454685
  O       3.467305     32.348851      8.324820
  O       3.509780     33.895188      6.156113
  O       3.431552     30.845854      6.170780
  Si      6.147505     26.135643      7.794962
  Si      8.826990     24.546320      7.793552
  O       4.800765     25.490524      8.441940
  O       7.489745     25.347627      8.308578
  O       8.768751     23.047390      8.429545
  O       6.120329     26.137926      6.157422
  O       8.786078     24.543868      6.157822
  Si      6.125785     29.225399      7.687979
  Si      6.161665     35.449902      7.683422
  Si      8.891412     33.860367      7.601375
  Si      8.874876     30.779555      7.615638
  O       4.849536     30.050187      8.293113
  O       4.890246     34.628209      8.293217
  O       7.553833     34.676644      8.045751
  O       7.498150     30.032281      8.058392
  O       6.209824     27.706670      8.281436
  O       8.829387     32.324315      8.164133
  O       5.901351     29.167052      6.068264
  O       5.989693     35.603786      6.064340
  O       9.038038     33.824214      5.972649
  O       8.998575     30.865730      5.987805
  Si      6.190931     38.546308      7.785797
  Si      8.908752     40.069166      7.789136
  O       4.915697     39.326830      8.430712
  O       7.551417     39.303836      8.302142
  O       6.252540     36.973358      8.281109
  O       9.028357     41.554989      8.439263
  O       6.206164     38.584438      6.151542
  O       8.921050     40.094663      6.151466
  Si     11.516998     26.075178      7.701129
  Si     14.196873     24.541240      7.794733
  O      10.168865     25.359793      8.289856
  O      12.874471     25.385252      8.292733
  O      14.025345     23.039764      8.399272
  O      11.469063     25.878286      6.078072
  O      14.197758     24.553238      6.156594
  Si     11.524923     29.232642      7.654165
  Si     11.575609     35.375257      7.633394
  Si     14.223623     33.823722      7.675346
  Si     14.190612     30.753136      7.669061
  O      10.170231     29.971923      8.210640
  O      10.208623     34.651901      8.166740
  O      12.918870     34.646686      8.228552
  O      12.874905     29.953960      8.234283
  O      11.487265     27.663479      8.090392
  O      14.251233     32.285613      8.239176
  O      11.501171     29.382907      6.024465
  O      11.644790     35.221554      6.005016
  O      14.122232     33.710322      6.044656
  O      14.027136     30.804464      6.039642
  Si     11.588192     38.531906      7.684369
  Si     14.273640     40.061988      7.804358
  O      10.235927     39.228912      8.273961
  O      12.943971     39.222143      8.284347
  O      11.594446     36.942775      8.065251
  O      14.225114     41.556081      8.449912
  O      11.642888     38.741848      6.062827
  O      14.350728     40.061012      6.169156
  Si     16.904933     26.065431      7.812410
  O      15.557597     25.281626      8.329010
  O      18.213336     25.338391      8.455215
  O      16.872414     26.017829      6.176368
  Si     16.917251     29.153916      7.710603
  Si     16.962559     35.393160      7.724237
  Si     19.628022     33.829511      7.803410
  Si     19.593773     30.714284      7.792223
  O      15.535331     29.939513      8.084013
  O      15.599529     34.578355      8.111382
  O      18.255526     34.582366      8.314616
  O      18.202684     29.985218      8.274057
  O      16.849182     27.632298      8.306886
  O      19.609964     32.269336      8.310691
  O      17.060922     28.988121      6.086549
  O      17.163960     35.444047      6.100685
  O      19.636033     33.803119      6.167603
  O      19.611815     30.695364      6.154919
  Si     16.948436     38.480136      7.802326
  O      15.625345     39.292135      8.328413
  O      18.332424     39.088936      8.404745
  O      16.881855     36.915988      8.310138
  O      16.937256     38.464667      6.164583
  O      20.823921     29.866834      8.440926
  O      20.959619     34.526946      8.432562
  H       4.074658     24.986772      8.036591
  H       1.410409     29.602015      8.036749
  H       1.410409     35.007985      8.036749
  H       4.074657     39.623228      8.036591
  H       8.948181     22.173255      8.038302
  H       8.948181     42.436745      8.038302
  H      14.277762     22.173204      8.038282
  H      14.277762     42.436796      8.038282
  H      18.960557     24.876228      8.036406
  H      18.960556     39.733772      8.036406
  H      21.624717     29.491420      8.036583
  H      21.624717     35.118580      8.036583
  H      13.364191     34.179120      5.660821
  H      10.860178     34.812588      5.609871
  H       9.020263     32.934312      5.589592
  H       9.773697     30.405971      5.627632
  H      12.285719     29.826150      5.662519
  H      14.056789     31.701801      5.671013
  H      13.539020     39.775534      5.726822
  H      10.831658     39.095312      5.672421
  H       8.163538     39.663407      5.733655
  H       6.091523     37.722732      5.725383
  H       5.282602     35.069055      5.675686
  H       3.503074     33.014395      5.755581
  H       4.098854     30.293151      5.738599
  H       6.015731     28.293146      5.670015
  H       6.862893     25.681972      5.739012
  H       9.588048     24.881098      5.734271
  H      12.281245     25.530455      5.684825
  H      14.961282     24.994129      5.758690
  H      17.004738     26.878141      5.751663
  H      17.754932     29.524898      5.681002
  H      19.630578     31.568082      5.739631
  H      18.934055     34.327666      5.755413
  H      17.045912     36.316150      5.699552
  H      16.181506     38.916488      5.763882
  P       8.185396     36.182186     11.960114
  O       8.990833     36.693181     13.101496
  O       6.698291     36.172158     11.997211
  O       8.712149     36.977630     10.652768
  O       8.609993     34.643122     11.651676
  C       9.980350     34.314986     11.524035
  C      10.053119     32.830441     11.238077
  O      11.336951     32.508070     10.684534
  C       9.885782     31.968953     12.480985
  O       9.192346     30.756504     12.259419
  C      11.336289     31.687677     12.874043
  O      11.502845     30.567277     13.687140
  C      11.990588     31.568093     11.495735
  N      13.403588     31.836999     11.467455
  C      14.018370     33.060331     11.494730
  N      15.322513     32.982809     11.460074
  C      15.585167     31.632342     11.411153
  C      16.777122     30.889265     11.368541
  N      17.988703     31.458423     11.390891
  N      16.686256     29.551878     11.332175
  C      15.479715     28.985475     11.337016
  N      14.291666     29.572686     11.382417
  C      14.402439     30.901687     11.414411
  H       8.087409     36.920442      9.919272
  H      10.427166     34.867190     10.693719
  H      10.522815     34.567273     12.442869
  H       9.287787     32.587066     10.505236
  H       9.343430     32.496635     13.265032
  H       9.366005     30.440055     11.365705
  H      11.757113     32.554839     13.390138
  H      10.825438     29.931361     13.414290
  H      11.869768     30.544874     11.118188
  H      13.443067     33.973772     11.521262
  H      18.079315     32.451959     11.268522
  H      18.799306     30.882548     11.238668
  H      15.474268     27.899498     11.297182
162
Coordinates from ORCA-job /data/Seafile/amp/frames/frame12/amp_frame12 E -13464.509396829108
  Si      3.502681     33.900934      7.789779
  Si      3.462765     30.792617      7.806006
  O       2.291265     34.803304      8.395078
  O       2.181475     30.024495      8.454568
  O       3.462622     32.351478      8.321411
  O       3.512079     33.894771      6.151541
  O       3.432759     30.845097      6.170444
  Si      6.146457     26.138296      7.795775
  Si      8.824404     24.546265      7.793170
  O       4.800157     25.491575      8.442061
  O       7.488848     25.350381      8.308987
  O       8.760443     23.046781      8.427434
  O       6.121025     26.141469      6.158203
  O       8.784907     24.545654      6.157317
  Si      6.125370     29.228342      7.690134
  Si      6.164253     35.451572      7.679303
  Si      8.893082     33.861209      7.588715
  Si      8.874152     30.781666      7.615518
  O       4.849779     30.055084      8.294612
  O       4.895690     34.624040      8.288122
  O       7.559185     34.679993      8.035972
  O       7.498252     30.033733      8.059795
  O       6.208096     27.709146      8.282996
  O       8.827820     32.328343      8.156756
  O       5.900946     29.169746      6.070413
  O       5.988134     35.608484      6.061130
  O       9.035303     33.821062      5.959774
  O       8.999340     30.861842      5.987419
  Si      6.192392     38.547704      7.784977
  Si      8.911616     40.068367      7.789066
  O       4.919974     39.335007      8.428114
  O       7.554823     39.302572      8.302181
  O       6.247727     36.974794      8.279306
  O       9.032449     41.554749      8.438802
  O       6.207903     38.584949      6.150296
  O       8.922312     40.093803      6.151308
  Si     11.514334     26.076249      7.701756
  Si     14.192995     24.541066      7.791891
  O      10.167693     25.356894      8.289925
  O      12.873616     25.388699      8.291996
  O      14.014097     23.039441      8.394134
  O      11.467139     25.880831      6.078411
  O      14.193640     24.555216      6.153679
  Si     11.521668     29.233428      7.656521
  Si     11.579538     35.373057      7.615273
  Si     14.226494     33.819885      7.662160
  Si     14.188866     30.749954      7.662553
  O      10.169495     29.977165      8.214369
  O      10.212918     34.650460      8.148835
  O      12.921968     34.644443      8.211951
  O      12.874709     29.951803      8.232747
  O      11.481423     27.664055      8.092448
  O      14.250591     32.283255      8.229365
  O      11.497444     29.382052      6.026656
  O      11.650103     35.218746      5.986997
  O      14.127061     33.705980      6.031538
  O      14.021065     30.798231      6.033386
  Si     11.590918     38.530887      7.677556
  Si     14.275576     40.062099      7.798683
  O      10.238736     39.225689      8.271634
  O      12.947846     39.218817      8.278489
  O      11.597525     36.940174      8.051288
  O      14.223147     41.554922      8.447412
  O      11.644603     38.748518      6.057000
  O      14.350974     40.062555      6.163304
  Si     16.903444     26.062966      7.810176
  O      15.556734     25.276650      8.325499
  O      18.213350     25.339808      8.454149
  O      16.870707     26.016269      6.174151
  Si     16.916068     29.150757      7.706078
  Si     16.963974     35.391198      7.715376
  Si     19.629787     33.826984      7.799179
  Si     19.592680     30.711432      7.788382
  O      15.535256     29.938774      8.077001
  O      15.602724     34.572767      8.100357
  O      18.258138     34.583036      8.307679
  O      18.201810     29.981479      8.269279
  O      16.845075     27.629760      8.304012
  O      19.607446     32.266516      8.306753
  O      17.061948     28.982653      6.082403
  O      17.167222     35.443300      6.092310
  O      19.639172     33.802207      6.163311
  O      19.612273     30.692533      6.151059
  Si     16.950745     38.478149      7.793771
  O      15.629693     39.293833      8.320025
  O      18.337806     39.079160      8.397148
  O      16.878709     36.913867      8.301005
  O      16.939036     38.464091      6.155961
  O      20.822720     29.865664      8.439469
  O      20.963438     34.520023      8.429210
  H       4.074657     24.986772      8.036591
  H       1.410409     29.602015      8.036749
  H       1.410409     35.007985      8.036749
  H       4.074657     39.623228      8.036591
  H       8.948181     22.173255      8.038302
  H       8.948181     42.436745      8.038302
  H      14.277762     22.173204      8.038282
  H      14.277762     42.436796      8.038282
  H      18.960557     24.876228      8.036406
  H      18.960557     39.733772      8.036406
  H      21.624717     29.491420      8.036583
  H      21.624717     35.118580      8.036583
  H      13.372468     34.179441      5.646596
  H      10.866155     34.808110      5.591515
  H       9.015203     32.930122      5.578841
  H       9.773867     30.399664      5.628623
  H      12.281016     29.826495      5.663546
  H      14.051848     31.694582      5.662615
  H      13.537085     39.781940      5.721512
  H      10.832474     39.102034      5.668215
  H       8.160933     39.668889      5.733867
  H       6.086355     37.724083      5.724696
  H       5.280368     35.074513      5.673343
  H       3.511618     33.013267      5.752741
  H       4.100138     30.291630      5.739747
  H       6.018724     28.296454      5.671923
  H       6.863018     25.684061      5.740209
  H       9.587330     24.883778      5.734824
  H      12.280242     25.534773      5.684781
  H      14.956192     24.999015      5.756553
  H      17.007801     26.876162      5.749969
  H      17.753993     29.521833      5.676519
  H      19.632100     31.565117      5.735697
  H      18.938500     34.328478      5.751150
  H      17.048177     36.315473      5.691317
  H      16.179807     38.911611      5.756432
  P       8.208311     36.221907     11.882742
  O       9.019534     36.752643     13.011754
  O       6.720552     36.224830     11.919401
  O       8.738891     36.990240     10.558277
  O       8.622412     34.676743     11.595368
  C       9.991123     34.335615     11.491702
  C      10.055141     32.844968     11.230574
  O      11.338991     32.514496     10.681076
  C       9.886531     31.999296     12.483462
  O       9.182706     30.787894     12.279458
  C      11.336730     31.710293     12.873964
  O      11.497978     30.596482     13.696796
  C      11.988411     31.575136     11.494921
  N      13.402142     31.840561     11.461716
  C      14.017533     33.063689     11.487980
  N      15.321613     32.985385     11.453732
  C      15.583316     31.634913     11.406559
  C      16.775058     30.891335     11.367341
  N      17.986519     31.460400     11.391758
  N      16.683350     29.553759     11.333128
  C      15.476537     28.987864     11.337057
  N      14.288864     29.575688     11.380491
  C      14.400261     30.904685     11.410499
  H       8.133715     36.883192      9.814306
  H      10.456007     34.862145     10.655160
  H      10.525430     34.600467     12.410426
  H       9.287452     32.587536     10.495838
  H       9.351609     32.539965     13.264553
  H       9.352131     30.452684     11.391487
  H      11.765660     32.578489     13.381624
  H      10.814874     29.962778     13.433163
  H      11.861767     30.550720     11.124492
  H      13.442532     33.977423     11.513756
  H      18.078259     32.454269     11.270784
  H      18.797945     30.884675     11.244310
  H      15.470471     27.901841     11.298454
162
Coordinates from ORCA-job /data/Seafile/amp/frames/frame12/amp_frame12 E -13464.509520921869
  Si      3.502489     33.900065      7.792351
  Si      3.462880     30.792365      7.806561
  O       2.287905     34.796822      8.399399
  O       2.179389     30.027935      8.454892
  O       3.466830     32.350544      8.323649
  O       3.512298     33.895046      6.154198
  O       3.431351     30.846412      6.171055
  Si      6.146685     26.136788      7.795285
  Si      8.825409     24.545946      7.793398
  O       4.800282     25.491092      8.442321
  O       7.488812     25.348606      8.308173
  O       8.765724     23.047028      8.429183
  O       6.119796     26.139083      6.157784
  O       8.785433     24.543776      6.157618
  Si      6.124857     29.226550      7.688422
  Si      6.164297     35.449758      7.680452
  Si      8.893529     33.859500      7.589738
  Si      8.873871     30.780071      7.612968
  O       4.848842     30.051932      8.293383
  O       4.894058     34.626357      8.290330
  O       7.558006     34.675981      8.037844
  O       7.497103     30.033851      8.056716
  O       6.209148     27.707807      8.281652
  O       8.829444     32.326156      8.156499
  O       5.900013     29.167728      6.068864
  O       5.987136     35.608149      6.062780
  O       9.036822     33.820964      5.960948
  O       8.998301     30.862350      5.984930
  Si      6.191828     38.545661      7.786119
  Si      8.909860     40.069108      7.787855
  O       4.914858     39.323960      8.430960
  O       7.552056     39.305186      8.300667
  O       6.255865     36.972469      8.281639
  O       9.032109     41.554829      8.438662
  O       6.204103     38.582262      6.151689
  O       8.920022     40.096293      6.150234
  Si     11.515258     26.075242      7.701145
  Si     14.195061     24.541320      7.793615
  O      10.167501     25.358782      8.289650
  O      12.873480     25.386425      8.291966
  O      14.022757     23.040034      8.398263
  O      11.467269     25.877957      6.077951
  O      14.196188     24.553555      6.155503
  Si     11.522655     29.232625      7.653412
  Si     11.578407     35.372541      7.617034
  Si     14.225432     33.819994      7.663298
  Si     14.189762     30.749881      7.661763
  O      10.169057     29.974389      8.209934
  O      10.211322     34.650739      8.151918
  O      12.920380     34.643187      8.213847
  O      12.874617     29.952241      8.230369
  O      11.484663     27.663526      8.089828
  O      14.251377     32.282963      8.229316
  O      11.498424     29.381566      6.023621
  O      11.648196     35.217437      5.988824
  O      14.125540     33.706026      6.032721
  O      14.024751     30.798792      6.032556
  Si     11.589480     38.530478      7.676674
  Si     14.274684     40.061966      7.799441
  O      10.236664     39.225183      8.268917
  O      12.945322     39.220401      8.277449
  O      11.598048     36.939893      8.051797
  O      14.225030     41.555035      8.447818
  O      11.644120     38.746009      6.055895
  O      14.352328     40.062965      6.164125
  Si     16.904233     26.064010      7.811111
  O      15.556336     25.280914      8.327483
  O      18.212180     25.337226      8.454801
  O      16.871618     26.015963      6.175043
  Si     16.917197     29.152270      7.706823
  Si     16.963076     35.391719      7.716426
  Si     19.629095     33.828396      7.799865
  Si     19.593537     30.712815      7.788966
  O      15.534913     29.937767      8.078436
  O      15.600255     34.575554      8.101296
  O      18.255823     34.581433      8.308222
  O      18.202212     29.983959      8.270068
  O      16.848460     27.630966      8.303777
  O      19.609052     32.267865      8.306762
  O      17.062449     28.985536      6.083055
  O      17.166495     35.444027      6.093302
  O      19.639946     33.803659      6.164067
  O      19.613100     30.692882      6.151654
  Si     16.949782     38.479014      7.796064
  O      15.626769     39.291431      8.322397
  O      18.333832     39.085258      8.401132
  O      16.880661     36.914399      8.302309
  O      16.939044     38.465137      6.158269
  O      20.823436     29.866829      8.439900
  O      20.959776     34.525642      8.431334
  H       4.074658     24.986772      8.036591
  H       1.410409     29.602015      8.036749
  H       1.410409     35.007985      8.036749
  H       4.074657     39.623228      8.036591
  H       8.948181     22.173255      8.038302
  H       8.948181     42.436745      8.038302
  H      14.277762     22.173204      8.038282
  H      14.277762     42.436796      8.038282
  H      18.960557     24.876228      8.036406
  H      18.960556     39.733772      8.036406
  H      21.624717     29.491420      8.036583
  H      21.624717     35.118580      8.036583
  H      13.371328     34.180173      5.647941
  H      10.864531     34.805285      5.594199
  H       9.014095     32.930427      5.579088
  H       9.772523     30.400473      5.625175
  H      12.283059     29.823803      5.660343
  H      14.053616     31.695724      5.662946
  H      13.539608     39.781596      5.720813
  H      10.832403     39.099145      5.666079
  H       8.159233     39.670838      5.732438
  H       6.082570     37.721284      5.726337
  H       5.279191     35.074173      5.675207
  H       3.509323     33.013650      5.755089
  H       4.098404     30.293601      5.739082
  H       6.016465     28.294068      5.670785
  H       6.861886     25.682343      5.739296
  H       9.588423     24.880243      5.734881
  H      12.280781     25.533331      5.684076
  H      14.959564     24.996036      5.758443
  H      17.007359     26.875603      5.750064
  H      17.755755     29.523665      5.677917
  H      19.633062     31.565108      5.735615
  H      18.939786     34.330255      5.751534
  H      17.046681     36.316274      5.692724
  H      16.181044     38.914863      5.758791
  P       8.177769     36.187831     11.879776
  O       9.007640     36.749946     12.979713
  O       6.691154     36.174652     11.948435
  O       8.667991     36.934468     10.528955
  O       8.604067     34.641380     11.615380
  C       9.975096     34.311777     11.502548
  C      10.050210     32.823311     11.231269
  O      11.337486     32.504123     10.682394
  C       9.884277     31.968624     12.478219
  O       9.190486     30.753282     12.263912
  C      11.335541     31.687178     12.870301
  O      11.502227     30.570333     13.687865
  C      11.989908     31.562788     11.491557
  N      13.402815     31.832851     11.461171
  C      14.016112     33.056915     11.489249
  N      15.320390     32.980843     11.455136
  C      15.584486     31.630835     11.405877
  C      16.777317     30.889052     11.364506
  N      17.988131     31.459565     11.388688
  N      16.687480     29.551371     11.328099
  C      15.481577     28.983638     11.331642
  N      14.293090     29.569676     11.376234
  C      14.402630     30.898738     11.408486
  H       8.034667     36.827258      9.808767
  H      10.431761     34.848057     10.667570
  H      10.512041     34.574531     12.420402
  H       9.285742     32.566193     10.493418
  H       9.343434     32.500559     13.261183
  H       9.359787     30.428987     11.371930
  H      11.758207     32.555461     13.382960
  H      10.825533     29.932532     13.417665
  H      11.867608     30.539957     11.115239
  H      13.439663     33.969732     11.516274
  H      18.078410     32.453617     11.268152
  H      18.799770     30.884755     11.238647
  H      15.477132     27.897657     11.291377
162
Coordinates from ORCA-job /data/Seafile/amp/frames/frame12/amp_frame12 E -13464.509554693190
  Si      3.502200     33.900448      7.790738
  Si      3.462463     30.793286      7.804956
  O       2.286702     34.793923      8.400289
  O       2.177005     30.033176      8.453940
  O       3.470173     32.351234      8.322187
  O       3.511615     33.895823      6.152685
  O       3.429407     30.848546      6.169445
  Si      6.146673     26.135977      7.793792
  Si      8.825736     24.545537      7.792219
  O       4.800868     25.490382      8.442181
  O       7.488818     25.347923      8.305882
  O       8.768501     23.047363      8.429711
  O       6.117684     26.137136      6.156378
  O       8.785862     24.541227      6.156492
  Si      6.123618     29.225519      7.684600
  Si      6.164759     35.447854      7.675426
  Si      8.895016     33.858086      7.582290
  Si      8.873226     30.778440      7.605527
  O       4.847585     30.050215      8.289870
  O       4.893468     34.628907      8.287059
  O       7.557540     34.671807      8.032979
  O       7.495710     30.034764      8.050066
  O       6.209615     27.707412      8.278693
  O       8.831636     32.324699      8.148826
  O       5.897911     29.166003      6.065326
  O       5.983939     35.611090      6.059219
  O       9.039362     33.820939      5.953874
  O       8.996235     30.861391      5.977379
  Si      6.191482     38.543078      7.785859
  Si      8.908256     40.069970      7.785482
  O       4.907474     39.306858      8.433519
  O       7.548077     39.309878      8.296292
  O       6.269676     36.968648      8.282049
  O       9.032863     41.554713      8.437957
  O       6.197229     38.578406      6.151873
  O       8.918983     40.099873      6.148043
  Si     11.515604     26.074042      7.698444
  Si     14.196445     24.541341      7.793225
  O      10.167191     25.359840      8.287428
  O      12.873141     25.384899      8.289393
  O      14.028269     23.040833      8.400422
  O      11.466524     25.874535      6.075295
  O      14.199388     24.551109      6.155263
  Si     11.522994     29.231545      7.646466
  Si     11.578668     35.371496      7.611265
  Si     14.225152     33.818284      7.657472
  Si     14.190523     30.748423      7.654955
  O      10.168276     29.971962      8.201424
  O      10.210622     34.651177      8.147724
  O      12.918886     34.639339      8.208155
  O      12.874327     29.952304      8.223008
  O      11.486546     27.662979      8.084474
  O      14.252363     32.281309      8.223099
  O      11.498915     29.379324      6.016657
  O      11.647978     35.217863      5.983030
  O      14.125936     33.704366      6.026991
  O      14.028555     30.796921      6.025861
  Si     11.588603     38.529525      7.674050
  Si     14.274156     40.061700      7.799117
  O      10.234341     39.223191      8.264200
  O      12.943380     39.221126      8.274782
  O      11.599812     36.938367      8.047975
  O      14.225679     41.554816      8.447423
  O      11.644950     38.744686      6.053295
  O      14.354522     40.062987      6.163801
  Si     16.904567     26.064394      7.810392
  O      15.555593     25.284179      8.327345
  O      18.210448     25.334575      8.454445
  O      16.871745     26.014408      6.174210
  Si     16.918468     29.153124      7.704254
  Si     16.961942     35.391797      7.713000
  Si     19.628723     33.829783      7.798037
  Si     19.594340     30.713934      7.787294
  O      15.534374     29.936121      8.075504
  O      15.598154     34.576334      8.097331
  O      18.253293     34.579751      8.304532
  O      18.202324     29.986240      8.267714
  O      16.851473     27.631734      8.300704
  O      19.609759     32.269052      8.303968
  O      17.063996     28.987528      6.080591
  O      17.166036     35.445141      6.089908
  O      19.643092     33.806527      6.162293
  O      19.615080     30.691877      6.149983
  Si     16.949070     38.479661      7.795368
  O      15.625168     39.290001      8.322634
  O      18.331519     39.087954      8.402076
  O      16.881142     36.914317      8.299264
  O      16.938451     38.467859      6.157551
  O      20.824287     29.869135      8.439504
  O      20.955984     34.530705      8.432404
  H       4.074657     24.986772      8.036591
  H       1.410409     29.602015      8.036749
  H       1.410409     35.007985      8.036749
  H       4.074657     39.623228      8.036591
  H       8.948181     22.173255      8.038302
  H       8.948181     42.436745      8.038302
  H      14.277762     22.173204      8.038282
  H      14.277762     42.436796      8.038282
  H      18.960557     24.876228      8.036406
  H      18.960557     39.733772      8.036406
  H      21.624717     29.491420      8.036583
  H      21.624717     35.118580      8.036583
  H      13.371890     34.178466      5.641808
  H      10.864534     34.805484      5.588082
  H       9.012761     32.930757      5.571262
  H       9.769256     30.399369      5.615691
  H      12.284399     29.819149      5.652600
  H      14.056073     31.693914      5.656234
  H      13.542391     39.783573      5.718422
  H      10.833368     39.095257      5.661397
  H       8.159197     39.674878      5.728397
  H       6.077235     37.716989      5.726770
  H       5.274883     35.077904      5.672065
  H       3.506943     33.014183      5.753880
  H       4.094502     30.294620      5.735984
  H       6.013441     28.292131      5.667523
  H       6.859037     25.680285      5.736849
  H       9.589317     24.876828      5.733868
  H      12.280482     25.531777      5.680907
  H      14.963161     24.993729      5.759020
  H      17.007567     26.873237      5.747848
  H      17.758740     29.524447      5.676295
  H      19.636692     31.563133      5.732175
  H      18.942665     34.332354      5.749260
  H      17.045922     36.317770      5.690261
  H      16.180354     38.918946      5.759614
  P       8.125942     36.128091     11.856341
  O       8.983044     36.735977     12.910450
  O       6.642465     36.093802     11.973973
  O       8.554931     36.839839     10.467948
  O       8.569516     34.580476     11.625699
  C       9.944242     34.268855     11.504790
  C      10.039403     32.782373     11.227672
  O      11.334401     32.485319     10.684326
  C       9.880293     31.920116     12.470332
  O       9.201286     30.697761     12.248979
  C      11.333864     31.652165     12.864128
  O      11.510494     30.534339     13.678036
  C      11.991131     31.540521     11.485542
  N      13.402396     31.817626     11.458346
  C      14.011622     33.043443     11.491153
  N      15.316186     32.971730     11.457704
  C      15.584928     31.622772     11.403968
  C      16.780064     30.884712     11.360658
  N      17.989326     31.458249     11.386404
  N      16.694103     29.546782     11.320539
  C      15.490049     28.975343     11.321554
  N      14.299793     29.557680     11.366708
  C      14.405431     30.886897     11.403227
  H       7.882881     36.729131      9.783574
  H      10.391567     34.813423     10.670024
  H      10.482594     34.533996     12.420952
  H       9.282471     32.518624     10.484438
  H       9.331818     32.442376     13.254416
  H       9.368827     30.383137     11.353339
  H      11.747267     32.522802     13.380365
  H      10.843642     29.888903     13.401530
  H      11.874414     30.519679     11.101204
  H      13.432209     33.954279     11.521743
  H      18.077361     32.452844     11.269092
  H      18.802301     30.885546     11.235568
  H      15.488963     27.889478     11.278237
162
Coordinates from ORCA-job /data/Seafile/amp/frames/frame12/amp_frame12 E -13464.509615633297
  Si      3.502194     33.900874      7.789444
  Si      3.462310     30.793434      7.804357
  O       2.287863     34.796135      8.398753
  O       2.177437     30.032605      8.453682
  O       3.468748     32.351655      8.320863
  O       3.511453     33.896089      6.151344
  O       3.429337     30.848131      6.168829
  Si      6.146569     26.136450      7.793787
  Si      8.825350     24.545545      7.792132
  O       4.800801     25.490563      8.442089
  O       7.488819     25.348537      8.305934
  O       8.766730     23.047217      8.429240
  O       6.117894     26.137707      6.156365
  O       8.785492     24.541501      6.156373
  Si      6.123665     29.226053      7.684467
  Si      6.164623     35.448777      7.674220
  Si      8.895004     33.858854      7.579818
  Si      8.873425     30.778838      7.605143
  O       4.847845     30.051293      8.289563
  O       4.894061     34.628233      8.285475
  O       7.557675     34.672937      8.030475
  O       7.495975     30.034959      8.049791
  O       6.209204     27.707912      8.278693
  O       8.831068     32.325540      8.146978
  O       5.897644     29.166302      6.065209
  O       5.982795     35.613200      6.058221
  O       9.039391     33.821265      5.951459
  O       8.996782     30.860518      5.976978
  Si      6.191642     38.543566      7.786023
  Si      8.908809     40.069750      7.786128
  O       4.908033     39.308307      8.433261
  O       7.548509     39.309837      8.296760
  O       6.268153     36.969159      8.282059
  O       9.033774     41.554755      8.438126
  O       6.197888     38.579170      6.151991
  O       8.919888     40.099270      6.148665
  Si     11.515330     26.074161      7.698611
  Si     14.195831     24.541061      7.792822
  O      10.167267     25.359070      8.287447
  O      12.873299     25.385624      8.289362
  O      14.025593     23.040469      8.399406
  O      11.466294     25.874787      6.075405
  O      14.198720     24.551142      6.154826
  Si     11.522635     29.231639      7.646843
  Si     11.579395     35.371403      7.608943
  Si     14.225764     33.817804      7.655270
  Si     14.190181     30.748045      7.653761
  O      10.168490     29.972830      8.202223
  O      10.211178     34.651361      8.145204
  O      12.919595     34.639235      8.205752
  O      12.874451     29.951956      8.222737
  O      11.485509     27.663037      8.084879
  O      14.252365     32.281099      8.221352
  O      11.498307     29.378749      6.016948
  O      11.649199     35.218485      5.980706
  O      14.126897     33.703785      6.024803
  O      14.027467     30.795864      6.024730
  Si     11.589082     38.529550      7.674150
  Si     14.274416     40.061793      7.798916
  O      10.234798     39.222754      8.265136
  O      12.944175     39.220519      8.274952
  O      11.600256     36.938114      8.046695
  O      14.225126     41.554823      8.447381
  O      11.645179     38.746279      6.053565
  O      14.354139     40.063006      6.163582
  Si     16.904318     26.063859      7.810163
  O      15.555764     25.282644      8.326768
  O      18.210602     25.334904      8.454339
  O      16.871487     26.013966      6.173972
  Si     16.918201     29.152465      7.703665
  Si     16.962421     35.391578      7.711838
  Si     19.629144     33.829327      7.797606
  Si     19.594072     30.713493      7.787010
  O      15.534282     29.936063      8.074013
  O      15.599043     34.575155      8.095530
  O      18.254059     34.580216      8.303712
  O      18.202088     29.985533      8.267146
  O      16.850449     27.631215      8.300451
  O      19.609275     32.268636      8.303716
  O      17.064341     28.986230      6.080091
  O      17.167098     35.445076      6.088813
  O      19.643778     33.806060      6.161835
  O      19.614999     30.691526      6.149708
  Si     16.949365     38.479415      7.794330
  O      15.626226     39.290945      8.321696
  O      18.332870     39.085805      8.400615
  O      16.880273     36.914060      8.298071
  O      16.938518     38.467880      6.156484
  O      20.824066     29.868837      8.439400
  O      20.957006     34.529204      8.431923
  H       4.074657     24.986772      8.036591
  H       1.410409     29.602015      8.036749
  H       1.410409     35.007985      8.036749
  H       4.074657     39.623228      8.036591
  H       8.948181     22.173255      8.038302
  H       8.948181     42.436745      8.038302
  H      14.277762     22.173204      8.038282
  H      14.277762     42.436796      8.038282
  H      18.960557     24.876228      8.036406
  H      18.960557     39.733772      8.036406
  H      21.624717     29.491420      8.036583
  H      21.624717     35.118580      8.036583
  H      13.373311     34.178451      5.639447
  H      10.865769     34.806620      5.585325
  H       9.013500     32.930925      5.569266
  H       9.769527     30.397777      5.615617
  H      12.283492     29.818891      5.652621
  H      14.056008     31.692602      5.654587
  H      13.541531     39.784131      5.718671
  H      10.833225     39.096351      5.661927
  H       8.160010     39.674629      5.728827
  H       6.077565     37.717790      5.726878
  H       5.273843     35.079758      5.671220
  H       3.507468     33.014345      5.752772
  H       4.094516     30.294017      5.735682
  H       6.013853     28.292474      5.667472
  H       6.859162     25.680546      5.737000
  H       9.588849     24.877528      5.733912
  H      12.280215     25.531699      5.681227
  H      14.962420     24.994098      5.758812
  H      17.007907     26.872756      5.747686
  H      17.758865     29.523433      5.675807
  H      19.637012     31.562784      5.731922
  H      18.943206     34.331733      5.748831
  H      17.046938     36.317738      5.689261
  H      16.179775     38.918195      5.758913
  P       8.140569     36.140355     11.870913
  O       8.982974     36.715004     12.955052
  O       6.654946     36.115578     11.960783
  O       8.600922     36.882515     10.508196
  O       8.575483     34.595051     11.610489
  C       9.948928     34.274755     11.499931
  C      10.039250     32.787071     11.226666
  O      11.333477     32.487025     10.683116
  C       9.879389     31.927576     12.471049
  O       9.196221     30.707082     12.252923
  C      11.332649     31.655998     12.863619
  O      11.506989     30.538633     13.678608
  C      11.989093     31.541828     11.484681
  N      13.400616     31.817857     11.457188
  C      14.009652     33.043770     11.490343
  N      15.314212     32.972325     11.457321
  C      15.583190     31.623425     11.403712
  C      16.778568     30.885754     11.361087
  N      17.987562     31.459826     11.387275
  N      16.693101     29.547802     11.321275
  C      15.489194     28.976019     11.321785
  N      14.298695     29.557985     11.366224
  C      14.403847     30.887265     11.402607
  H       7.945054     36.784841      9.806265
  H      10.404800     34.814190     10.666450
  H      10.482993     34.539372     12.418764
  H       9.281475     32.523631     10.484772
  H       9.333520     32.452953     13.254886
  H       9.363351     30.389269     11.358377
  H      11.748703     32.526121     13.378642
  H      10.837778     29.894896     13.403897
  H      11.871060     30.520953     11.100739
  H      13.430115     33.954507     11.521004
  H      18.075161     32.454435     11.269864
  H      18.800936     30.887478     11.237214
  H      15.488457     27.890149     11.278688
162
Coordinates from ORCA-job /data/Seafile/amp/frames/frame12/amp_frame12 E -13464.509659357242
  Si      3.502199     33.901359      7.789457
  Si      3.462143     30.793735      7.804162
  O       2.287891     34.796518      8.398883
  O       2.176850     30.033732      8.453588
  O       3.468797     32.352041      8.320643
  O       3.512268     33.897056      6.151344
  O       3.428874     30.848514      6.168631
  Si      6.146472     26.136438      7.793648
  Si      8.825355     24.545372      7.792092
  O       4.800861     25.490321      8.442260
  O       7.488845     25.348618      8.305584
  O       8.766751     23.047100      8.429514
  O       6.117552     26.137638      6.156245
  O       8.785609     24.541037      6.156331
  Si      6.123463     29.226034      7.683902
  Si      6.164811     35.449165      7.674480
  Si      8.895223     33.858903      7.577480
  Si      8.873562     30.778545      7.604019
  O       4.847714     30.051481      8.289009
  O       4.894172     34.628675      8.285454
  O       7.557451     34.672182      8.028847
  O       7.495795     30.035206      8.048468
  O       6.209088     27.707972      8.278400
  O       8.831078     32.325547      8.144798
  O       5.896992     29.165987      6.064708
  O       5.980696     35.616772      6.059273
  O       9.039725     33.821834      5.949252
  O       8.997285     30.859427      5.975846
  Si      6.191426     38.542944      7.787164
  Si      8.908656     40.069952      7.786272
  O       4.905112     39.302632      8.434612
  O       7.547067     39.312115      8.296371
  O       6.272028     36.968718      8.285181
  O       9.035508     41.554926      8.438226
  O       6.196555     38.577244      6.153241
  O       8.920246     40.099580      6.148832
  Si     11.515357     26.074010      7.698657
  Si     14.195942     24.540793      7.792997
  O      10.167295     25.358886      8.287509
  O      12.873484     25.385662      8.289234
  O      14.026039     23.040302      8.400041
  O      11.465968     25.874171      6.075419
  O      14.199118     24.550494      6.155009
  Si     11.522668     29.231557      7.646561
  Si     11.579743     35.370910      7.606683
  Si     14.226119     33.817256      7.652938
  Si     14.190267     30.747611      7.651978
  O      10.168670     29.972930      8.202080
  O      10.211279     34.651597      8.143513
  O      12.919610     34.638248      8.203461
  O      12.874735     29.951862      8.221749
  O      11.485637     27.662948      8.084642
  O      14.252838     32.280825      8.219130
  O      11.497919     29.377980      6.016560
  O      11.649622     35.218532      5.978499
  O      14.127655     33.703106      6.022469
  O      14.027504     30.794824      6.023001
  Si     11.588846     38.529203      7.674160
  Si     14.274070     40.061869      7.799149
  O      10.233922     39.221467      8.265266
  O      12.943921     39.220309      8.274973
  O      11.600993     36.937516      8.045468
  O      14.224539     41.554933      8.447522
  O      11.645236     38.747010      6.053712
  O      14.353928     40.063015      6.163809
  Si     16.904407     26.063606      7.810301
  O      15.555697     25.282759      8.327016
  O      18.210246     25.334041      8.454603
  O      16.871604     26.013186      6.174071
  Si     16.918481     29.152357      7.703145
  Si     16.962434     35.391636      7.710888
  Si     19.629323     33.829666      7.797317
  Si     19.594202     30.713673      7.786658
  O      15.534073     29.935432      8.072694
  O      15.598981     34.575000      8.093894
  O      18.253909     34.580254      8.303020
  O      18.202078     29.985859      8.266631
  O      16.850800     27.631094      8.299939
  O      19.609348     32.268857      8.303065
  O      17.065113     28.986069      6.079603
  O      17.167753     35.445404      6.087946
  O      19.644912     33.806913      6.161543
  O      19.615232     30.691228      6.149367
  Si     16.949223     38.479676      7.793852
  O      15.626219     39.291312      8.321671
  O      18.332987     39.085469      8.400301
  O      16.879593     36.914148      8.297002
  O      16.938104     38.468565      6.155996
  O      20.824391     29.869536      8.439477
  O      20.956474     34.530187      8.432433
  H       4.074658     24.986772      8.036591
  H       1.410409     29.602015      8.036749
  H       1.410409     35.007985      8.036749
  H       4.074657     39.623228      8.036591
  H       8.948181     22.173255      8.038302
  H       8.948181     42.436745      8.038302
  H      14.277762     22.173204      8.038282
  H      14.277762     42.436796      8.038282
  H      18.960557     24.876228      8.036406
  H      18.960556     39.733772      8.036406
  H      21.624717     29.491420      8.036583
  H      21.624717     35.118580      8.036583
  H      13.374566     34.178421      5.637014
  H      10.866291     34.806560      5.583110
  H       9.013585     32.931520      5.567061
  H       9.770109     30.396673      5.614689
  H      12.282715     29.818223      5.651625
  H      14.055927     31.691546      5.652807
  H      13.541157     39.784858      5.718749
  H      10.833187     39.096298      5.661611
  H       8.160597     39.675449      5.728178
  H       6.075226     37.715621      5.728771
  H       5.272072     35.082705      5.672377
  H       3.508091     33.015313      5.752743
  H       4.093930     30.294434      5.735252
  H       6.013351     28.292094      5.667132
  H       6.858627     25.680358      5.736689
  H       9.589135     24.877009      5.734121
  H      12.280028     25.531555      5.681171
  H      14.963050     24.993436      5.759380
  H      17.008173     26.871742      5.747404
  H      17.760113     29.523004      5.675774
  H      19.638194     31.562239      5.731150
  H      18.944334     34.332569      5.748523
  H      17.047157     36.318149      5.688702
  H      16.178873     38.918748      5.759136
  P       8.133448     36.129676     11.860313
  O       8.960239     36.694403     12.961552
  O       6.646404     36.108440     11.925462
  O       8.617640     36.880004     10.509855
  O       8.568277     34.584795     11.596591
  C       9.942020     34.263271     11.496887
  C      10.035210     32.775313     11.226117
  O      11.331466     32.480593     10.684053
  C       9.876948     31.915391     12.470141
  O       9.194435     30.694735     12.251215
  C      11.330488     31.644277     12.862025
  O      11.505614     30.526059     13.675578
  C      11.987377     31.533418     11.482891
  N      13.398620     31.811050     11.456706
  C      14.005397     33.038022     11.492496
  N      15.310079     32.969078     11.460063
  C      15.581585     31.620764     11.404437
  C      16.778421     30.885528     11.361172
  N      17.986171     31.462116     11.388005
  N      16.695660     29.547460     11.319950
  C      15.492859     28.973325     11.319187
  N      14.301145     29.552902     11.363490
  C      14.403647     30.882352     11.401624
  H       7.973435     36.785983      9.796494
  H      10.404485     34.799725     10.664954
  H      10.470342     34.529481     12.418548
  H       9.279316     32.509302     10.483974
  H       9.331052     32.439894     13.254541
  H       9.361368     30.377920     11.356325
  H      11.745966     32.513948     13.378309
  H      10.837469     29.881802     13.399548
  H      11.870100     30.513612     11.095579
  H      13.424259     33.947647     11.524721
  H      18.071677     32.457032     11.271693
  H      18.800850     30.891609     11.237958
  H      15.494277     27.887511     11.274866
162
Coordinates from ORCA-job /data/Seafile/amp/frames/frame12/amp_frame12 E -13464.509691219953
  Si      3.502309     33.902223      7.788842
  Si      3.461914     30.794241      7.803564
  O       2.288558     34.797932      8.398404
  O       2.175997     30.035626      8.453206
  O       3.468615     32.352806      8.319660
  O       3.513277     33.898480      6.150647
  O       3.428580     30.848927      6.168003
  Si      6.146306     26.136524      7.793317
  Si      8.825323     24.545117      7.791961
  O       4.801120     25.489826      8.442425
  O       7.488949     25.349001      8.304909
  O       8.766015     23.046905      8.429667
  O       6.117100     26.137732      6.155927
  O       8.786225     24.540483      6.156165
  Si      6.123255     29.226152      7.683048
  Si      6.165479     35.449687      7.674171
  Si      8.895673     33.858621      7.572749
  Si      8.873920     30.777822      7.602116
  O       4.847545     30.051974      8.288003
  O       4.894668     34.629207      8.284529
  O       7.557354     34.670500      8.025358
  O       7.495647     30.035529      8.046639
  O       6.208785     27.708158      8.277844
  O       8.831416     32.325469      8.140530
  O       5.896417     29.165609      6.063894
  O       5.977525     35.622453      6.060152
  O       9.040070     33.822085      5.944751
  O       8.998309     30.856549      5.973956
  Si      6.191139     38.541440      7.788233
  Si      8.908458     40.070211      7.785938
  O       4.900158     39.292114      8.436365
  O       7.544628     39.315863      8.294882
  O       6.278988     36.967703      8.289616
  O       9.038940     41.555016      8.437925
  O       6.194492     38.573676      6.154506
  O       8.921229     40.099986      6.148528
  Si     11.515283     26.073946      7.698875
  Si     14.195865     24.540347      7.793215
  O      10.167348     25.358390      8.287610
  O      12.873678     25.385896      8.288986
  O      14.025630     23.039988      8.400662
  O      11.465396     25.873821      6.075536
  O      14.199827     24.549638      6.155222
  Si     11.522643     29.231455      7.646605
  Si     11.580341     35.370085      7.602179
  Si     14.226814     33.816444      7.648869
  Si     14.190385     30.746973      7.649527
  O      10.168905     29.973133      8.202363
  O      10.211423     34.651858      8.139346
  O      12.919400     34.636326      8.199110
  O      12.874922     29.952104      8.220566
  O      11.485608     27.662829      8.084898
  O      14.253816     32.280570      8.215569
  O      11.497602     29.376496      6.016432
  O      11.650606     35.219064      5.974113
  O      14.129353     33.702177      6.018412
  O      14.027593     30.792893      6.020648
  Si     11.588335     38.528509      7.673761
  Si     14.273266     40.061997      7.799344
  O      10.232211     39.218915      8.265141
  O      12.943295     39.219916      8.274778
  O      11.602051     36.936470      8.043046
  O      14.222655     41.555040      8.447562
  O      11.645053     38.748303      6.053569
  O      14.353440     40.062674      6.163966
  Si     16.904389     26.063104      7.810616
  O      15.555497     25.282585      8.327374
  O      18.209572     25.332592      8.454964
  O      16.871291     26.012186      6.174306
  Si     16.918715     29.152126      7.702730
  Si     16.962299     35.391940      7.709121
  Si     19.629528     33.830236      7.796803
  Si     19.594283     30.713805      7.786240
  O      15.533675     29.934479      8.071341
  O      15.598972     34.574732      8.091311
  O      18.253701     34.580699      8.301567
  O      18.202026     29.986164      8.266143
  O      16.851236     27.630742      8.299339
  O      19.609025     32.269188      8.301962
  O      17.066040     28.986023      6.079196
  O      17.168374     35.446059      6.086281
  O      19.646648     33.808536      6.161014
  O      19.615184     30.690342      6.148967
  Si     16.948830     38.480310      7.792950
  O      15.626183     39.292324      8.321488
  O      18.333341     39.084531      8.399370
  O      16.878165     36.914461      8.294988
  O      16.937045     38.470248      6.155052
  O      20.825100     29.870914      8.439634
  O      20.955815     34.531352      8.433132
  H       4.074657     24.986772      8.036591
  H       1.410409     29.602015      8.036749
  H       1.410409     35.007985      8.036749
  H       4.074657     39.623228      8.036591
  H       8.948181     22.173255      8.038302
  H       8.948181     42.436745      8.038302
  H      14.277762     22.173204      8.038282
  H      14.277762     42.436796      8.038282
  H      18.960557     24.876228      8.036406
  H      18.960557     39.733772      8.036406
  H      21.624717     29.491420      8.036583
  H      21.624717     35.118580      8.036583
  H      13.377669     34.179076      5.632230
  H      10.867030     34.808271      5.577924
  H       9.012948     32.931905      5.562305
  H       9.770669     30.392850      5.613032
  H      12.282327     29.815774      5.650302
  H      14.056873     31.689225      5.649603
  H      13.540434     39.785514      5.718677
  H      10.833112     39.097051      5.660846
  H       8.162179     39.676667      5.726209
  H       6.071061     37.711610      5.731251
  H       5.269674     35.087217      5.673257
  H       3.508585     33.016722      5.752074
  H       4.093407     30.294766      5.734443
  H       6.012660     28.291577      5.666588
  H       6.857630     25.679936      5.736015
  H       9.589893     24.877064      5.734604
  H      12.279724     25.532321      5.680880
  H      14.963856     24.993293      5.760433
  H      17.008410     26.870363      5.747099
  H      17.761822     29.522498      5.676027
  H      19.639689     31.560763      5.729737
  H      18.945827     34.333828      5.747937
  H      17.047304     36.318891      5.687345
  H      16.176578     38.919756      5.759606
  P       8.107928     36.100726     11.851768
  O       8.919429     36.655164     12.969438
  O       6.620056     36.074828     11.896953
  O       8.606694     36.868637     10.515690
  O       8.550313     34.560070     11.575563
  C       9.925352     34.241728     11.489290
  C      10.027541     32.752816     11.224983
  O      11.327831     32.468272     10.686529
  C       9.872905     31.893185     12.469680
  O       9.191363     30.671632     12.251632
  C      11.327138     31.623605     12.860157
  O      11.504395     30.504439     13.671774
  C      11.984421     31.517824     11.480672
  N      13.395176     31.798373     11.456370
  C      13.997715     33.027318     11.497237
  N      15.302627     32.963054     11.465979
  C      15.578801     31.615865     11.406447
  C      16.778402     30.885221     11.362288
  N      17.983846     31.466542     11.390664
  N      16.700706     29.546944     11.318345
  C      15.499992     28.968421     11.314798
  N      14.306029     29.543472     11.358611
  C      14.403494     30.873217     11.400198
  H       7.970901     36.779165      9.794174
  H      10.393766     34.774198     10.658135
  H      10.445670     34.513743     12.413685
  H       9.275428     32.478974     10.481446
  H       9.327324     32.416772     13.255051
  H       9.357102     30.355042     11.356388
  H      11.741447     32.493057     13.377834
  H      10.837513     29.859281     13.394808
  H      11.868486     30.499895     11.088110
  H      13.413521     33.934830     11.532400
  H      18.065568     32.462095     11.276837
  H      18.801034     30.899618     11.240918
  H      15.505449     27.882731     11.268136
162
Coordinates from ORCA-job /data/Seafile/amp/frames/frame12/amp_frame12 E -13464.509702406842
  Si      3.502269     33.902522      7.788947
  Si      3.461977     30.794331      7.803287
  O       2.288305     34.797679      8.398806
  O       2.175458     30.036807      8.453058
  O       3.469125     32.352983      8.319502
  O       3.513577     33.899350      6.150673
  O       3.428601     30.848762      6.167718
  Si      6.146293     26.136326      7.793239
  Si      8.825645     24.545020      7.792176
  O       4.801325     25.489397      8.442606
  O       7.489076     25.348925      8.304765
  O       8.766513     23.046831      8.430138
  O       6.116972     26.137618      6.155841
  O       8.787114     24.540267      6.156367
  Si      6.123399     29.225946      7.682776
  Si      6.165761     35.449997      7.674573
  Si      8.895613     33.858036      7.571831
  Si      8.874440     30.776928      7.601910
  O       4.847495     30.051798      8.287584
  O       4.894437     34.630029      8.284531
  O       7.556615     34.668866      8.024001
  O       7.495724     30.035333      8.046386
  O       6.208814     27.707978      8.277769
  O       8.831961     32.324791      8.139418
  O       5.896773     29.165167      6.063564
  O       5.975988     35.625322      6.060995
  O       9.040212     33.821865      5.943909
  O       8.999390     30.854440      5.973817
  Si      6.190623     38.540302      7.788385
  Si      8.908062     40.070419      7.785495
  O       4.896540     39.284521      8.437464
  O       7.542710     39.318232      8.293780
  O       6.283227     36.967191      8.292216
  O       9.041169     41.555033      8.437526
  O       6.193733     38.571534      6.154821
  O       8.921784     40.100115      6.148099
  Si     11.515473     26.074012      7.699495
  Si     14.196135     24.540171      7.793928
  O      10.167442     25.358502      8.288219
  O      12.873779     25.385615      8.289374
  O      14.026619     23.039849      8.401796
  O      11.465309     25.874111      6.076130
  O      14.200487     24.549202      6.155916
  Si     11.523113     29.231394      7.647733
  Si     11.580079     35.369967      7.601838
  Si     14.226937     33.816732      7.648235
  Si     14.190728     30.747185      7.649992
  O      10.169210     29.972697      8.203622
  O      10.210993     34.651981      8.138780
  O      12.918851     34.635656      8.198593
  O      12.875009     29.952921      8.221396
  O      11.486411     27.662731      8.086071
  O      14.254663     32.281102      8.215161
  O      11.497955     29.375832      6.017476
  O      11.650562     35.219845      5.973815
  O      14.129889     33.702309      6.017762
  O      14.027975     30.792426      6.021075
  Si     11.587393     38.528225      7.674144
  Si     14.272224     40.062089      7.799849
  O      10.230501     39.217403      8.265621
  O      12.942169     39.220158      8.275307
  O      11.602019     36.936310      8.043377
  O      14.221157     41.555206      8.447762
  O      11.643990     38.748363      6.054007
  O      14.352472     40.062328      6.164447
  Si     16.904543     26.063073      7.811254
  O      15.555339     25.283187      8.328351
  O      18.209206     25.331520      8.455479
  O      16.871308     26.012042      6.174914
  Si     16.918928     29.152356      7.703380
  Si     16.962040     35.392571      7.708999
  Si     19.629371     33.830932      7.796887
  Si     19.594419     30.714132      7.786350
  O      15.533544     29.934005      8.072153
  O      15.598600     34.575663      8.091169
  O      18.253326     34.581141      8.301563
  O      18.202209     29.986604      8.266697
  O      16.852012     27.630788      8.299733
  O      19.609015     32.269714      8.301625
  O      17.066220     28.986776      6.079729
  O      17.168237     35.446678      6.086174
  O      19.646888     33.809750      6.161099
  O      19.614710     30.690062      6.149084
  Si     16.948206     38.481115      7.793273
  O      15.625296     39.292634      8.322208
  O      18.332682     39.085352      8.399764
  O      16.877665     36.915083      8.294815
  O      16.936183     38.471573      6.155358
  O      20.825726     29.871997      8.439869
  O      20.955044     34.532713      8.433881
  H       4.074658     24.986772      8.036591
  H       1.410409     29.602015      8.036749
  H       1.410409     35.007985      8.036749
  H       4.074657     39.623228      8.036591
  H       8.948181     22.173255      8.038302
  H       8.948181     42.436745      8.038302
  H      14.277762     22.173204      8.038282
  H      14.277762     42.436796      8.038282
  H      18.960557     24.876228      8.036406
  H      18.960556     39.733772      8.036406
  H      21.624717     29.491420      8.036583
  H      21.624717     35.118580      8.036583
  H      13.378093     34.178596      5.631148
  H      10.867300     34.809131      5.577052
  H       9.013614     32.931897      5.561027
  H       9.772376     30.391348      5.613437
  H      12.282153     29.815436      5.650717
  H      14.057094     31.688512      5.649492
  H      13.539546     39.784902      5.719170
  H      10.832415     39.097848      5.661183
  H       8.163505     39.676560      5.724757
  H       6.068460     37.709237      5.732334
  H       5.268664     35.089451      5.673900
  H       3.507860     33.017794      5.751694
  H       4.093695     30.294967      5.734109
  H       6.012382     28.290959      5.666460
  H       6.857281     25.679706      5.735707
  H       9.590835     24.877206      5.735159
  H      12.279596     25.533083      5.681036
  H      14.964675     24.992820      5.761369
  H      17.008232     26.870110      5.747466
  H      17.762626     29.522786      5.676965
  H      19.639921     31.560168      5.729280
  H      18.946129     34.335077      5.747948
  H      17.047005     36.319455      5.687175
  H      16.175378     38.920957      5.760362
  P       8.089812     36.080097     11.842299
  O       8.892087     36.636093     12.965709
  O       6.601791     36.048861     11.877749
  O       8.594718     36.851686     10.510091
  O       8.539290     34.541341     11.567239
  C       9.915440     34.227244     11.486521
  C      10.023567     32.738364     11.225274
  O      11.325732     32.459385     10.688390
  C       9.870755     31.878391     12.470041
  O       9.189277     30.656809     12.251352
  C      11.325250     31.609364     12.859665
  O      11.503581     30.488741     13.668985
  C      11.982981     31.507381     11.480155
  N      13.393382     31.789940     11.457337
  C      13.993007     33.020233     11.501466
  N      15.298060     32.959178     11.470898
  C      15.577386     31.612770     11.408708
  C      16.778851     30.885313     11.363619
  N      17.982661     31.469982     11.392840
  N      16.704698     29.546932     11.317670
  C      15.505420     28.965396     11.312451
  N      14.309939     29.537304     11.356224
  C      14.403893     30.867241     11.400235
  H       7.960359     36.765264      9.786764
  H      10.384894     34.759474     10.655762
  H      10.431612     34.502692     12.412224
  H       9.273280     32.460459     10.481729
  H       9.325432     32.400984     13.256242
  H       9.354832     30.341341     11.355631
  H      11.738644     32.478205     13.379142
  H      10.836627     29.843915     13.391360
  H      11.868226     30.490460     11.084391
  H      13.406692     33.926271     11.538420
  H      18.061554     32.465945     11.280688
  H      18.801592     30.905716     11.242592
  H      15.513656     27.879807     11.264123
162
Coordinates from ORCA-job /data/Seafile/amp/frames/frame12/amp_frame12 E -13464.509713398671
  Si      3.502249     33.902699      7.788642
  Si      3.462092     30.794264      7.802767
  O       2.288332     34.797761      8.398781
  O       2.175258     30.037418      8.452854
  O       3.469378     32.353056      8.318938
  O       3.513370     33.899972      6.150274
  O       3.428717     30.848027      6.167211
  Si      6.146299     26.136146      7.793187
  Si      8.825980     24.544948      7.792357
  O       4.801608     25.488905      8.442750
  O       7.489277     25.348939      8.304690
  O       8.766609     23.046746      8.430431
  O       6.116935     26.137645      6.155763
  O       8.788142     24.540205      6.156548
  Si      6.123705     29.225762      7.682570
  Si      6.166057     35.450302      7.674471
  Si      8.895532     33.857174      7.570846
  Si      8.875169     30.775792      7.601706
  O       4.847632     30.051773      8.287141
  O       4.894349     34.630482      8.283995
  O       7.555993     34.667179      8.021766
  O       7.496086     30.034823      8.046505
  O       6.208754     27.707808      8.277792
  O       8.832719     32.323923      8.138044
  O       5.897418     29.164697      6.063280
  O       5.974823     35.627680      6.061035
  O       9.040315     33.820995      5.942904
  O       9.000778     30.851497      5.973710
  Si      6.190139     38.539357      7.788021
  Si      8.907884     40.070499      7.785347
  O       4.893517     39.278052      8.438279
  O       7.541209     39.319981      8.292990
  O       6.285959     36.966812      8.293553
  O       9.043601     41.555044      8.437044
  O       6.194185     38.570481      6.154632
  O       8.922743     40.099796      6.147957
  Si     11.515640     26.074109      7.700084
  Si     14.196317     24.539935      7.794518
  O      10.167598     25.358517      8.288860
  O      12.873864     25.385322      8.289680
  O      14.026854     23.039624      8.402611
  O      11.465259     25.874817      6.076731
  O      14.201079     24.548805      6.156477
  Si     11.523659     29.231277      7.649256
  Si     11.579763     35.370180      7.601896
  Si     14.227084     33.817433      7.648187
  Si     14.191030     30.747622      7.651500
  O      10.169483     29.972066      8.205291
  O      10.210666     34.651745      8.137695
  O      12.918394     34.635548      8.198494
  O      12.874900     29.953938      8.223022
  O      11.487207     27.662568      8.087599
  O      14.255483     32.281959      8.215452
  O      11.498876     29.375310      6.018949
  O      11.650766     35.221182      5.973852
  O      14.130389     33.703046      6.017706
  O      14.028101     30.792276      6.022490
  Si     11.586298     38.528153      7.674749
  Si     14.271042     40.062167      7.800220
  O      10.228914     39.216037      8.266964
  O      12.941044     39.220345      8.276063
  O      11.601487     36.936411      8.044054
  O      14.219031     41.555355      8.447852
  O      11.642152     38.748864      6.054710
  O      14.351054     40.061827      6.164791
  Si     16.904631     26.062970      7.811824
  O      15.555228     25.283447      8.329260
  O      18.209009     25.330740      8.455984
  O      16.871289     26.012073      6.175492
  Si     16.918998     29.152479      7.704207
  Si     16.961884     35.393405      7.709039
  Si     19.629174     33.831550      7.796948
  Si     19.594432     30.714312      7.786496
  O      15.533493     29.933658      8.073491
  O      15.598425     34.576767      8.091373
  O      18.253188     34.581941      8.301748
  O      18.202459     29.986616      8.267440
  O      16.852503     27.630743      8.300344
  O      19.608724     32.270172      8.301292
  O      17.066130     28.987423      6.080419
  O      17.168114     35.447337      6.086222
  O      19.646632     33.810734      6.161182
  O      19.613867     30.689639      6.149230
  Si     16.947531     38.482031      7.793599
  O      15.624360     39.293082      8.322802
  O      18.332045     39.086136      8.400043
  O      16.877183     36.915861      8.294835
  O      16.935369     38.473053      6.155672
  O      20.826325     29.873067      8.440077
  O      20.954761     34.533312      8.434368
  H       4.074658     24.986772      8.036591
  H       1.410409     29.602015      8.036749
  H       1.410409     35.007985      8.036749
  H       4.074657     39.623228      8.036591
  H       8.948181     22.173255      8.038302
  H       8.948181     42.436745      8.038302
  H      14.277762     22.173204      8.038282
  H      14.277762     42.436796      8.038282
  H      18.960557     24.876228      8.036406
  H      18.960556     39.733772      8.036406
  H      21.624717     29.491420      8.036583
  H      21.624717     35.118580      8.036583
  H      13.378908     34.179308      5.630524
  H      10.867765     34.811058      5.576074
  H       9.014860     32.931289      5.559498
  H       9.774469     30.388738      5.614291
  H      12.282866     29.815078      5.651936
  H      14.057914     31.687959      5.650089
  H      13.538091     39.783931      5.719841
  H      10.830935     39.099961      5.662501
  H       8.165503     39.675346      5.723746
  H       6.066659     37.708145      5.732671
  H       5.268087     35.091312      5.673568
  H       3.507049     33.018760      5.750656
  H       4.094373     30.294781      5.733777
  H       6.012442     28.290323      5.666372
  H       6.856973     25.679535      5.735415
  H       9.591728     24.877835      5.735636
  H      12.279326     25.534007      5.681054
  H      14.965263     24.992459      5.761983
  H      17.007985     26.870137      5.747980
  H      17.763054     29.523028      5.677966
  H      19.639714     31.559436      5.728881
  H      18.945999     34.336127      5.747927
  H      17.046640     36.319870      5.686816
  H      16.174227     38.921964      5.760786
  P       8.067289     36.057098     11.832501
  O       8.858375     36.617084     12.961756
  O       6.579376     36.017101     11.858203
  O       8.577105     36.832653     10.504054
  O       8.527136     34.521246     11.559715
  C       9.905005     34.213883     11.482520
  C      10.020238     32.725050     11.224987
  O      11.323888     32.450298     10.689994
  C       9.868719     31.865812     12.470771
  O       9.186706     30.644217     12.252922
  C      11.323353     31.597289     12.859889
  O      11.502569     30.475734     13.667785
  C      11.981551     31.497522     11.480555
  N      13.391657     31.781861     11.458883
  C      13.988484     33.013459     11.506010
  N      15.293668     32.955465     11.476120
  C      15.575985     31.609825     11.411449
  C      16.779252     30.885474     11.365661
  N      17.981445     31.473412     11.396117
  N      16.708542     29.547002     11.317614
  C      15.510636     28.962583     11.310586
  N      14.313718     29.531446     11.354327
  C      14.404246     30.861547     11.400768
  H       7.943748     36.749700      9.779305
  H      10.372984     34.747286     10.651723
  H      10.417651     34.493628     12.408950
  H       9.271474     32.442199     10.481636
  H       9.323918     32.388429     13.257285
  H       9.352502     30.328348     11.357287
  H      11.735796     32.465987     13.380411
  H      10.834288     29.831838     13.391120
  H      11.867839     30.481166     11.083129
  H      13.400061     33.918051     11.544502
  H      18.057567     32.469842     11.286196
  H      18.802194     30.911900     11.245479
  H      15.521549     27.877097     11.260563
162
Coordinates from ORCA-job /data/Seafile/amp/frames/frame12/amp_frame12 E -13464.509720521482
  Si      3.502236     33.902636      7.788244
  Si      3.462153     30.794112      7.802438
  O       2.288331     34.797597      8.398660
  O       2.175287     30.037439      8.452796
  O       3.469529     32.352977      8.318481
  O       3.512721     33.900010      6.149848
  O       3.428650     30.847220      6.166910
  Si      6.146308     26.136048      7.793246
  Si      8.826124     24.544951      7.792499
  O       4.801721     25.488690      8.442805
  O       7.489346     25.348898      8.304779
  O       8.766666     23.046720      8.430535
  O       6.116931     26.137684      6.155810
  O       8.788566     24.540222      6.156708
  Si      6.123877     29.225636      7.682556
  Si      6.166053     35.450437      7.673775
  Si      8.895503     33.856617      7.570198
  Si      8.875561     30.775090      7.601586
  O       4.847725     30.051717      8.286971
  O       4.894320     34.630517      8.283256
  O       7.555672     34.666418      8.019813
  O       7.496311     30.034446      8.046811
  O       6.208685     27.707700      8.277919
  O       8.833209     32.323401      8.137209
  O       5.897772     29.164453      6.063241
  O       5.974424     35.628382      6.060221
  O       9.040489     33.820121      5.942190
  O       9.001444     30.849623      5.973652
  Si      6.189972     38.539219      7.787707
  Si      8.907921     40.070399      7.785857
  O       4.892590     39.276151      8.438616
  O       7.540853     39.320265      8.293284
  O       6.285875     36.966722      8.292895
  O       9.044757     41.555104      8.436909
  O       6.195329     38.571284      6.154386
  O       8.923282     40.099277      6.148464
  Si     11.515712     26.074114      7.700444
  Si     14.196398     24.539830      7.794866
  O      10.167629     25.358588      8.289257
  O      12.873837     25.385024      8.289926
  O      14.026973     23.039488      8.403005
  O      11.465250     25.875291      6.077127
  O      14.201267     24.548586      6.156822
  Si     11.523972     29.231136      7.650166
  Si     11.579653     35.370469      7.602255
  Si     14.227184     33.817913      7.648609
  Si     14.191148     30.747845      7.652921
  O      10.169498     29.971488      8.206164
  O      10.210555     34.651394      8.136906
  O      12.918310     34.635826      8.198798
  O      12.874713     29.954475      8.224323
  O      11.487732     27.662430      8.088549
  O      14.255894     32.282438      8.216065
  O      11.499598     29.375143      6.019877
  O      11.651233     35.222211      5.974134
  O      14.130595     33.703460      6.018167
  O      14.028074     30.792143      6.023828
  Si     11.585665     38.528273      7.675429
  Si     14.270422     40.062150      7.800415
  O      10.228303     39.215530      8.268534
  O      12.940472     39.220486      8.276736
  O      11.601048     36.936564      8.044733
  O      14.217996     41.555428      8.447888
  O      11.640646     38.749453      6.055477
  O      14.350079     40.061549      6.164978
  Si     16.904636     26.062900      7.812115
  O      15.555172     25.283528      8.329763
  O      18.208958     25.330431      8.456244
  O      16.871344     26.012195      6.175818
  Si     16.918963     29.152460      7.704809
  Si     16.961960     35.393840      7.709240
  Si     19.629078     33.831707      7.796995
  Si     19.594360     30.714293      7.786678
  O      15.533491     29.933472      8.074600
  O      15.598429     34.577425      8.091678
  O      18.253275     34.582373      8.302030
  O      18.202614     29.986361      8.268021
  O      16.852659     27.630666      8.300851
  O      19.608528     32.270302      8.301238
  O      17.065856     28.987672      6.080956
  O      17.168255     35.447609      6.086436
  O      19.646255     33.810831      6.161265
  O      19.613259     30.689390      6.149409
  Si     16.947178     38.482443      7.793867
  O      15.623767     39.293097      8.323103
  O      18.331488     39.086885      8.400361
  O      16.877229     36.916243      8.295105
  O      16.935161     38.473697      6.155949
  O      20.826530     29.873415      8.440162
  O      20.954888     34.533182      8.434427
  H       4.074658     24.986772      8.036591
  H       1.410409     29.602015      8.036749
  H       1.410409     35.007985      8.036749
  H       4.074657     39.623228      8.036591
  H       8.948181     22.173255      8.038302
  H       8.948181     42.436745      8.038302
  H      14.277762     22.173204      8.038282
  H      14.277762     42.436796      8.038282
  H      18.960557     24.876228      8.036406
  H      18.960556     39.733772      8.036406
  H      21.624717     29.491420      8.036583
  H      21.624717     35.118580      8.036583
  H      13.379095     34.179420      5.630705
  H      10.868664     34.812051      5.575650
  H       9.015914     32.930543      5.558566
  H       9.775750     30.387233      5.614985
  H      12.283470     29.815365      5.653105
  H      14.058108     31.687566      5.650913
  H      13.536945     39.783480      5.720421
  H      10.829475     39.101918      5.664251
  H       8.166486     39.674074      5.724172
  H       6.066180     37.709227      5.732279
  H       5.267877     35.091975      5.672547
  H       3.506386     33.019016      5.749835
  H       4.094730     30.294286      5.733718
  H       6.012569     28.289983      5.666468
  H       6.856877     25.679496      5.735397
  H       9.592022     24.878199      5.735833
  H      12.279164     25.534533      5.681124
  H      14.965392     24.992166      5.762164
  H      17.007790     26.870365      5.748425
  H      17.762915     29.523208      5.678613
  H      19.639373     31.559101      5.728909
  H      18.945936     34.336554      5.747917
  H      17.046466     36.319893      5.686630
  H      16.173944     38.922219      5.760811
  P       8.060400     36.049749     11.829974
  O       8.845691     36.609205     12.963536
  O       6.572560     36.006491     11.850209
  O       8.573656     36.828962     10.505026
  O       8.524231     34.515527     11.555970
  C       9.902724     34.210183     11.480455
  C      10.019678     32.721354     11.224244
  O      11.323252     32.446432     10.689747
  C       9.867853     31.863057     12.470836
  O       9.184955     30.641783     12.253909
  C      11.322341     31.594201     12.860031
  O      11.501254     30.472482     13.667819
  C      11.980874     31.494083     11.480923
  N      13.390889     31.778984     11.459571
  C      13.986720     33.011049     11.507555
  N      15.291948     32.954139     11.477987
  C      15.575329     31.608773     11.412582
  C      16.779254     30.885569     11.366727
  N      17.980837     31.474726     11.397977
  N      16.709805     29.547076     11.317746
  C      15.512389     28.961621     11.309918
  N      14.314957     29.529368     11.353692
  C      14.404217     30.859525     11.401090
  H       7.941051     36.749894      9.779177
  H      10.370306     34.744523     10.650064
  H      10.413810     34.490992     12.407474
  H       9.270854     32.437141     10.481487
  H       9.323466     32.386498     13.257074
  H       9.350964     30.325118     11.358565
  H      11.734664     32.462947     13.380589
  H      10.831333     29.829719     13.392424
  H      11.867550     30.477521     11.084013
  H      13.397513     33.915117     11.546349
  H      18.055850     32.471372     11.289245
  H      18.802289     30.914333     11.247034
  H      15.524277     27.876183     11.259167
162
Coordinates from ORCA-job /data/Seafile/amp/frames/frame12/amp_frame12 E -13464.509719255489
  Si      3.502257     33.902517      7.787466
  Si      3.462156     30.793933      7.802075
  O       2.288382     34.797309      8.398371
  O       2.175273     30.037458      8.452806
  O       3.469777     32.352895      8.317772
  O       3.511525     33.899862      6.149088
  O       3.428361     30.846029      6.166596
  Si      6.146327     26.135966      7.793451
  Si      8.826225     24.544991      7.792707
  O       4.801834     25.488428      8.442903
  O       7.489381     25.348820      8.304995
  O       8.766785     23.046706      8.430627
  O       6.116888     26.137785      6.156005
  O       8.788873     24.540220      6.156958
  Si      6.123939     29.225483      7.682641
  Si      6.165970     35.450489      7.672044
  Si      8.895665     33.855883      7.568464
  Si      8.875878     30.774171      7.601085
  O       4.847748     30.051644      8.286878
  O       4.894439     34.630382      8.281801
  O       7.555493     34.665617      8.016298
  O       7.496460     30.034043      8.047179
  O       6.208544     27.707595      8.278222
  O       8.833861     32.322833      8.135504
  O       5.897927     29.164175      6.063338
  O       5.973865     35.629032      6.058363
  O       9.040984     33.818765      5.940359
  O       9.001933     30.846935      5.973194
  Si      6.189924     38.539405      7.787416
  Si      8.908058     40.070138      7.787064
  O       4.891818     39.274730      8.439057
  O       7.540676     39.320317      8.294312
  O       6.285069     36.966566      8.290872
  O       9.046160     41.555237      8.436856
  O       6.197253     38.573422      6.154142
  O       8.923864     40.098354      6.149646
  Si     11.515756     26.074055      7.700879
  Si     14.196476     24.539723      7.795252
  O      10.167581     25.358755      8.289745
  O      12.873731     25.384550      8.290215
  O      14.027271     23.039343      8.403500
  O      11.465131     25.875790      6.077616
  O      14.201405     24.548201      6.157233
  Si     11.524272     29.230909      7.651057
  Si     11.579763     35.370755      7.602077
  Si     14.227409     33.818270      7.648911
  Si     14.191224     30.747877      7.654571
  O      10.169294     29.970631      8.206835
  O      10.210615     34.650746      8.135074
  O      12.918388     34.636112      8.198732
  O      12.874394     29.955001      8.225868
  O      11.488424     27.662256      8.089608
  O      14.256383     32.282775      8.216638
  O      11.500639     29.374971      6.020823
  O      11.652277     35.223442      5.973803
  O      14.130968     33.703709      6.018560
  O      14.028007     30.791663      6.025361
  Si     11.584891     38.528440      7.676326
  Si     14.269719     40.062043      7.800510
  O      10.227736     39.214872      8.271035
  O      12.939818     39.220601      8.277530
  O      11.600655     36.936573      8.045170
  O      14.216923     41.555470      8.447834
  O      11.638380     38.750581      6.056539
  O      14.348876     40.061269      6.165072
  Si     16.904597     26.062770      7.812398
  O      15.555060     25.283648      8.330296
  O      18.208844     25.329995      8.456518
  O      16.871500     26.012307      6.176163
  Si     16.918912     29.152308      7.705487
  Si     16.962183     35.394231      7.709391
  Si     19.629003     33.831726      7.796951
  Si     19.594206     30.714181      7.786892
  O      15.533448     29.933103      8.075926
  O      15.598485     34.578075      8.091841
  O      18.253457     34.582749      8.302313
  O      18.202792     29.985870      8.268708
  O      16.852812     27.630493      8.301459
  O      19.608272     32.270334      8.301154
  O      17.065450     28.987806      6.081597
  O      17.168721     35.447820      6.086632
  O      19.645849     33.810629      6.161289
  O      19.612485     30.688998      6.149612
  Si     16.946796     38.482791      7.794020
  O      15.623000     39.292839      8.323225
  O      18.330612     39.088016      8.400784
  O      16.877503     36.916580      8.295365
  O      16.935187     38.474297      6.156137
  O      20.826703     29.873729      8.440215
  O      20.955173     34.532760      8.434316
  H       4.074658     24.986772      8.036591
  H       1.410409     29.602015      8.036749
  H       1.410409     35.007985      8.036749
  H       4.074657     39.623228      8.036591
  H       8.948181     22.173255      8.038302
  H       8.948181     42.436745      8.038302
  H      14.277762     22.173204      8.038282
  H      14.277762     42.436796      8.038282
  H      18.960557     24.876228      8.036406
  H      18.960556     39.733772      8.036406
  H      21.624717     29.491420      8.036583
  H      21.624717     35.118580      8.036583
  H      13.379955     34.180165      5.630772
  H      10.870173     34.813394      5.574400
  H       9.017292     32.929281      5.556636
  H       9.776964     30.384842      5.615572
  H      12.284688     29.815549      5.654707
  H      14.058678     31.686756      5.651799
  H      13.535366     39.783406      5.721040
  H      10.826915     39.104596      5.667067
  H       8.167364     39.672218      5.725638
  H       6.065864     37.712012      5.731386
  H       5.267425     35.092701      5.670519
  H       3.505546     33.019123      5.748626
  H       4.095064     30.293526      5.733793
  H       6.012662     28.289599      5.666753
  H       6.856731     25.679512      5.735514
  H       9.592129     24.878588      5.736030
  H      12.278881     25.535172      5.681200
  H      14.965404     24.991665      5.762247
  H      17.007544     26.870662      5.748994
  H      17.762657     29.523293      5.679403
  H      19.638935     31.558635      5.728988
  H      18.945932     34.336758      5.747804
  H      17.046357     36.319738      5.686279
  H      16.173916     38.922211      5.760497
  P       8.057356     36.044598     11.828579
  O       8.838120     36.601361     12.966684
  O       6.569529     35.999536     11.844165
  O       8.573480     36.828300     10.507695
  O       8.523503     34.511930     11.551167
  C       9.902348     34.207024     11.477709
  C      10.019454     32.718076     11.222445
  O      11.322536     32.441610     10.688359
  C       9.866700     31.861183     12.470053
  O       9.183086     30.640127     12.254426
  C      11.320932     31.592053     12.859860
  O      11.499146     30.470619     13.668255
  C      11.980082     31.490475     11.481131
  N      13.389962     31.776051     11.459990
  C      13.984877     33.008548     11.508506
  N      15.290140     32.952637     11.479306
  C      15.574537     31.607519     11.413444
  C      16.779076     30.885373     11.367797
  N      17.980100     31.475614     11.400292
  N      16.710750     29.546868     11.317686
  C      15.513787     28.960473     11.308909
  N      14.315890     29.527192     11.352824
  C      14.404002     30.857387     11.401197
  H       7.941563     36.753562      9.780831
  H      10.370476     34.742021     10.648061
  H      10.412028     34.487979     12.405488
  H       9.270152     32.433243     10.480383
  H       9.322462     32.385966     13.255493
  H       9.349212     30.322279     11.359508
  H      11.733151     32.461145     13.379943
  H      10.827160     29.829220     13.394631
  H      11.867320     30.473266     11.085841
  H      13.394923     33.912135     11.547345
  H      18.054066     32.472523     11.293238
  H      18.802202     30.916283     11.248954
  H      15.526578     27.875089     11.257249
162
Coordinates from ORCA-job /data/Seafile/amp/frames/frame12/amp_frame12 E -13464.509728570356
  Si      3.502264     33.902469      7.786952
  Si      3.462077     30.793880      7.801980
  O       2.288430     34.797159      8.398168
  O       2.175120     30.037625      8.452893
  O       3.469952     32.352899      8.317370
  O       3.510744     33.899746      6.148627
  O       3.428071     30.845361      6.166526
  Si      6.146349     26.135942      7.793624
  Si      8.826257     24.545036      7.792806
  O       4.801931     25.488198      8.442997
  O       7.489387     25.348769      8.305106
  O       8.766946     23.046721      8.430665
  O       6.116806     26.137915      6.156173
  O       8.788961     24.540168      6.157090
  Si      6.123817     29.225398      7.682793
  Si      6.165857     35.450420      7.670695
  Si      8.895873     33.855514      7.566929
  Si      8.875859     30.773662      7.600660
  O       4.847642     30.051581      8.286953
  O       4.894581     34.630246      8.280828
  O       7.555513     34.665296      8.013832
  O       7.496377     30.033909      8.047385
  O       6.208429     27.707542      8.278486
  O       8.834141     32.322619      8.134184
  O       5.897781     29.164067      6.063512
  O       5.973358     35.629442      6.057061
  O       9.041440     33.818055      5.938793
  O       9.001917     30.845337      5.972756
  Si      6.189977     38.539671      7.787535
  Si      8.908103     40.069915      7.788104
  O       4.891284     39.273893      8.439443
  O       7.540504     39.320472      8.295299
  O       6.284763     36.966379      8.289400
  O       9.047014     41.555347      8.436887
  O       6.198434     38.574997      6.154255
  O       8.924079     40.097573      6.150637
  Si     11.515766     26.074020      7.701129
  Si     14.196526     24.539678      7.795428
  O      10.167506     25.358925      8.289985
  O      12.873647     25.384257      8.290329
  O      14.027630     23.039297      8.403844
  O      11.464970     25.876050      6.077871
  O      14.201494     24.547887      6.157450
  Si     11.524354     29.230812      7.651429
  Si     11.579971     35.370811      7.601493
  Si     14.227592     33.818235      7.648813
  Si     14.191229     30.747699      7.655250
  O      10.169017     29.970118      8.206996
  O      10.210764     34.650300      8.133627
  O      12.918479     34.636079      8.198305
  O      12.874205     29.955214      8.226636
  O      11.488841     27.662208      8.090123
  O      14.256671     32.282759      8.216719
  O      11.501157     29.374987      6.021233
  O      11.653085     35.224053      5.973115
  O      14.131301     33.703411      6.018536
  O      14.027902     30.791052      6.025977
  Si     11.584417     38.528496      7.676933
  Si     14.269314     40.061926      7.800512
  O      10.227391     39.214357      8.272776
  O      12.939431     39.220614      8.277966
  O      11.600588     36.936395      8.045138
  O      14.216378     41.555464      8.447739
  O      11.636856     38.751369      6.057258
  O      14.348241     40.061120      6.165077
  Si     16.904565     26.062680      7.812519
  O      15.554960     25.283791      8.330531
  O      18.208700     25.329629      8.456652
  O      16.871660     26.012296      6.176315
  Si     16.918918     29.152176      7.705791
  Si     16.962320     35.394350      7.709370
  Si     19.628973     33.831701      7.796829
  Si     19.594100     30.714127      7.786968
  O      15.533370     29.932764      8.076546
  O      15.598491     34.578303      8.091764
  O      18.253528     34.582834      8.302363
  O      18.202883     29.985584      8.269015
  O      16.852943     27.630365      8.301728
  O      19.608120     32.270327      8.301011
  O      17.065220     28.987885      6.081897
  O      17.169069     35.447864      6.086650
  O      19.645748     33.810527      6.161212
  O      19.612054     30.688718      6.149672
  Si     16.946590     38.482908      7.793934
  O      15.622540     39.292568      8.323121
  O      18.330007     39.088739      8.400996
  O      16.877689     36.916698      8.295365
  O      16.935289     38.474531      6.156093
  O      20.826823     29.873985      8.440219
  O      20.955297     34.532526      8.434184
  H       4.074657     24.986772      8.036591
  H       1.410409     29.602015      8.036749
  H       1.410409     35.007985      8.036749
  H       4.074657     39.623228      8.036591
  H       8.948181     22.173255      8.038302
  H       8.948181     42.436745      8.038302
  H      14.277762     22.173204      8.038282
  H      14.277762     42.436796      8.038282
  H      18.960557     24.876228      8.036406
  H      18.960556     39.733772      8.036406
  H      21.624717     29.491420      8.036583
  H      21.624717     35.118580      8.036583
  H      13.380478     34.180029      5.630585
  H      10.871289     34.813927      5.573253
  H       9.017979     32.928589      5.555113
  H       9.777419     30.383559      5.615707
  H      12.285320     29.815912      5.655661
  H      14.058733     31.685964      5.652045
  H      13.534408     39.783878      5.721249
  H      10.824970     39.105929      5.668989
  H       8.167522     39.671066      5.726997
  H       6.065789     37.714098      5.730877
  H       5.267009     35.093089      5.669151
  H       3.505066     33.019127      5.747952
  H       4.095059     30.293010      5.733953
  H       6.012745     28.289484      5.666985
  H       6.856552     25.679587      5.735575
  H       9.592105     24.878716      5.736100
  H      12.278661     25.535630      5.681185
  H      14.965379     24.991317      5.762240
  H      17.007336     26.870769      5.749258
  H      17.762525     29.523346      5.679809
  H      19.638746     31.558296      5.728944
  H      18.946014     34.336855      5.747670
  H      17.046281     36.319569      5.685996
  H      16.174005     38.922095      5.760126
  P       8.058086     36.042057     11.827346
  O       8.838185     36.596980     12.966901
  O       6.570175     35.997708     11.841666
  O       8.575125     36.826932     10.507792
  O       8.523714     34.509534     11.548425
  C       9.902499     34.203850     11.476195
  C      10.019013     32.714777     11.221092
  O      11.321939     32.437595     10.687289
  C       9.865850     31.858545     12.469110
  O       9.182732     30.637190     12.254010
  C      11.320011     31.589922     12.859629
  O      11.498023     30.468887     13.668620
  C      11.979710     31.487519     11.481163
  N      13.389403     31.773832     11.460181
  C      13.983724     33.006600     11.508984
  N      15.289004     32.951333     11.479966
  C      15.574078     31.606370     11.413836
  C      16.778984     30.884837     11.368359
  N      17.979705     31.475633     11.401795
  N      16.711295     29.546327     11.317419
  C      15.514617     28.959370     11.308023
  N      14.316440     29.525477     11.352183
  C      14.403910     30.855680     11.401191
  H       7.943521     36.753450      9.780561
  H      10.371676     34.738682     10.647028
  H      10.411632     34.484432     12.404376
  H       9.269563     32.429998     10.479146
  H       9.321146     32.383829     13.253897
  H       9.348813     30.318972     11.359231
  H      11.731890     32.459406     13.379339
  H      10.825521     29.827775     13.395562
  H      11.867633     30.469810     11.086965
  H      13.393298     33.909884     11.547879
  H      18.053152     32.472724     11.296088
  H      18.802147     30.916847     11.250301
  H      15.527952     27.874032     11.255618
162
Coordinates from ORCA-job /data/Seafile/amp/frames/frame12/amp_frame12 E -13464.509733047789
  Si      3.502276     33.902468      7.786195
  Si      3.461896     30.793859      7.801937
  O       2.288604     34.797159      8.397801
  O       2.174776     30.038025      8.453090
  O       3.470157     32.352966      8.316779
  O       3.509680     33.899671      6.147979
  O       3.427607     30.844472      6.166499
  Si      6.146397     26.135928      7.793809
  Si      8.826316     24.545124      7.792849
  O       4.802145     25.487761      8.443130
  O       7.489420     25.348734      8.305134
  O       8.767243     23.046780      8.430660
  O       6.116663     26.138155      6.156352
  O       8.789099     24.540061      6.157180
  Si      6.123506     29.225308      7.683021
  Si      6.165664     35.450304      7.668711
  Si      8.896228     33.855140      7.564428
  Si      8.875628     30.773043      7.599979
  O       4.847402     30.051506      8.287140
  O       4.894882     34.629987      8.279482
  O       7.555707     34.665156      8.010243
  O       7.496110     30.033830      8.047615
  O       6.208252     27.707480      8.278818
  O       8.834276     32.322483      8.132110
  O       5.897327     29.164003      6.063776
  O       5.972447     35.630139      6.055283
  O       9.042202     33.817377      5.936292
  O       9.001687     30.843158      5.972017
  Si      6.190121     38.540169      7.788079
  Si      8.908110     40.069536      7.789784
  O       4.890367     39.272528      8.440120
  O       7.540079     39.321011      8.297035
  O       6.284668     36.966091      8.287381
  O       9.048392     41.555508      8.436893
  O       6.200095     38.577361      6.154736
  O       8.924255     40.096043      6.152190
  Si     11.515783     26.074067      7.701429
  Si     14.196586     24.539604      7.795549
  O      10.167398     25.359235      8.290204
  O      12.873547     25.383926      8.290337
  O      14.028178     23.039260      8.404322
  O      11.464649     25.876530      6.078130
  O      14.201655     24.547333      6.157650
  Si     11.524395     29.230819      7.651898
  Si     11.580398     35.370717      7.600286
  Si     14.227918     33.817973      7.648567
  Si     14.191228     30.747335      7.655960
  O      10.168519     29.969535      8.207103
  O      10.211102     34.649604      8.131377
  O      12.918626     34.635812      8.197482
  O      12.873983     29.955494      8.227657
  O      11.489417     27.662267      8.090772
  O      14.257108     32.282580      8.216716
  O      11.501866     29.375236      6.021745
  O      11.654421     35.224593      5.971788
  O      14.131949     33.702677      6.018379
  O      14.027679     30.790050      6.026615
  Si     11.583682     38.528489      7.677837
  Si     14.268667     40.061736      7.800477
  O      10.226794     39.213415      8.275446
  O      12.938836     39.220535      8.278521
  O      11.600622     36.935951      8.044784
  O      14.215435     41.555433      8.447521
  O      11.634444     38.752567      6.058316
  O      14.347419     40.060867      6.165049
  Si     16.904534     26.062554      7.812654
  O      15.554794     25.284023      8.330706
  O      18.208410     25.328978      8.456824
  O      16.872001     26.012271      6.176475
  Si     16.918975     29.151981      7.706188
  Si     16.962462     35.394468      7.709388
  Si     19.628924     33.831707      7.796613
  Si     19.593962     30.714116      7.787057
  O      15.533221     29.932209      8.077293
  O      15.598499     34.578459      8.091720
  O      18.253602     34.582923      8.302409
  O      18.203022     29.985234      8.269392
  O      16.853169     27.630167      8.302046
  O      19.607859     32.270344      8.300726
  O      17.064924     28.988061      6.082288
  O      17.169444     35.447864      6.086719
  O      19.645666     33.810571      6.161053
  O      19.611456     30.688319      6.149724
  Si     16.946284     38.483056      7.793701
  O      15.621873     39.292241      8.322815
  O      18.329127     39.089744      8.401232
  O      16.877824     36.916867      8.295303
  O      16.935413     38.474723      6.155940
  O      20.827100     29.874552      8.440229
  O      20.955446     34.532212      8.433950
  H       4.074657     24.986772      8.036591
  H       1.410409     29.602015      8.036749
  H       1.410409     35.007985      8.036749
  H       4.074657     39.623228      8.036591
  H       8.948181     22.173255      8.038302
  H       8.948181     42.436745      8.038302
  H      14.277762     22.173204      8.038282
  H      14.277762     42.436796      8.038282
  H      18.960557     24.876228      8.036406
  H      18.960556     39.733772      8.036406
  H      21.624717     29.491420      8.036583
  H      21.624717     35.118580      8.036583
  H      13.381758     34.180076      5.630157
  H      10.872991     34.814349      5.571378
  H       9.018675     32.927916      5.552709
  H       9.777841     30.381863      5.615706
  H      12.286425     29.816360      5.657058
  H      14.059015     31.684728      5.652198
  H      13.533094     39.784990      5.721300
  H      10.821811     39.107713      5.671900
  H       8.167355     39.669240      5.729296
  H       6.065695     37.717333      5.730244
  H       5.266306     35.093620      5.667283
  H       3.504419     33.019197      5.747031
  H       4.094949     30.292277      5.734240
  H       6.012739     28.289463      5.667260
  H       6.856148     25.679618      5.735537
  H       9.592057     24.878957      5.736121
  H      12.278248     25.536453      5.681019
  H      14.965406     24.990684      5.762128
  H      17.007192     26.870890      5.749556
  H      17.762512     29.523319      5.680380
  H      19.638633     31.557775      5.728788
  H      18.945948     34.336940      5.747529
  H      17.046138     36.319298      5.685683
  H      16.174128     38.921821      5.759514
  P       8.060223     36.036984     11.825680
  O       8.840998     36.588582     12.966483
  O       6.572105     35.995074     11.839371
  O       8.578161     36.823075     10.507538
  O       8.523600     34.504102     11.544413
  C       9.902069     34.196665     11.473964
  C      10.017598     32.707337     11.219058
  O      11.320628     32.429696     10.685783
  C       9.864192     31.851881     12.467483
  O       9.182832     30.629540     12.252918
  C      11.318351     31.584878     12.859370
  O      11.496421     30.464654     13.669448
  C      11.979079     31.481517     11.481359
  N      13.388385     31.769382     11.460752
  C      13.981564     33.002666     11.510276
  N      15.286877     32.948638     11.481531
  C      15.573264     31.603964     11.414751
  C      16.778852     30.883554     11.369440
  N      17.979027     31.475319     11.404424
  N      16.712341     29.545036     11.316964
  C      15.516208     28.957024     11.306507
  N      14.317503     29.521986     11.351210
  C      14.403795     30.852202     11.401367
  H       7.947233     36.750227      9.779705
  H      10.373263     34.730567     10.645339
  H      10.410591     34.476752     12.402595
  H       9.268305     32.422759     10.476889
  H       9.318225     32.377437     13.251231
  H       9.348805     30.311150     11.358201
  H      11.729333     32.455108     13.378526
  H      10.824159     29.823191     13.396525
  H      11.868471     30.463055     11.088642
  H      13.390263     33.905376     11.549459
  H      18.051651     32.472717     11.301193
  H      18.802068     30.917426     11.252926
  H      15.530553     27.871773     11.252653
162
Coordinates from ORCA-job /data/Seafile/amp/frames/frame12/amp_frame12 E -13464.509732617986
  Si      3.502243     33.902504      7.785935
  Si      3.461748     30.793859      7.802003
  O       2.288693     34.797262      8.397659
  O       2.174496     30.038339      8.453271
  O       3.470228     32.353002      8.316555
  O       3.509240     33.899733      6.147787
  O       3.427346     30.844081      6.166551
  Si      6.146429     26.135909      7.793798
  Si      8.826391     24.545192      7.792780
  O       4.802311     25.487463      8.443183
  O       7.489452     25.348722      8.305000
  O       8.767564     23.046856      8.430632
  O       6.116586     26.138283      6.156335
  O       8.789231     24.540002      6.157130
  Si      6.123255     29.225264      7.683089
  Si      6.165486     35.450289      7.667939
  Si      8.896336     33.855115      7.563379
  Si      8.875335     30.772881      7.599739
  O       4.847206     30.051419      8.287275
  O       4.895036     34.629828      8.279070
  O       7.555883     34.665495      8.008798
  O       7.495843     30.033863      8.047680
  O       6.208186     27.707433      8.278871
  O       8.833960     32.322551      8.131298
  O       5.896944     29.164010      6.063854
  O       5.971873     35.630443      6.054693
  O       9.042577     33.817398      5.935279
  O       9.001479     30.842409      5.971732
  Si      6.190238     38.540522      7.788713
  Si      8.908044     40.069291      7.790697
  O       4.889867     39.271903      8.440550
  O       7.539721     39.321547      8.298228
  O       6.284738     36.966026      8.286620
  O       9.049213     41.555560      8.436812
  O       6.201008     38.578629      6.155276
  O       8.924120     40.094804      6.152981
  Si     11.515805     26.074227      7.701545
  Si     14.196617     24.539563      7.795531
  O      10.167346     25.359496      8.290206
  O      12.873514     25.383848      8.290227
  O      14.028574     23.039270      8.404596
  O      11.464433     25.876949      6.078181
  O      14.201739     24.547008      6.157683
  Si     11.524364     29.230996      7.652184
  Si     11.580609     35.370520      7.599712
  Si     14.228079     33.817723      7.648581
  Si     14.191253     30.747126      7.656273
  O      10.168209     29.969422      8.207159
  O      10.211302     34.649195      8.130513
  O      12.918668     34.635550      8.197196
  O      12.873914     29.955674      8.228227
  O      11.489721     27.662438      8.091077
  O      14.257361     32.282420      8.216830
  O      11.502108     29.375663      6.022037
  O      11.655026     35.224481      5.971198
  O      14.132293     33.702013      6.018410
  O      14.027527     30.789545      6.026905
  Si     11.583238     38.528414      7.678263
  Si     14.268260     40.061649      7.800387
  O      10.226389     39.212801      8.276856
  O      12.938473     39.220445      8.278670
  O      11.600670     36.935632      8.044461
  O      14.214784     41.555396      8.447334
  O      11.632943     38.753070      6.058786
  O      14.347071     40.060750      6.164968
  Si     16.904562     26.062512      7.812748
  O      15.554689     25.284207      8.330691
  O      18.208195     25.328502      8.456936
  O      16.872323     26.012300      6.176559
  Si     16.919050     29.151914      7.706474
  Si     16.962438     35.394519      7.709476
  Si     19.628861     33.831794      7.796468
  Si     19.593917     30.714190      7.787109
  O      15.533129     29.931886      8.077692
  O      15.598463     34.578488      8.091874
  O      18.253581     34.582973      8.302431
  O      18.203117     29.985153      8.269611
  O      16.853363     27.630068      8.302235
  O      19.607694     32.270416      8.300504
  O      17.064786     28.988278      6.082553
  O      17.169403     35.447825      6.086813
  O      19.645595     33.810823      6.160924
  O      19.611125     30.688110      6.149747
  Si     16.946116     38.483154      7.793541
  O      15.621487     39.292136      8.322523
  O      18.328623     39.090318      8.401373
  O      16.877783     36.916987      8.295256
  O      16.935479     38.474695      6.155833
  O      20.827355     29.875047      8.440261
  O      20.955448     34.532123      8.433801
  H       4.074657     24.986772      8.036591
  H       1.410409     29.602015      8.036749
  H       1.410409     35.007985      8.036749
  H       4.074657     39.623228      8.036591
  H       8.948181     22.173255      8.038302
  H       8.948181     42.436745      8.038302
  H      14.277762     22.173204      8.038282
  H      14.277762     42.436796      8.038282
  H      18.960557     24.876228      8.036406
  H      18.960556     39.733772      8.036406
  H      21.624717     29.491420      8.036583
  H      21.624717     35.118580      8.036583
  H      13.382367     34.179717      5.630050
  H      10.873642     34.814256      5.570681
  H       9.018680     32.927949      5.551726
  H       9.778030     30.381552      5.615718
  H      12.286868     29.816928      5.657842
  H      14.059055     31.684160      5.652347
  H      13.532507     39.785978      5.721017
  H      10.819836     39.108432      5.673423
  H       8.166738     39.668095      5.730737
  H       6.065747     37.719159      5.730009
  H       5.265926     35.093731      5.666637
  H       3.504194     33.019326      5.746711
  H       4.094853     30.291964      5.734431
  H       6.012724     28.289547      5.667263
  H       6.855866     25.679565      5.735370
  H       9.592093     24.879123      5.736067
  H      12.277991     25.537116      5.680810
  H      14.965415     24.990317      5.761995
  H      17.007172     26.871001      5.749701
  H      17.762612     29.523317      5.680748
  H      19.638545     31.557475      5.728647
  H      18.945708     34.337073      5.747513
  H      17.046011     36.319180      5.685636
  H      16.174307     38.921729      5.759146
  P       8.062699     36.033293     11.825015
  O       8.844755     36.582791     12.965940
  O       6.574441     35.994000     11.838788
  O       8.581661     36.819347     10.507282
  O       8.523580     34.499637     11.542897
  C       9.901664     34.190678     11.473131
  C      10.016302     32.701200     11.218179
  O      11.319481     32.423436     10.684961
  C       9.862986     31.845890     12.466549
  O       9.183213     30.622708     12.251858
  C      11.317179     31.580236     12.859355
  O      11.495484     30.460453     13.669974
  C      11.978638     31.476688     11.481654
  N      13.387640     31.765873     11.461453
  C      13.979902     32.999573     11.511632
  N      15.285249     32.946533     11.483041
  C      15.572671     31.602087     11.415684
  C      16.778778     30.882531     11.370330
  N      17.978548     31.475010     11.406183
  N      16.713181     29.544003     11.316796
  C      15.517479     28.955164     11.305725
  N      14.318369     29.519244     11.350898
  C      14.403760     30.849475     11.401801
  H       7.951565     36.746073      9.778801
  H      10.374152     34.723605     10.644603
  H      10.410124     34.470474     12.401863
  H       9.267199     32.417085     10.475713
  H       9.315984     32.371131     13.249805
  H       9.349198     30.304702     11.357029
  H      11.727429     32.450844     13.378426
  H      10.824251     29.818220     13.396325
  H      11.869334     30.457816     11.089625
  H      13.387930     33.901835     11.551118
  H      18.050641     32.472610     11.304685
  H      18.802039     30.917723     11.254921
  H      15.532598     27.869981     11.250838
162
Coordinates from ORCA-job /data/Seafile/amp/frames/frame12/amp_frame12 E -13464.509734334910
  Si      3.502188     33.902612      7.785674
  Si      3.461536     30.793890      7.802028
  O       2.288909     34.797679      8.397416
  O       2.174149     30.038758      8.453470
  O       3.470172     32.353081      8.316269
  O       3.508895     33.899887      6.147578
  O       3.427075     30.843765      6.166538
  Si      6.146454     26.135892      7.793586
  Si      8.826507     24.545272      7.792567
  O       4.802556     25.487107      8.443178
  O       7.489517     25.348774      8.304650
  O       8.767931     23.046980      8.430522
  O       6.116513     26.138390      6.156121
  O       8.789468     24.539948      6.156924
  Si      6.122933     29.225266      7.682947
  Si      6.165300     35.450429      7.667364
  Si      8.896338     33.855277      7.562556
  Si      8.874910     30.772916      7.599464
  O       4.846954     30.051349      8.287300
  O       4.895243     34.629634      8.278801
  O       7.556212     34.666387      8.007770
  O       7.495487     30.033977      8.047506
  O       6.208128     27.707410      8.278645
  O       8.833183     32.322768      8.130658
  O       5.896406     29.164066      6.063715
  O       5.971239     35.630726      6.054330
  O       9.042894     33.817773      5.934524
  O       9.001284     30.842069      5.971425
  Si      6.190424     38.540916      7.789569
  Si      8.907960     40.068991      7.791529
  O       4.889475     39.271495      8.440924
  O       7.539274     39.322320      8.299649
  O       6.284800     36.966115      8.286156
  O       9.050206     41.555554      8.436566
  O       6.202118     38.579968      6.155979
  O       8.923813     40.093005      6.153648
  Si     11.515819     26.074564      7.701523
  Si     14.196603     24.539491      7.795343
  O      10.167325     25.359804      8.290014
  O      12.873504     25.383934      8.289884
  O      14.028836     23.039292      8.404767
  O      11.464151     25.877617      6.078052
  O      14.201816     24.546639      6.157546
  Si     11.524271     29.231367      7.652472
  Si     11.580829     35.370175      7.599165
  Si     14.228269     33.817410      7.648750
  Si     14.191309     30.746948      7.656542
  O      10.167876     29.969597      8.207153
  O      10.211560     34.648710      8.129866
  O      12.918696     34.635196      8.197071
  O      12.873848     29.955943      8.228789
  O      11.489956     27.662759      8.091314
  O      14.257671     32.282244      8.217096
  O      11.502276     29.376329      6.022305
  O      11.655606     35.223971      5.970710
  O      14.132723     33.701210      6.018545
  O      14.027386     30.789188      6.027174
  Si     11.582736     38.528263      7.678488
  Si     14.267774     40.061608      7.800148
  O      10.225928     39.212073      8.278167
  O      12.938084     39.220273      8.278532
  O      11.600705     36.935269      8.043892
  O      14.213738     41.555328      8.447022
  O      11.631114     38.753486      6.059024
  O      14.346869     40.060635      6.164746
  Si     16.904634     26.062462      7.812822
  O      15.554569     25.284358      8.330468
  O      18.207903     25.327879      8.457051
  O      16.872783     26.012397      6.176599
  Si     16.919138     29.151873      7.706838
  Si     16.962303     35.394623      7.709599
  Si     19.628763     33.831991      7.796255
  Si     19.593893     30.714317      7.787150
  O      15.533025     29.931555      8.078112
  O      15.598451     34.578467      8.092238
  O      18.253543     34.583147      8.302383
  O      18.203224     29.985150      8.269860
  O      16.853613     27.629946      8.302412
  O      19.607427     32.270564      8.300148
  O      17.064672     28.988618      6.082867
  O      17.169012     35.447801      6.086907
  O      19.645455     33.811394      6.160702
  O      19.610762     30.687816      6.149756
  Si     16.945947     38.483331      7.793351
  O      15.621119     39.292254      8.322059
  O      18.328158     39.090841      8.401485
  O      16.877565     36.917187      8.295160
  O      16.935532     38.474607      6.155694
  O      20.827741     29.875781      8.440326
  O      20.955446     34.532004      8.433577
  H       4.074657     24.986772      8.036591
  H       1.410409     29.602015      8.036749
  H       1.410409     35.007985      8.036749
  H       4.074657     39.623228      8.036591
  H       8.948181     22.173255      8.038302
  H       8.948181     42.436745      8.038302
  H      14.277762     22.173204      8.038282
  H      14.277762     42.436796      8.038282
  H      18.960557     24.876228      8.036406
  H      18.960556     39.733772      8.036406
  H      21.624717     29.491420      8.036583
  H      21.624717     35.118580      8.036583
  H      13.383144     34.179281      5.629972
  H      10.874146     34.813857      5.570204
  H       9.018441     32.928359      5.550934
  H       9.778159     30.381606      5.615610
  H      12.287359     29.817461      5.658544
  H      14.059248     31.683803      5.652593
  H      13.532160     39.787278      5.720271
  H      10.817503     39.109121      5.674837
  H       8.165677     39.666582      5.732340
  H       6.066047     37.721174      5.729725
  H       5.265374     35.093951      5.666243
  H       3.503969     33.019515      5.746436
  H       4.094688     30.291670      5.734540
  H       6.012469     28.289703      5.666994
  H       6.855505     25.679383      5.734989
  H       9.592207     24.879462      5.735937
  H      12.277645     25.538035      5.680384
  H      14.965459     24.989867      5.761736
  H      17.007309     26.871180      5.749816
  H      17.762872     29.523273      5.681189
  H      19.638454     31.557033      5.728390
  H      18.945146     34.337310      5.747551
  H      17.045798     36.319158      5.685680
  H      16.174582     38.921779      5.758761
  P       8.065028     36.027117     11.825134
  O       8.848829     36.573730     12.966145
  O       6.576683     35.990749     11.839397
  O       8.585257     36.813987     10.508176
  O       8.522974     34.492691     11.541146
  C       9.900586     34.181972     11.471990
  C      10.014238     32.692288     11.217258
  O      11.317589     32.414250     10.683884
  C       9.861169     31.837090     12.465480
  O       9.183518     30.612730     12.250485
  C      11.315414     31.573376     12.859452
  O      11.494259     30.454285     13.670912
  C      11.977786     31.469567     11.482183
  N      13.386395     31.760652     11.462641
  C      13.977238     32.994993     11.513939
  N      15.282642     32.943470     11.485635
  C      15.571636     31.599384     11.417332
  C      16.778537     30.881153     11.371767
  N      17.977664     31.474781     11.408499
  N      16.714389     29.542602     11.316853
  C      15.519359     28.952468     11.305009
  N      14.319617     29.515178     11.350731
  C      14.403593     30.845453     11.402636
  H       7.956541     36.739869      9.778625
  H      10.374374     34.713538     10.643328
  H      10.409011     34.461749     12.400735
  H       9.265361     32.408737     10.474418
  H       9.312807     32.361668     13.248242
  H       9.349747     30.295330     11.355498
  H      11.724605     32.444533     13.378398
  H      10.824836     29.810640     13.396132
  H      11.870371     30.450184     11.090983
  H      13.384246     33.896569     11.553925
  H      18.048952     32.472645     11.309281
  H      18.801893     30.918418     11.257920
  H      15.535674     27.867370     11.248821
162
Coordinates from ORCA-job /data/Seafile/amp/frames/frame12/amp_frame12 E -13464.509737850283
  Si      3.502143     33.902710      7.785581
  Si      3.461380     30.793923      7.801932
  O       2.289081     34.798080      8.397254
  O       2.173929     30.039069      8.453555
  O       3.470072     32.353131      8.316083
  O       3.508864     33.900050      6.147481
  O       3.426904     30.843715      6.166408
  Si      6.146439     26.135855      7.793241
  Si      8.826599     24.545307      7.792319
  O       4.802719     25.486929      8.443097
  O       7.489553     25.348819      8.304256
  O       8.768229     23.047087      8.430413
  O       6.116448     26.138334      6.155783
  O       8.789682     24.539892      6.156663
  Si      6.122728     29.225277      7.682544
  Si      6.165199     35.450653      7.667361
  Si      8.896191     33.855535      7.562645
  Si      8.874596     30.773163      7.599242
  O       4.846778     30.051273      8.287094
  O       4.895359     34.629517      8.278878
  O       7.556532     34.667449      8.007951
  O       7.495235     30.034097      8.047044
  O       6.208134     27.707407      8.278160
  O       8.832334     32.322987      8.130684
  O       5.896035     29.164074      6.063314
  O       5.971004     35.630613      6.054397
  O       9.042900     33.818298      5.934657
  O       9.001232     30.842520      5.971224
  Si      6.190600     38.541116      7.790143
  Si      8.907920     40.068775      7.791815
  O       4.889549     39.271785      8.440962
  O       7.539061     39.322786      8.300624
  O       6.284615     36.966339      8.286221
  O       9.050756     41.555478      8.436282
  O       6.203018     38.580725      6.156429
  O       8.923396     40.091563      6.153831
  Si     11.515796     26.074878      7.701317
  Si     14.196558     24.539439      7.795094
  O      10.167323     25.360010      8.289711
  O      12.873484     25.384097      8.289461
  O      14.028937     23.039332      8.404772
  O      11.463939     25.878128      6.077773
  O      14.201822     24.546414      6.157310
  Si     11.524174     29.231695      7.652493
  Si     11.580905     35.369861      7.599165
  Si     14.228363     33.817238      7.649136
  Si     14.191384     30.746919      7.656674
  O      10.167706     29.969941      8.206925
  O      10.211712     34.648375      8.130035
  O      12.918689     34.634962      8.197386
  O      12.873780     29.956161      8.228973
  O      11.490010     27.663030      8.091274
  O      14.257876     32.282155      8.217499
  O      11.502272     29.376805      6.022291
  O      11.655782     35.223278      5.970811
  O      14.132967     33.700780      6.018856
  O      14.027437     30.789302      6.027328
  Si     11.582459     38.528106      7.678304
  Si     14.267505     40.061645      7.799838
  O      10.225739     39.211701      8.278594
  O      12.937896     39.220131      8.278064
  O      11.600688     36.935093      8.043449
  O      14.212856     41.555258      8.446732
  O      11.629885     38.753458      6.058807
  O      14.347026     40.060624      6.164460
  Si     16.904715     26.062439      7.812831
  O      15.554470     25.284464      8.330164
  O      18.207655     25.327389      8.457116
  O      16.873164     26.012515      6.176571
  Si     16.919204     29.151901      7.707079
  Si     16.962104     35.394746      7.709742
  Si     19.628658     33.832203      7.796097
  Si     19.593912     30.714426      7.787154
  O      15.532971     29.931375      8.078366
  O      15.598442     34.578476      8.092729
  O      18.253488     34.583354      8.302327
  O      18.203289     29.985251      8.270019
  O      16.853847     27.629885      8.302475
  O      19.607199     32.270718      8.299850
  O      17.064674     28.988935      6.083048
  O      17.168391     35.447845      6.086991
  O      19.645259     33.811967      6.160518
  O      19.610582     30.687563      6.149743
  Si     16.945879     38.483499      7.793322
  O      15.620958     39.292517      8.321708
  O      18.327930     39.091141      8.401617
  O      16.877341     36.917366      8.295156
  O      16.935591     38.474468      6.155674
  O      20.828047     29.876351      8.440392
  O      20.955416     34.531937      8.433400
  H       4.074658     24.986772      8.036591
  H       1.410409     29.602015      8.036749
  H       1.410409     35.007985      8.036749
  H       4.074657     39.623228      8.036591
  H       8.948181     22.173255      8.038302
  H       8.948181     42.436745      8.038302
  H      14.277762     22.173204      8.038282
  H      14.277762     42.436796      8.038282
  H      18.960557     24.876228      8.036406
  H      18.960556     39.733772      8.036406
  H      21.624717     29.491420      8.036583
  H      21.624717     35.118580      8.036583
  H      13.383472     34.178850      5.630131
  H      10.874260     34.813091      5.570469
  H       9.018011     32.928948      5.550931
  H       9.778248     30.382313      5.615393
  H      12.287488     29.817797      5.658636
  H      14.059276     31.684034      5.652964
  H      13.532378     39.788272      5.719347
  H      10.816010     39.109312      5.675314
  H       8.164562     39.665485      5.733337
  H       6.066635     37.722381      5.729461
  H       5.265063     35.093925      5.666328
  H       3.504037     33.019663      5.746365
  H       4.094559     30.291649      5.734425
  H       6.012158     28.289771      5.666491
  H       6.855254     25.679108      5.734581
  H       9.592378     24.879667      5.735794
  H      12.277379     25.538641      5.679944
  H      14.965489     24.989552      5.761466
  H      17.007496     26.871351      5.749845
  H      17.763145     29.523314      5.681464
  H      19.638417     31.556649      5.728138
  H      18.944476     34.337476      5.747638
  H      17.045557     36.319312      5.685869
  H      16.174867     38.921908      5.758613
  P       8.067050     36.022385     11.825639
  O       8.851981     36.567052     12.966682
  O       6.578734     35.988029     11.840256
  O       8.588601     36.809940     10.509287
  O       8.522844     34.487451     11.540272
  C       9.900097     34.175294     11.471281
  C      10.012637     32.685472     11.216723
  O      11.315806     32.406538     10.682800
  C       9.859585     31.830249     12.464723
  O       9.183245     30.605173     12.249206
  C      11.313790     31.567732     12.859493
  O      11.493053     30.449116     13.671561
  C      11.976849     31.463664     11.482599
  N      13.385192     31.756285     11.463689
  C      13.974821     32.991173     11.515958
  N      15.280284     32.940943     11.487941
  C      15.570603     31.597165     11.418829
  C      16.778184     30.880081     11.372931
  N      17.976738     31.474747     11.410026
  N      16.715300     29.541496     11.317069
  C      15.520839     28.950245     11.304739
  N      14.320561     29.511787     11.350764
  C      14.403295     30.842112     11.403409
  H       7.961059     36.735330      9.778811
  H      10.374514     34.705991     10.642427
  H      10.408595     34.455037     12.399998
  H       9.263619     32.402636     10.473841
  H       9.310319     32.354195     13.247277
  H       9.350008     30.288326     11.354122
  H      11.722224     32.439220     13.378443
  H      10.825233     29.804252     13.395766
  H      11.871029     30.443862     11.092104
  H      13.380974     33.892176     11.556331
  H      18.047325     32.472810     11.312460
  H      18.801654     30.919186     11.260285
  H      15.538174     27.865204     11.247728
162
Coordinates from ORCA-job /data/Seafile/amp/frames/frame12/amp_frame12 E -13464.509731052935
  Si      3.502140     33.902834      7.785491
  Si      3.461230     30.793995      7.801759
  O       2.289343     34.798666      8.396991
  O       2.173735     30.039394      8.453574
  O       3.469872     32.353223      8.315898
  O       3.509030     33.900159      6.147333
  O       3.426822     30.843815      6.166205
  Si      6.146374     26.135826      7.792887
  Si      8.826643     24.545316      7.792112
  O       4.802834     25.486824      8.443009
  O       7.489556     25.348885      8.303912
  O       8.768418     23.047173      8.430306
  O       6.116372     26.138221      6.155445
  O       8.789867     24.539872      6.156426
  Si      6.122546     29.225321      7.682040
  Si      6.165208     35.450977      7.667586
  Si      8.895976     33.855834      7.563255
  Si      8.874309     30.773557      7.598986
  O       4.846611     30.051252      8.286792
  O       4.895500     34.629404      8.279038
  O       7.557026     34.668851      8.008851
  O       7.495018     30.034234      8.046374
  O       6.208107     27.707442      8.277571
  O       8.831340     32.323215      8.131057
  O       5.895686     29.164067      6.062825
  O       5.971108     35.630174      6.054581
  O       9.042761     33.818802      5.935291
  O       9.001203     30.843460      5.971038
  Si      6.190876     38.541206      7.790558
  Si      8.907984     40.068545      7.791902
  O       4.890111     39.272835      8.440678
  O       7.539105     39.322990      8.301606
  O       6.284062     36.966680      8.286513
  O       9.051078     41.555361      8.435960
  O       6.204217     38.581340      6.156731
  O       8.922887     40.090054      6.153859
  Si     11.515689     26.075194      7.701040
  Si     14.196437     24.539392      7.794785
  O      10.167313     25.360116      8.289403
  O      12.873425     25.384327      8.288962
  O      14.028817     23.039376      8.404614
  O      11.463654     25.878611      6.077445
  O      14.201716     24.546276      6.156984
  Si     11.524015     29.231985      7.652363
  Si     11.580944     35.369507      7.599490
  Si     14.228437     33.817109      7.649713
  Si     14.191429     30.746950      7.656773
  O      10.167579     29.970422      8.206486
  O      10.211881     34.648010      8.130680
  O      12.918696     34.634747      8.198021
  O      12.873614     29.956366      8.228946
  O      11.489880     27.663270      8.091138
  O      14.258039     32.282073      8.218085
  O      11.502151     29.377063      6.022114
  O      11.655751     35.222446      5.971263
  O      14.133160     33.700591      6.019334
  O      14.027651     30.789746      6.027474
  Si     11.582344     38.527894      7.677838
  Si     14.267405     40.061716      7.799405
  O      10.225840     39.211566      8.278606
  O      12.937925     39.219900      8.277263
  O      11.600643     36.934987      8.043023
  O      14.211827     41.555166      8.446381
  O      11.628845     38.753169      6.058303
  O      14.347564     40.060625      6.164064
  Si     16.904774     26.062382      7.812768
  O      15.554354     25.284488      8.329754
  O      18.207365     25.326876      8.457137
  O      16.873478     26.012629      6.176473
  Si     16.919203     29.151931      7.707243
  Si     16.961850     35.394885      7.709880
  Si     19.628559     33.832414      7.795895
  Si     19.593923     30.714468      7.787093
  O      15.532900     29.931226      8.078579
  O      15.598472     34.578462      8.093395
  O      18.253473     34.583645      8.302196
  O      18.203292     29.985368      8.270127
  O      16.854070     27.629810      8.302436
  O      19.606911     32.270855      8.299470
  O      17.064673     28.989225      6.083143
  O      17.167488     35.447922      6.087034
  O      19.645040     33.812636      6.160273
  O      19.610479     30.687158      6.149675
  Si     16.945912     38.483665      7.793379
  O      15.621025     39.292982      8.321365
  O      18.327903     39.091249      8.401748
  O      16.877111     36.917536      8.295186
  O      16.935704     38.474289      6.155699
  O      20.828323     29.876875      8.440452
  O      20.955469     34.531735      8.433164
  H       4.074657     24.986772      8.036591
  H       1.410409     29.602015      8.036749
  H       1.410409     35.007985      8.036749
  H       4.074657     39.623228      8.036591
  H       8.948181     22.173255      8.038302
  H       8.948181     42.436745      8.038302
  H      14.277762     22.173204      8.038282
  H      14.277762     42.436796      8.038282
  H      18.960557     24.876228      8.036406
  H      18.960556     39.733772      8.036406
  H      21.624717     29.491420      8.036583
  H      21.624717     35.118580      8.036583
  H      13.383652     34.178524      5.630470
  H      10.874068     34.812313      5.571133
  H       9.017574     32.929529      5.551375
  H       9.778140     30.383262      5.615041
  H      12.287441     29.817747      5.658312
  H      14.059390     31.684687      5.653523
  H      13.533102     39.789290      5.718102
  H      10.814820     39.109322      5.675379
  H       8.163235     39.664437      5.734279
  H       6.067697     37.723404      5.729072
  H       5.264780     35.093906      5.666635
  H       3.504324     33.019689      5.746376
  H       4.094393     30.291653      5.734214
  H       6.011600     28.289779      5.665932
  H       6.855070     25.678849      5.734227
  H       9.592547     24.879940      5.735748
  H      12.277033     25.539130      5.679505
  H      14.965423     24.989359      5.761173
  H      17.007675     26.871518      5.749819
  H      17.763444     29.523305      5.681677
  H      19.638489     31.556072      5.727764
  H      18.943786     34.337772      5.747713
  H      17.045316     36.319620      5.686178
  H      16.175247     38.922162      5.758598
  P       8.069267     36.017345     11.826986
  O       8.855199     36.559897     12.968227
  O       6.581069     35.984436     11.842220
  O       8.591809     36.806429     10.511545
  O       8.523237     34.482303     11.539244
  C       9.900168     34.168495     11.470287
  C      10.011004     32.678498     11.216051
  O      11.313525     32.397546     10.681211
  C       9.857631     31.823432     12.463939
  O       9.182155     30.597854     12.247916
  C      11.311698     31.561867     12.859493
  O      11.491373     30.443971     13.672537
  C      11.975458     31.456957     11.483063
  N      13.383549     31.751245     11.464826
  C      13.971757     32.986768     11.518169
  N      15.277293     32.938046     11.490542
  C      15.569146     31.594634     11.420543
  C      16.777541     30.878935     11.374187
  N      17.975373     31.474911     11.411368
  N      16.716182     29.540295     11.317500
  C      15.522389     28.947712     11.304737
  N      14.321475     29.507879     11.350851
  C      14.402699     30.838270     11.404258
  H       7.965346     36.731644      9.780204
  H      10.374959     34.698498     10.641222
  H      10.408786     34.448104     12.398987
  H       9.261355     32.396579     10.473490
  H       9.307616     32.346913     13.246276
  H       9.349881     30.281243     11.352909
  H      11.719412     32.433825     13.378183
  H      10.825138     29.797788     13.396057
  H      11.871395     30.436551     11.093783
  H      13.376915     33.887102     11.558936
  H      18.045057     32.473186     11.315495
  H      18.801178     30.920352     11.262897
  H      15.540938     27.862720     11.247147
162
Coordinates from ORCA-job /data/Seafile/amp/frames/frame12/amp_frame12 E -13464.509739985546
  Si      3.502199     33.902914      7.785419
  Si      3.461148     30.794073      7.801567
  O       2.289549     34.799093      8.396761
  O       2.173631     30.039619      8.453515
  O       3.469705     32.353314      8.315785
  O       3.509293     33.900185      6.147184
  O       3.426793     30.843999      6.166014
  Si      6.146295     26.135790      7.792718
  Si      8.826620     24.545282      7.792048
  O       4.802856     25.486809      8.442988
  O       7.489535     25.348917      8.303797
  O       8.768437     23.047187      8.430282
  O       6.116270     26.138050      6.155292
  O       8.789901     24.539848      6.156333
  Si      6.122440     29.225325      7.681624
  Si      6.165310     35.451210      7.667804
  Si      8.895824     33.855966      7.563825
  Si      8.874191     30.773815      7.598594
  O       4.846524     30.051278      8.286496
  O       4.895608     34.629336      8.279123
  O       7.557473     34.669856      8.009748
  O       7.494928     30.034277      8.045658
  O       6.208032     27.707477      8.277174
  O       8.830742     32.323278      8.131281
  O       5.895440     29.163951      6.062442
  O       5.971445     35.629680      6.054682
  O       9.042534     33.818977      5.935837
  O       9.001223     30.844267      5.970728
  Si      6.191144     38.541144      7.790645
  Si      8.908109     40.068392      7.791911
  O       4.890837     39.274054      8.440234
  O       7.539408     39.322776      8.302319
  O       6.283384     36.966916      8.286804
  O       9.051004     41.555289      8.435826
  O       6.205368     38.581625      6.156791
  O       8.922450     40.089215      6.153887
  Si     11.515557     26.075293      7.700781
  Si     14.196340     24.539376      7.794576
  O      10.167305     25.360063      8.289247
  O      12.873363     25.384461      8.288600
  O      14.028651     23.039409      8.404426
  O      11.463434     25.878701      6.077197
  O      14.201608     24.546225      6.156735
  Si     11.523889     29.232028      7.652018
  Si     11.580934     35.369280      7.599823
  Si     14.228439     33.817059      7.650074
  Si     14.191422     30.746980      7.656771
  O      10.167520     29.970705      8.205855
  O      10.211997     34.647730      8.131283
  O      12.918705     34.634641      8.198516
  O      12.873412     29.956412      8.228661
  O      11.489669     27.663313      8.090876
  O      14.258067     32.282015      8.218484
  O      11.502041     29.376882      6.021737
  O      11.655609     35.221937      5.971656
  O      14.133193     33.700666      6.019643
  O      14.027984     30.790210      6.027503
  Si     11.582408     38.527731      7.677303
  Si     14.267525     40.061776      7.799011
  O      10.226215     39.211757      8.278336
  O      12.938180     39.219634      8.276446
  O      11.600582     36.934966      8.042730
  O      14.211070     41.555096      8.446115
  O      11.628329     38.752847      6.057767
  O      14.348286     40.060677      6.163710
  Si     16.904795     26.062317      7.812673
  O      15.554275     25.284472      8.329467
  O      18.207150     25.326515      8.457136
  O      16.873635     26.012692      6.176367
  Si     16.919166     29.151937      7.707256
  Si     16.961671     35.394962      7.709889
  Si     19.628510     33.832518      7.795710
  Si     19.593919     30.714410      7.786995
  O      15.532835     29.931123      8.078636
  O      15.598481     34.578450      8.093795
  O      18.253489     34.583858      8.302030
  O      18.203247     29.985430      8.270159
  O      16.854202     27.629759      8.302328
  O      19.606706     32.270914      8.299144
  O      17.064705     28.989319      6.083116
  O      17.166832     35.448036      6.086972
  O      19.644939     33.813051      6.160061
  O      19.610462     30.686705      6.149584
  Si     16.946038     38.483741      7.793457
  O      15.621294     39.293409      8.321161
  O      18.328058     39.091153      8.401843
  O      16.877001     36.917604      8.295196
  O      16.935889     38.474158      6.155714
  O      20.828453     29.877128      8.440486
  O      20.955559     34.531517      8.432994
  H       4.074658     24.986772      8.036591
  H       1.410409     29.602015      8.036749
  H       1.410409     35.007985      8.036749
  H       4.074657     39.623228      8.036591
  H       8.948181     22.173255      8.038302
  H       8.948181     42.436745      8.038302
  H      14.277762     22.173204      8.038282
  H      14.277762     42.436796      8.038282
  H      18.960557     24.876228      8.036406
  H      18.960557     39.733772      8.036406
  H      21.624717     29.491420      8.036583
  H      21.624717     35.118580      8.036583
  H      13.383486     34.178263      5.630742
  H      10.873913     34.811678      5.571659
  H       9.017443     32.929752      5.551778
  H       9.777928     30.383818      5.614561
  H      12.287250     29.817367      5.657625
  H      14.059346     31.685360      5.653967
  H      13.534033     39.789971      5.717069
  H      10.814227     39.109123      5.675117
  H       8.162280     39.663852      5.734924
  H       6.068877     37.723893      5.728753
  H       5.264640     35.093891      5.666930
  H       3.504699     33.019623      5.746409
  H       4.094266     30.291740      5.733991
  H       6.011135     28.289632      5.665566
  H       6.854997     25.678693      5.734107
  H       9.592613     24.880054      5.735806
  H      12.276757     25.539091      5.679256
  H      14.965375     24.989252      5.760986
  H      17.007844     26.871617      5.749792
  H      17.763626     29.523295      5.681763
  H      19.638586     31.555464      5.727387
  H      18.943389     34.337923      5.747680
  H      17.045219     36.319976      5.686440
  H      16.175571     38.922317      5.758649
  P       8.071347     36.014212     11.827723
  O       8.857030     36.554919     12.969982
  O       6.583239     35.982203     11.842346
  O       8.595325     36.804868     10.513600
  O       8.524233     34.479369     11.537890
  C       9.900956     34.164029     11.469200
  C      10.009882     32.673872     11.215201
  O      11.311488     32.390404     10.679499
  C       9.855830     31.819145     12.463171
  O       9.180375     30.593563     12.246820
  C      11.309687     31.557805     12.859286
  O      11.489453     30.440572     13.673281
  C      11.974001     31.451754     11.483245
  N      13.381910     31.747278     11.465460
  C      13.968917     32.983337     11.519512
  N      15.274509     32.935893     11.492204
  C      15.567660     31.592788     11.421636
  C      16.776766     30.878302     11.374957
  N      17.973944     31.475479     11.411976
  N      16.716731     29.539599     11.317937
  C      15.523512     28.945859     11.304932
  N      14.322051     29.504849     11.350830
  C      14.401944     30.835310     11.404721
  H       7.969910     36.730492      9.781365
  H      10.376096     34.693755     10.640180
  H      10.409567     34.443256     12.398021
  H       9.259299     32.392811     10.473274
  H       9.305470     32.342650     13.245239
  H       9.349218     30.276682     11.352100
  H      11.717040     32.430180     13.377552
  H      10.824001     29.793625     13.396755
  H      11.871220     30.430731     11.095331
  H      13.373214     33.883102     11.560511
  H      18.042745     32.473916     11.317247
  H      18.800557     30.921825     11.264706
  H      15.543124     27.860889     11.247276
162
Coordinates from ORCA-job /data/Seafile/amp/frames/frame12/amp_frame12 E -13464.509737453287
  Si      3.502304     33.902937      7.785378
  Si      3.461147     30.794147      7.801434
  O       2.289674     34.799303      8.396587
  O       2.173614     30.039737      8.453410
  O       3.469607     32.353388      8.315767
  O       3.509585     33.900135      6.147079
  O       3.426812     30.844243      6.165909
  Si      6.146227     26.135774      7.792763
  Si      8.826526     24.545226      7.792120
  O       4.802798     25.486856      8.443036
  O       7.489494     25.348931      8.303908
  O       8.768251     23.047134      8.430325
  O       6.116163     26.137894      6.155346
  O       8.789777     24.539810      6.156386
  Si      6.122416     29.225311      7.681424
  Si      6.165447     35.451287      7.667930
  Si      8.895795     33.855980      7.564113
  Si      8.874225     30.773914      7.598143
  O       4.846528     30.051346      8.286312
  O       4.895671     34.629317      8.279109
  O       7.557806     34.670328      8.010384
  O       7.494962     30.034256      8.045084
  O       6.207923     27.707515      8.277072
  O       8.830647     32.323230      8.131197
  O       5.895320     29.163808      6.062280
  O       5.971900     35.629285      6.054682
  O       9.042308     33.818941      5.936077
  O       9.001226     30.844765      5.970332
  Si      6.191374     38.541009      7.790518
  Si      8.908242     40.068324      7.791957
  O       4.891510     39.275118      8.439780
  O       7.539860     39.322277      8.302751
  O       6.282835     36.966980      8.287016
  O       9.050585     41.555287      8.435927
  O       6.206230     38.581572      6.156709
  O       8.922146     40.089125      6.154003
  Si     11.515418     26.075183      7.700614
  Si     14.196273     24.539400      7.794489
  O      10.167283     25.359889      8.289265
  O      12.873302     25.384486      8.288432
  O      14.028460     23.039431      8.404244
  O      11.463287     25.878432      6.077082
  O      14.201517     24.546259      6.156603
  Si     11.523824     29.231861      7.651538
  Si     11.580929     35.369197      7.599994
  Si     14.228415     33.817055      7.650146
  Si     14.191377     30.746987      7.656647
  O      10.167513     29.970748      8.205139
  O      10.212076     34.647610      8.131651
  O      12.918720     34.634599      8.198712
  O      12.873248     29.956302      8.228205
  O      11.489418     27.663197      8.090560
  O      14.257987     32.281964      8.218616
  O      11.502027     29.376371      6.021250
  O      11.655455     35.221809      5.971808
  O      14.133144     33.700920      6.019729
  O      14.028401     30.790543      6.027386
  Si     11.582612     38.527630      7.676905
  Si     14.267804     40.061796      7.798780
  O      10.226740     39.212167      8.277978
  O      12.938590     39.219350      8.275834
  O      11.600560     36.934971      8.042614
  O      14.210641     41.555065      8.445984
  O      11.628389     38.752592      6.057404
  O      14.349060     40.060733      6.163510
  Si     16.904765     26.062261      7.812566
  O      15.554233     25.284426      8.329339
  O      18.207026     25.326345      8.457108
  O      16.873609     26.012696      6.176271
  Si     16.919111     29.151918      7.707153
  Si     16.961604     35.394970      7.709836
  Si     19.628520     33.832512      7.795592
  Si     19.593890     30.714290      7.786918
  O      15.532785     29.931076      8.078555
  O      15.598481     34.578409      8.093922
  O      18.253541     34.583958      8.301901
  O      18.203169     29.985427      8.270153
  O      16.854223     27.629732      8.302186
  O      19.606605     32.270897      8.298938
  O      17.064763     28.989257      6.083014
  O      17.166534     35.448160      6.086884
  O      19.644999     33.813217      6.159940
  O      19.610494     30.686297      6.149521
  Si     16.946206     38.483719      7.793543
  O      15.621699     39.293750      8.321152
  O      18.328362     39.090870      8.401866
  O      16.877002     36.917577      8.295224
  O      16.936051     38.474081      6.155734
  O      20.828456     29.877138      8.440506
  O      20.955678     34.531324      8.432924
  H       4.074657     24.986772      8.036591
  H       1.410409     29.602015      8.036749
  H       1.410409     35.007985      8.036749
  H       4.074657     39.623228      8.036591
  H       8.948181     22.173255      8.038302
  H       8.948181     42.436745      8.038302
  H      14.277762     22.173204      8.038282
  H      14.277762     42.436796      8.038282
  H      18.960557     24.876228      8.036406
  H      18.960557     39.733772      8.036406
  H      21.624717     29.491420      8.036583
  H      21.624717     35.118580      8.036583
  H      13.383264     34.178314      5.630889
  H      10.873796     34.811458      5.571830
  H       9.017705     32.929713      5.551979
  H       9.777627     30.383932      5.614011
  H      12.287092     29.816740      5.656798
  H      14.059420     31.685831      5.654133
  H      13.534897     39.790507      5.716457
  H      10.814257     39.108718      5.674709
  H       8.161813     39.663796      5.735278
  H       6.069873     37.723828      5.728634
  H       5.264688     35.093855      5.667149
  H       3.505110     33.019490      5.746469
  H       4.094123     30.291837      5.733829
  H       6.010823     28.289426      5.665488
  H       6.855005     25.678664      5.734216
  H       9.592554     24.879981      5.735938
  H      12.276593     25.538669      5.679220
  H      14.965275     24.989371      5.760926
  H      17.007847     26.871654      5.749765
  H      17.763708     29.523291      5.681769
  H      19.638728     31.554923      5.727085
  H      18.943389     34.338011      5.747582
  H      17.045241     36.320302      5.686664
  H      16.175718     38.922348      5.758792
  P       8.072923     36.012545     11.827584
  O       8.857934     36.551920     12.970995
  O       6.584823     35.981058     11.841280
  O       8.597883     36.804305     10.514576
  O       8.525260     34.477987     11.536324
  C       9.901860     34.161404     11.468124
  C      10.009094     32.671114     11.214269
  O      11.309832     32.385371     10.678035
  C       9.854322     31.816843     12.462501
  O       9.178447     30.591519     12.246131
  C      11.307989     31.555340     12.858991
  O      11.487642     30.438673     13.673796
  C      11.972703     31.448157     11.483222
  N      13.380458     31.744522     11.465609
  C      13.966547     32.980993     11.519976
  N      15.272173     32.934526     11.492864
  C      15.566311     31.591646     11.422062
  C      16.775981     30.878109     11.375290
  N      17.972629     31.476273     11.412026
  N      16.716979     29.539339     11.318354
  C      15.524201     28.944700     11.305226
  N      14.322315     29.502796     11.350699
  C      14.401167     30.833316     11.404804
  H       7.972958     36.730638      9.781876
  H      10.377459     34.691082     10.639350
  H      10.410348     34.440122     12.397167
  H       9.257617     32.390636     10.473000
  H       9.303878     32.340751     13.244232
  H       9.348284     30.273936     11.351834
  H      11.715239     32.428083     13.376736
  H      10.822355     29.791423     13.397649
  H      11.870732     30.426578     11.096615
  H      13.370166     33.880310     11.561086
  H      18.040644     32.474822     11.317958
  H      18.799895     30.923341     11.265761
  H      15.544648     27.859730     11.247868
162
Coordinates from ORCA-job /data/Seafile/amp/frames/frame12/amp_frame12 E -13464.509739918978
  Si      3.502409     33.902893      7.785406
  Si      3.461195     30.794175      7.801383
  O       2.289675     34.799232      8.396545
  O       2.173643     30.039759      8.453315
  O       3.469614     32.353400      8.315834
  O       3.509816     33.900083      6.147076
  O       3.426806     30.844444      6.165895
  Si      6.146199     26.135736      7.792891
  Si      8.826438     24.545167      7.792230
  O       4.802726     25.486896      8.443117
  O       7.489475     25.348925      8.304089
  O       8.768029     23.047056      8.430410
  O       6.116064     26.137704      6.155471
  O       8.789592     24.539737      6.156490
  Si      6.122419     29.225243      7.681340
  Si      6.165528     35.451231      7.667982
  Si      8.895836     33.855909      7.563977
  Si      8.874313     30.773837      7.597624
  O       4.846589     30.051387      8.286214
  O       4.895677     34.629321      8.279067
  O       7.557957     34.670307      8.010550
  O       7.495043     30.034164      8.044622
  O       6.207814     27.707511      8.277129
  O       8.830867     32.323099      8.130710
  O       5.895219     29.163634      6.062229
  O       5.972217     35.629171      6.054668
  O       9.042116     33.818870      5.935898
  O       9.001209     30.844863      5.969818
  Si      6.191531     38.540896      7.790436
  Si      8.908285     40.068334      7.792147
  O       4.891905     39.275732      8.439521
  O       7.540262     39.321747      8.303080
  O       6.282549     36.966892      8.287175
  O       9.050022     41.555361      8.436218
  O       6.206761     38.581354      6.156699
  O       8.921890     40.089520      6.154260
  Si     11.515342     26.074967      7.700521
  Si     14.196272     24.539444      7.794506
  O      10.167275     25.359709      8.289365
  O      12.873284     25.384438      8.288417
  O      14.028380     23.039440      8.404154
  O      11.463256     25.877948      6.077051
  O      14.201509     24.546301      6.156588
  Si     11.523844     29.231626      7.651036
  Si     11.580898     35.369218      7.599909
  Si     14.228361     33.817078      7.649975
  Si     14.191327     30.746984      7.656467
  O      10.167509     29.970599      8.204428
  O      10.212085     34.647596      8.131654
  O      12.918697     34.634613      8.198584
  O      12.873173     29.956130      8.227757
  O      11.489248     27.663031      8.090219
  O      14.257851     32.281944      8.218507
  O      11.502152     29.375836      6.020762
  O      11.655362     35.221943      5.971658
  O      14.133048     33.701141      6.019621
  O      14.028752     30.790654      6.027189
  Si     11.582789     38.527603      7.676736
  Si     14.268077     40.061780      7.798712
  O      10.227188     39.212621      8.277784
  O      12.938984     39.219071      8.275490
  O      11.600532     36.934962      8.042592
  O      14.210416     41.555070      8.445970
  O      11.628666     38.752517      6.057286
  O      14.349706     40.060791      6.163461
  Si     16.904728     26.062232      7.812501
  O      15.554231     25.284405      8.329361
  O      18.206978     25.326285      8.457098
  O      16.873538     26.012667      6.176227
  Si     16.919072     29.151894      7.707031
  Si     16.961619     35.394935      7.709782
  Si     19.628563     33.832462      7.795535
  Si     19.593854     30.714175      7.786879
  O      15.532746     29.931065      8.078414
  O      15.598438     34.578380      8.093822
  O      18.253588     34.583953      8.301840
  O      18.203099     29.985394      8.270148
  O      16.854181     27.629729      8.302080
  O      19.606599     32.270852      8.298818
  O      17.064826     28.989126      6.082921
  O      17.166552     35.448292      6.086831
  O      19.645187     33.813248      6.159902
  O      19.610512     30.685993      6.149496
  Si     16.946344     38.483645      7.793607
  O      15.622067     39.293963      8.321259
  O      18.328665     39.090560      8.401861
  O      16.877048     36.917510      8.295276
  O      16.936179     38.474027      6.155753
  O      20.828407     29.877040      8.440520
  O      20.955766     34.531236      8.432961
  H       4.074658     24.986772      8.036591
  H       1.410409     29.602015      8.036749
  H       1.410409     35.007985      8.036749
  H       4.074657     39.623228      8.036591
  H       8.948181     22.173255      8.038302
  H       8.948181     42.436745      8.038302
  H      14.277762     22.173204      8.038282
  H      14.277762     42.436796      8.038282
  H      18.960557     24.876228      8.036406
  H      18.960557     39.733772      8.036406
  H      21.624717     29.491420      8.036583
  H      21.624717     35.118580      8.036583
  H      13.383037     34.178436      5.630889
  H      10.873754     34.811570      5.571615
  H       9.017983     32.929609      5.551839
  H       9.777352     30.383669      5.613416
  H      12.287043     29.816272      5.656091
  H      14.059451     31.685986      5.654036
  H      13.535532     39.790913      5.716228
  H      10.814495     39.108315      5.674412
  H       8.161707     39.663950      5.735513
  H       6.070528     37.723494      5.728783
  H       5.264763     35.093902      5.667327
  H       3.505355     33.019400      5.746538
  H       4.093985     30.291944      5.733735
  H       6.010599     28.289180      5.665551
  H       6.855038     25.678630      5.734390
  H       9.592440     24.879747      5.736037
  H      12.276599     25.538117      5.679302
  H      14.965252     24.989500      5.760965
  H      17.007814     26.871653      5.749775
  H      17.763764     29.523259      5.681780
  H      19.638900     31.554513      5.726871
  H      18.943713     34.338137      5.747453
  H      17.045251     36.320553      5.686847
  H      16.175773     38.922310      5.758941
  P       8.073766     36.011195     11.826964
  O       8.858146     36.549339     12.971485
  O       6.585588     35.980143     11.839739
  O       8.599257     36.803903     10.514947
  O       8.525790     34.476884     11.534598
  C       9.902273     34.159313     11.467088
  C      10.008245     32.668894     11.213303
  O      11.308390     32.381535     10.676852
  C       9.852927     31.815052     12.461823
  O       9.176737     30.589948     12.245589
  C      11.306471     31.553443     12.858655
  O      11.485930     30.437228     13.674085
  C      11.971543     31.445385     11.483061
  N      13.379145     31.742432     11.465457
  C      13.964453     32.979268     11.519906
  N      15.270100     32.933650     11.492863
  C      15.565096     31.590955     11.422026
  C      16.775262     30.878243     11.375347
  N      17.971449     31.477274     11.411858
  N      16.717152     29.539409     11.318681
  C      15.524759     28.943986     11.305469
  N      14.322500     29.501306     11.350513
  C      14.400453     30.831878     11.404662
  H       7.974488     36.730905      9.782058
  H      10.378554     34.688859     10.638626
  H      10.410547     34.437584     12.396377
  H       9.256157     32.388781     10.472507
  H       9.302390     32.339441     13.243166
  H       9.347326     30.271611     11.351702
  H      11.713667     32.426496     13.375936
  H      10.820571     29.789889     13.398353
  H      11.870137     30.423354     11.097528
  H      13.367470     33.878185     11.561070
  H      18.038724     32.475913     11.318264
  H      18.799252     30.924961     11.266357
  H      15.545941     27.859011     11.248481
162
Coordinates from ORCA-job /data/Seafile/amp/frames/frame12/amp_frame12 E -13464.509740231984
  Si      3.502472     33.902808      7.785467
  Si      3.461274     30.794146      7.801349
  O       2.289584     34.798971      8.396601
  O       2.173739     30.039669      8.453227
  O       3.469688     32.353343      8.315908
  O       3.509960     33.900069      6.147138
  O       3.426774     30.844570      6.165889
  Si      6.146207     26.135695      7.792972
  Si      8.826380     24.545121      7.792290
  O       4.802664     25.486946      8.443170
  O       7.489478     25.348917      8.304213
  O       8.767834     23.046987      8.430486
  O       6.116004     26.137496      6.155544
  O       8.789422     24.539647      6.156556
  Si      6.122458     29.225161      7.681230
  Si      6.165514     35.451127      7.668037
  Si      8.895872     33.855878      7.563604
  Si      8.874418     30.773719      7.597105
  O       4.846703     30.051397      8.286108
  O       4.895622     34.629336      8.279058
  O       7.557931     34.670045      8.010461
  O       7.495157     30.034053      8.044211
  O       6.207765     27.707487      8.277173
  O       8.831185     32.322994      8.130026
  O       5.895145     29.163468      6.062138
  O       5.972341     35.629266      6.054715
  O       9.041937     33.818981      5.935500
  O       9.001203     30.844810      5.969261
  Si      6.191606     38.540855      7.790449
  Si      8.908223     40.068403      7.792302
  O       4.892090     39.276050      8.439442
  O       7.540556     39.321303      8.303273
  O       6.282475     36.966761      8.287329
  O       9.049435     41.555448      8.436556
  O       6.206884     38.581030      6.156769
  O       8.921581     40.090187      6.154456
  Si     11.515334     26.074740      7.700449
  Si     14.196315     24.539494      7.794559
  O      10.167281     25.359578      8.289439
  O      12.873305     25.384378      8.288482
  O      14.028381     23.039449      8.404124
  O      11.463338     25.877416      6.077029
  O      14.201551     24.546352      6.156627
  Si     11.523934     29.231421      7.650559
  Si     11.580831     35.369302      7.599638
  Si     14.228288     33.817118      7.649656
  Si     14.191297     30.747000      7.656226
  O      10.167524     29.970402      8.203766
  O      10.212022     34.647698      8.131439
  O      12.918628     34.634663      8.198235
  O      12.873210     29.955949      8.227355
  O      11.489144     27.662889      8.089857
  O      14.257688     32.281959      8.218240
  O      11.502402     29.375435      6.020307
  O      11.655300     35.222142      5.971322
  O      14.132939     33.701275      6.019372
  O      14.028982     30.790634      6.026914
  Si     11.582914     38.527632      7.676635
  Si     14.268284     40.061771      7.798729
  O      10.227479     39.213012      8.277576
  O      12.939287     39.218839      8.275286
  O      11.600487     36.934958      8.042555
  O      14.210299     41.555100      8.446019
  O      11.629070     38.752523      6.057219
  O      14.350199     40.060884      6.163484
  Si     16.904711     26.062245      7.812476
  O      15.554261     25.284414      8.329450
  O      18.207003     25.326333      8.457105
  O      16.873488     26.012638      6.176221
  Si     16.919067     29.151892      7.706907
  Si     16.961663     35.394900      7.709740
  Si     19.628607     33.832426      7.795530
  Si     19.593831     30.714118      7.786870
  O      15.532735     29.931115      8.078208
  O      15.598368     34.578363      8.093588
  O      18.253596     34.583890      8.301834
  O      18.203054     29.985386      8.270137
  O      16.854106     27.629760      8.302015
  O      19.606666     32.270823      8.298761
  O      17.064915     28.989002      6.082836
  O      17.166748     35.448430      6.086815
  O      19.645413     33.813261      6.159926
  O      19.610515     30.685850      6.149496
  Si     16.946434     38.483575      7.793642
  O      15.622334     39.294101      8.321395
  O      18.328929     39.090276      8.401832
  O      16.877076     36.917457      8.295340
  O      16.936256     38.473991      6.155773
  O      20.828348     29.876922      8.440528
  O      20.955781     34.531283      8.433076
  H       4.074657     24.986772      8.036591
  H       1.410409     29.602015      8.036749
  H       1.410409     35.007985      8.036749
  H       4.074657     39.623228      8.036591
  H       8.948181     22.173255      8.038302
  H       8.948181     42.436745      8.038302
  H      14.277762     22.173204      8.038282
  H      14.277762     42.436796      8.038282
  H      18.960557     24.876228      8.036406
  H      18.960557     39.733772      8.036406
  H      21.624717     29.491420      8.036583
  H      21.624717     35.118580      8.036583
  H      13.382852     34.178564      5.630751
  H      10.873677     34.811891      5.571197
  H       9.018184     32.929675      5.551513
  H       9.777160     30.383361      5.612811
  H      12.287226     29.815899      5.655553
  H      14.059500     31.685944      5.653725
  H      13.535969     39.791244      5.716205
  H      10.814883     39.107915      5.674050
  H       8.161646     39.664332      5.735564
  H       6.070793     37.722994      5.729121
  H       5.264800     35.093985      5.667515
  H       3.505343     33.019394      5.746574
  H       4.093825     30.291999      5.733624
  H       6.010469     28.288956      5.665563
  H       6.855111     25.678586      5.734508
  H       9.592330     24.879432      5.736032
  H      12.276735     25.537530      5.679415
  H      14.965272     24.989615      5.761022
  H      17.007738     26.871648      5.749798
  H      17.763850     29.523208      5.681771
  H      19.639024     31.554297      5.726741
  H      18.944118     34.338264      5.747335
  H      17.045334     36.320755      5.686988
  H      16.175771     38.922244      5.759057
  P       8.074500     36.010056     11.826050
  O       8.858766     36.547026     12.971273
  O       6.586196     35.979782     11.838318
  O       8.600305     36.803285     10.514675
  O       8.525899     34.475730     11.533008
  C       9.902196     34.157243     11.466194
  C      10.007223     32.666711     11.212465
  O      11.307039     32.378376     10.675935
  C       9.851628     31.813190     12.461195
  O       9.175428     30.588136     12.245133
  C      11.305113     31.551652     12.858348
  O      11.484389     30.435742     13.674198
  C      11.970475     31.443054     11.482856
  N      13.377915     31.740758     11.465172
  C      13.962509     32.977944     11.519535
  N      15.268166     32.933109     11.492464
  C      15.563955     31.590578     11.421731
  C      16.774571     30.878612     11.375268
  N      17.970344     31.478430     11.411593
  N      16.717286     29.539723     11.318962
  C      15.525261     28.943570     11.305708
  N      14.322647     29.500170     11.350412
  C      14.399780     30.830797     11.404441
  H       7.975436     36.730887      9.781810
  H      10.379326     34.686422     10.637977
  H      10.410265     34.435192     12.395680
  H       9.254836     32.386881     10.471887
  H       9.300933     32.337911     13.242209
  H       9.346570     30.269212     11.351567
  H      11.712256     32.424915     13.375326
  H      10.818989     29.788356     13.398682
  H      11.869559     30.420683     11.098093
  H      13.364966     33.876492     11.560704
  H      18.036938     32.477144     11.318377
  H      18.798601     30.926651     11.266705
  H      15.547126     27.858595     11.249050
162
Coordinates from ORCA-job /data/Seafile/amp/frames/frame12/amp_frame12 E -13464.509740191348
  Si      3.502474     33.902691      7.785578
  Si      3.461371     30.794058      7.801322
  O       2.289420     34.798589      8.396750
  O       2.173917     30.039431      8.453147
  O       3.469786     32.353217      8.315987
  O       3.510044     33.900086      6.147271
  O       3.426744     30.844639      6.165873
  Si      6.146244     26.135651      7.792969
  Si      8.826370     24.545090      7.792301
  O       4.802609     25.487033      8.443168
  O       7.489498     25.348904      8.304257
  O       8.767692     23.046937      8.430534
  O       6.116016     26.137279      6.155531
  O       8.789336     24.539587      6.156578
  Si      6.122545     29.225083      7.681083
  Si      6.165425     35.451011      7.668184
  Si      8.895850     33.855907      7.563270
  Si      8.874522     30.773629      7.596728
  O       4.846856     30.051370      8.285985
  O       4.895509     34.629348      8.279147
  O       7.557745     34.669658      8.010377
  O       7.495298     30.033936      8.043903
  O       6.207803     27.707451      8.277148
  O       8.831461     32.322938      8.129436
  O       5.895153     29.163329      6.061989
  O       5.972334     35.629409      6.054869
  O       9.041746     33.819266      5.935156
  O       9.001223     30.844774      5.968825
  Si      6.191582     38.540852      7.790490
  Si      8.908065     40.068532      7.792266
  O       4.892159     39.276213      8.439470
  O       7.540728     39.320956      8.303226
  O       6.282516     36.966642      8.287504
  O       9.048847     41.555511      8.436847
  O       6.206566     38.580600      6.156838
  O       8.921225     40.091007      6.154438
  Si     11.515392     26.074572      7.700420
  Si     14.196378     24.539547      7.794638
  O      10.167309     25.359503      8.289477
  O      12.873362     25.384351      8.288632
  O      14.028398     23.039456      8.404120
  O      11.463533     25.876973      6.077031
  O      14.201600     24.546455      6.156705
  Si     11.524070     29.231298      7.650221
  Si     11.580714     35.369417      7.599366
  Si     14.228205     33.817188      7.649366
  Si     14.191300     30.747060      7.656044
  O      10.167571     29.970245      8.203281
  O      10.211883     34.647885      8.131212
  O      12.918522     34.634755      8.197866
  O      12.873337     29.955805      8.227109
  O      11.489075     27.662806      8.089559
  O      14.257528     32.282027      8.217983
  O      11.502702     29.375251      6.019991
  O      11.655218     35.222284      5.971019
  O      14.132838     33.701355      6.019129
  O      14.029071     30.790565      6.026699
  Si     11.582982     38.527692      7.676512
  Si     14.268406     40.061787      7.798783
  O      10.227585     39.213310      8.277207
  O      12.939458     39.218700      8.275151
  O      11.600394     36.934990      8.042535
  O      14.210263     41.555139      8.446104
  O      11.629563     38.752473      6.057093
  O      14.350522     40.061019      6.163532
  Si     16.904722     26.062303      7.812503
  O      15.554320     25.284432      8.329572
  O      18.207105     25.326498      8.457121
  O      16.873460     26.012660      6.176260
  Si     16.919091     29.151925      7.706851
  Si     16.961698     35.394891      7.709746
  Si     19.628635     33.832435      7.795583
  Si     19.593834     30.714125      7.786902
  O      15.532773     29.931245      8.078037
  O      15.598295     34.578364      8.093354
  O      18.253557     34.583812      8.301883
  O      18.203045     29.985415      8.270158
  O      16.854017     27.629823      8.302031
  O      19.606784     32.270828      8.298782
  O      17.065016     28.988916      6.082814
  O      17.166961     35.448566      6.086852
  O      19.645599     33.813287      6.160009
  O      19.610506     30.685874      6.149534
  Si     16.946469     38.483531      7.793676
  O      15.622477     39.294187      8.321531
  O      18.329146     39.090024      8.401788
  O      16.877056     36.917436      8.295443
  O      16.936263     38.473961      6.155818
  O      20.828295     29.876805      8.440536
  O      20.955715     34.531464      8.433246
  H       4.074658     24.986772      8.036591
  H       1.410409     29.602015      8.036749
  H       1.410409     35.007985      8.036749
  H       4.074657     39.623228      8.036591
  H       8.948181     22.173255      8.038302
  H       8.948181     42.436745      8.038302
  H      14.277762     22.173204      8.038282
  H      14.277762     42.436796      8.038282
  H      18.960557     24.876228      8.036406
  H      18.960557     39.733772      8.036406
  H      21.624717     29.491420      8.036583
  H      21.624717     35.118580      8.036583
  H      13.382711     34.178659      5.630590
  H      10.873500     34.812282      5.570829
  H       9.018211     32.929921      5.551235
  H       9.777095     30.383248      5.612326
  H      12.287482     29.815824      5.655273
  H      14.059550     31.685806      5.653371
  H      13.536261     39.791391      5.716286
  H      10.815424     39.107442      5.673493
  H       8.161632     39.664792      5.735323
  H       6.070764     37.722332      5.729521
  H       5.264872     35.093966      5.667723
  H       3.505197     33.019462      5.746600
  H       4.093711     30.292078      5.733477
  H       6.010475     28.288782      5.665487
  H       6.855251     25.678510      5.734556
  H       9.592297     24.879116      5.735955
  H      12.276987     25.537034      5.679564
  H      14.965306     24.989742      5.761090
  H      17.007725     26.871680      5.749847
  H      17.763956     29.523137      5.681769
  H      19.639080     31.554288      5.726722
  H      18.944452     34.338362      5.747266
  H      17.045382     36.320905      5.687095
  H      16.175751     38.922222      5.759150
  P       8.074664     36.009043     11.825339
  O       8.859273     36.545212     12.970724
  O       6.586257     35.979458     11.837659
  O       8.600442     36.802468     10.514177
  O       8.525461     34.474569     11.531975
  C       9.901582     34.155495     11.465602
  C      10.006110     32.664869     11.211960
  O      11.305815     32.376096     10.675347
  C       9.850528     31.811552     12.460812
  O       9.174535     30.586389     12.244954
  C      11.304030     31.550237     12.858168
  O      11.483199     30.434492     13.674239
  C      11.969548     31.441387     11.482711
  N      13.376857     31.739659     11.464892
  C      13.960846     32.977156     11.518997
  N      15.266511     32.932980     11.491826
  C      15.562975     31.590578     11.421338
  C      16.773970     30.879231     11.375150
  N      17.969405     31.479708     11.411249
  N      16.717387     29.540291     11.319307
  C      15.525672     28.943521     11.306121
  N      14.322755     29.499513     11.350594
  C      14.399196     30.830194     11.404300
  H       7.975305     36.730414      9.781488
  H      10.379363     34.684227     10.637460
  H      10.409528     34.433368     12.395174
  H       9.253638     32.385225     10.471428
  H       9.299684     32.336414     13.241635
  H       9.345997     30.267104     11.351586
  H      11.711128     32.423596     13.375010
  H      10.817781     29.787089     13.398798
  H      11.869025     30.418800     11.098411
  H      13.362831     33.875391     11.560080
  H      18.035445     32.478473     11.318248
  H      18.798017     30.928345     11.266844
  H      15.548104     27.858540     11.249783
