162
Coordinates from ORCA-job amp_frame12
  Si          3.55625020342814     33.84481351777298      7.82283052192166
  Si          3.55593639195512     30.76681375048690      7.82283149616768
  O           2.14730559709646     34.47995713558436      8.40980825110294
  O           2.14686231963705     30.13195801680771      8.40980966015741
  O           3.71008409656125     32.30579812021905      8.41283350884580
  O           3.55527628749372     33.84681297644372      6.16683050741360
  O           3.55496202335269     30.76481349815191      6.16683148092116
  Si          6.21946582695739     26.15154202993795      7.82287392704911
  Si          8.88330919946200     24.61427028872736      7.82291552674443
  O           4.81039182402910     25.51668622933413      8.40985212647653
  O           7.47536482356843     25.24941406378451      8.40989359552007
  O           9.03814383675823     23.07525464260564      8.41291806286560
  O           6.21949138174997     26.14954192355257      6.16687394492880
  O           8.88333533387148     24.61627018686755      6.16691554499330
  Si          6.21977961413402     29.22954196540872      7.82287341225022
  Si          6.22040692819069     35.38154178826160      7.82287165503693
  Si          8.88425010744714     33.84427022518392      7.82291377935181
  Si          8.88393625550345     30.76627025768857      7.82291467608523
  O           4.81083521989125     29.86468585589923      8.40985130539726
  O           4.81133299209985     34.74668571393527      8.40984984536349
  O           7.47630573795812     34.47941393374973      8.40989158708357
  O           7.47586237044850     30.13141408511168      8.40989277468812
  O           6.37361355468532     27.69052643337167      8.41287612447482
  O           9.03908403693253     32.30525463860167      8.41291663200131
  O           6.21980561955679     29.23154162852006      6.16687340521301
  O           6.22043261076037     35.37954121063304      6.16687165090491
  O           8.88427617145875     33.84626969415669      6.16691376176341
  O           8.88396189480109     30.76426994301894      6.16691459625073
  Si          6.22072074770145     38.45954160508544      7.82287044101094
  Si          8.88487749792781     39.99627009486786      7.82291135280837
  O           4.81177610595700     39.09468497609272      8.40984815235944
  O           7.47680356779800     39.36141385641674      8.40988966413730
  O           6.37455463209734     36.92052622811921      8.41287352460030
  O           9.04002569361298     41.53525449281557      8.41291308191586
  O           6.22074678744262     38.46154080485987      6.16687043961875
  O           8.88490322602549     39.99426934452769      6.16691135397370
  Si         11.54846574447516     26.15099867823286      7.82295698784486
  Si         14.21330911887045     24.61372707388633      7.82299880437092
  O          10.13939193503293     25.51614235768928      8.40993508813176
  O          12.80436466565979     25.24887074117568      8.40997670686621
  O          14.36714371858492     23.07471152315327      8.41300136335476
  O          11.54849138429578     26.14899848649391      6.16695698139904
  O          14.21233531182378     24.61572701590609      6.16699878081790
  Si         11.54877942795044     29.22899867668916      7.82295652741127
  Si         11.54940674671555     35.38099852317155      7.82295480084582
  Si         14.21424993274461     33.84372686339743      7.82299679672684
  Si         14.21393597084736     30.76572709453127      7.82299763324051
  O          10.13983507330087     29.86414241054955      8.40993435364658
  O          10.14033288980236     34.74614237895253      8.40993306721686
  O          12.80530558330912     34.47887069199807      8.40997468744614
  O          12.80486230925309     30.13087057181312      8.40997596458256
  O          11.70261342858039     27.68998304971189      8.41295918078172
  O          14.36808379975886     32.30471137483185      8.41299968435097
  O          11.54880548211760     29.23099828051091      6.16695649326445
  O          11.54943233924908     35.37899793563132      6.16695480131302
  O          14.21327586821734     33.84572642745797      6.16699678688162
  O          14.21296159074318     30.76372662175683      6.16699767982840
  Si         11.54972065772179     38.45899842552068      7.82295359196181
  Si         14.21487735679187     39.99572667177900      7.82299441689508
  O          10.14077630371832     39.09414231237300      8.40993138119254
  O          12.80580347734581     39.36087061058620      8.40997276795635
  O          11.70355452267399     36.91998300282417      8.41295663580804
  O          14.36902552479775     41.53471118135872      8.41299609863218
  O          11.54974665238294     38.46099771188374      6.16695359151982
  O          14.21390301371589     39.99372599819056      6.16699440308481
  Si         16.87746530884628     26.15045547819178      7.82304014116157
  O          15.46839169503116     25.51559922832485      8.41001835997983
  O          18.13336401434851     25.24832716897577      8.41005978022174
  O          16.87749087832540     26.14845510038949      6.16704011182110
  Si         16.87777886497632     29.22845582608719      7.82303939858512
  Si         16.87840650060775     35.38045526333246      7.82303765181132
  Si         19.54224961681819     33.84318369590156      7.82307944542365
  Si         19.54193557389992     30.76518398989289      7.82308032017052
  O          15.46883487734369     29.86359905825566      8.41001742659514
  O          15.46933269414671     34.74559913068077      8.41001601413372
  O          18.13430533906142     34.47832742615965      8.41005747932182
  O          18.13386226513010     30.13032690798989      8.41005892634641
  O          17.03161328517693     27.68943978604256      8.41304222292942
  O          19.69708352256316     32.30416801726564      8.41308228734881
  O          16.87780519131713     29.23045487006972      6.16703949233515
  O          16.87843199475000     35.37845465785041      6.16703765329049
  O          19.54227535868486     33.84518324491356      6.16707943751272
  O          19.54196109109732     30.76318298518666      6.16708036209206
  Si         16.87872042573557     38.45845522948193      7.82303646038326
  O          15.46977615108365     39.09359903443693      8.41001439877941
  O          18.13480302853211     39.36032777499318      8.41005555163000
  O          17.03255432242832     36.91943977505732      8.41303947294697
  O          16.87874623687553     38.46045460903743      6.16703645972296
  O          20.79783428416216     29.86305518979438      8.41010008165644
  O          20.79833211196347     34.74505628945185      8.41009857008049
  H           4.07465742803614     24.98677204441554      8.03659115339057
  H           1.41040896917089     29.60201496890575      8.03674925633732
  H           1.41040901461481     35.00798498173254      8.03674926456921
  H           4.07465743667685     39.62322797219710      8.03659115988999
  H           8.94818085110086     22.17325470630927      8.03830168803179
  H           8.94818087839588     42.43674530331337      8.03830168072816
  H          14.27776169717137     22.17320385284849      8.03828218848090
  H          14.27776173115170     42.43679616271331      8.03828219178908
  H          18.96055658797712     24.87622777787047      8.03640578058013
  H          18.96055653559392     39.73377222672839      8.03640577823557
  H          21.62471724212239     29.49141995025266      8.03658341455574
  H          21.62471723689272     35.11858007129890      8.03658341149865
  H          13.43954240724050     34.27033906132630      5.76911863064292
  H          10.79702478230375     34.91824967573493      5.76839602514692
  H           8.90770700422673     32.96594596192816      5.76499475673489
  H           9.65945433236871     30.34299408480176      5.76888005220738
  H          12.30259136559987     29.68912269770783      5.76803922696451
  H          14.18560353833311     31.64418152175442      5.76552258506524
  H          13.46208429049572     39.53603768241236      5.76468154400771
  H          10.78553467863467     38.90473306679241      5.77122838976952
  H           8.14831461442063     39.50994490505098      5.76699955037103
  H           6.23317386246010     37.58286575786652      5.76180503595805
  H           5.45415702091757     34.93908511454472      5.77152547614449
  H           3.60566386847576     32.96814933217330      5.76410508793192
  H           4.32812544128679     30.34544671569684      5.76331957713910
  H           6.21212642332863     28.34933201704423      5.76816829155313
  H           7.00946743081701     25.75759721553813      5.76754704144454
  H           9.64012206967219     25.06582757876766      5.76488469488324
  H          12.31500792515429     25.70853944705717      5.77192568454449
  H          14.95343798991276     25.09203406335354      5.76610003190330
  H          16.85241663163562     27.02653750994697      5.76116217796598
  H          17.64630211768204     29.66655902637611      5.77122747342059
  H          19.48194553942310     31.64158904760013      5.76482832069867
  H          18.77355784195155     34.27390175948541      5.76498788497839
  H          16.88031298508145     36.26100719847834      5.76894103311395
  H          16.09309773695883     38.86024083817276      5.76722976411390
  P           9.91206325862752     34.71860973033982     14.23881091689939
  O          11.22091125906258     34.09492906379901     14.54353748630425
  O           8.61292649848464     34.07820032003300     14.57472692790833
  O           9.87299642664799     36.25925664345552     14.82183972279283
  O           9.88140668295440     35.12212952224035     12.59035948997109
  C          10.85643792385135     34.51749236244888     11.81649633880023
  C          10.32357924938226     33.22470389116229     11.18528171711289
  O          11.30402268550362     32.56385192146883     10.37080047596644
  C           9.92264186969613     32.17394593532477     12.20842134228542
  O           9.04195156501340     31.21174043695445     11.65762732077869
  C          11.27243708013004     31.48948668334384     12.51235594545296
  O          11.10445377215838     30.16814801928183     12.92098436350594
  C          11.98722355919744     31.60001580073019     11.13153201980828
  N          13.39485128290709     31.91142980141047     11.22122148407024
  C          14.00994346522163     33.13079293298553     11.20917801707843
  N          15.30809933501755     33.07149744628661     11.20919029380614
  C          15.59781090279909     31.73226372097558     11.20885861582387
  C          16.78773634205216     30.99886943619808     11.13302530001510
  N          18.01376745240833     31.59729363548662     11.09159666918502
  N          16.72021343891992     29.66670213806960     11.15684892155829
  C          15.52500681900044     29.09124186243990     11.20502468859777
  N          14.33785619045650     29.65926952742155     11.22421070261955
  C          14.39928093051762     30.99056844473108     11.21792963943048
  H           8.97243647990935     36.51988996135130     14.64605794747259
  H          11.14894387075516     35.20349106844154     11.01001695829268
  H          11.71882284428204     34.28853638151053     12.45323422399373
  H           9.48246947982866     33.48003249543802     10.53563947775149
  H           9.44393087048239     32.59093394339671     13.09589882527767
  H           9.22947278182785     31.13369046412931     10.71371231862736
  H          11.81549191834952     32.03247010845360     13.29031372216560
  H          10.23587745170708     29.89806112253151     12.57468875215093
  H          11.93949255143612     30.62464574985553     10.62403340834861
  H          13.45575007422087     34.04538807653964     11.18044730326128
  H          17.99373722685514     32.55786293035845     10.78471023802645
  H          18.74583402299872     31.02635675408168     10.69997782553784
  H          15.53348055502465     28.00943701772511     11.21727975986877
