163
6 Eopt=-411.6003482244 (Eh) Einter=-12.832671 (kcal/mol)
Si 3.55625022833376736031 33.84481352378237772882 7.82283052370662890240
Si 3.55593638831182978777 30.76681375030322129760 7.82283149739684269264
O  2.14730553371715870981 34.47995720141233988443 8.40980823163523183439
O  2.14686231940502558757 30.13195801682010710465 8.40980966020207354461
O  3.71008410295915869170 32.30579811939333012560 8.41283350912895322438
O  3.55527628610841972545 33.84681297217212403439 6.16683050760998341389
O  3.55496202338274525090 30.76481349800006981354 6.16683148080606891028
Si 6.21946584756743980904 26.15154205436735779244 7.82287393919766760320
Si 8.88330924502979435431 24.61427038461079774834 7.82291552925279987107
O  4.81039181923276437658 25.51668623320802709031 8.40985212623498945561
O  7.47536480195314467778 25.24941402173317328561 8.40989358524181618293
O  9.03814379455348415604 23.07525440951792106148 8.41291805370712886258
O  6.21949137488062842039 26.14954191251395343443 6.16687394241553832330
O  8.88333532171312967307 24.61627016990642147221 6.16691554060877855648
Si 6.21977961146281543847 29.22954198852859164504 7.82287341441130124053
Si 6.22040692048888832488 35.38154178526345106093 7.82287164964263226352
Si 8.88425012332113084312 33.84427022292082654076 7.82291376951501504777
Si 8.88393626343322928562 30.76627030836554865800 7.82291461844657565194
O  4.81083521822035198312 29.86468585500120553888 8.40985130118126988918
O  4.81133299344751463877 34.74668570904589159909 8.40984984243416988647
O  7.47630574279836057627 34.47941394575724416427 8.40989159567247668292
O  7.47586238282942971978 30.13141404456752425745 8.40989278801489881232
O  6.37361354950309877410 27.69052643003193736604 8.41287612153128350201
O  9.03908400645513054883 32.30525462992376617422 8.41291665049552861433
O  6.21980561985210567144 29.23154162517642262742 6.16687340280724693997
O  6.22043261198611041607 35.37954121125746098642 6.16687165172637286048
O  8.88427616580999846008 33.84626969644779848068 6.16691376572118432620
O  8.88396189483541220966 30.76426993083787309047 6.16691460890272136197
Si 6.22072074892325321827 38.45954160546922651065 7.82287044071597037487
Si 8.88487750549223065377 39.99627008741357769850 7.82291134836694546095
O  4.81177610541943234779 39.09468497650293983270 8.40984815220581261030
O  7.47680357155920294332 39.36141385094334310679 8.40988966735430842903
O  6.37455463030439606342 36.92052622913916337666 8.41287352640627972278
O  9.04002565382464418065 41.53525455566992974354 8.41291307211680994271
O  6.22074678716369433573 38.46154080529760932450 6.16687043928859601749
O  8.88490322306864399593 39.99426934368270991627 6.16691135415369551254
Si 11.54846575841558653508 26.15099867145705303528 7.82295698422707364017
Si 14.21330911522466422525 24.61372707424499850504 7.82299879701968237100
O  10.13939192583187853813 25.51614236126431123353 8.40993507397178419183
O  12.80436466447360999155 25.24887073931266101567 8.40997670689226417551
O  14.36714371835945769362 23.07471152248164614207 8.41300136418798771842
O  11.54849138151979737188 26.14899848650497560243 6.16695698309899675849
O  14.21233531260605609248 24.61572701430594634076 6.16699878111214161436
Si 11.54877946005233013693 29.22899861564609835796 7.82295651140907644105
Si 11.54940649474101199701 35.38099837689902216198 7.82295480424501743499
Si 14.21424973361507504421 33.84372660462408788362 7.82299653218632240481
Si 14.21393606920478802635 30.76572684510116317824 7.82299778848139926168
O  10.13983509578429398346 29.86414238668903919915 8.40993441701172095293
O  10.14033291774181932965 34.74614236161573899153 8.40993302487639837750
O  12.80530594849260239698 34.47887105143738040169 8.40997486605134447757
O  12.80486219430417094145 30.13087076814658971102 8.40997586920164863500
O  11.70261342004863003297 27.68998304050693448630 8.41295918347276661109
O  14.36808378107475192564 32.30471149223169646802 8.41299971568486171236
O  11.54880548812298179939 29.23099828448864911934 6.16695650666549965990
O  11.54943238840217212271 35.37899793795067182600 6.16695476930828156981
O  14.21327587687590110477 33.84572641655209679357 6.16699683892669181517
O  14.21296158612867088777 30.76372666253911702938 6.16699763779261189711
Si 11.54972064769683193219 38.45899842622091568956 7.82295360398130590340
Si 14.21487735270597241310 39.99572666913098117902 7.82299441719545107787
O  10.14077630302686117147 39.09414231101466441487 8.40993137398747947486
O  12.80580347124289453120 39.36087061661078223551 8.40997276837670781902
O  11.70355457181830871605 36.91998298802185729528 8.41295662351615192165
O  14.36902552277850730889 41.53471116368196902613 8.41299609808593373828
O  11.54974665503179132031 38.46099771384752585845 6.16695359158291545043
O  14.21390301473060446824 39.99372599858160981512 6.16699440298345713529
Si 16.87746540577261100680 26.15045547191316188673 7.82304011269814392193
O  15.46839169419951609541 25.51559922676835512334 8.41001837532870055725
O  18.13336403785138628564 25.24832713142318851851 8.41005975796315752291
O  16.87749084834041823910 26.14845510249050164475 6.16704011688179143391
Si 16.87777917975474295531 29.22845537999370435500 7.82303949838882228818
Si 16.87840643969279241787 35.38045517266066042339 7.82303765742960610652
Si 19.54224972090989709272 33.84318364536584056168 7.82307937062679137341
Si 19.54193595581471498690 30.76518361156834302506 7.82308029868515042438
O  15.46883484580904521977 29.86359916688615712133 8.41001740651918083813
O  15.46933270764181855839 34.74559916249406654742 8.41001606020168246403
O  18.13430546004221710632 34.47832755789597314333 8.41005751339750418083
O  18.13386196404961481221 30.13032742025930943441 8.41005880836999253347
O  17.03161312990711451221 27.68943984472288377674 8.41304221335626323253
O  19.69708317888918713834 32.30416803050592022828 8.41308242827230223781
O  16.87780510985970039428 29.23045500298840693176 6.16703947519737560867
O  16.87843199595472043484 35.37845467326253157125 6.16703764131705334250
O  19.54227535377816593609 33.84518329102121469987 6.16707944011749997770
O  19.54196102633184750630 30.76318307822754505310 6.16708038148183135263
Si 16.87872044062187626423 38.45845523033994339812 7.82303645745738140960
O  15.46977615139987349835 39.09359903650461376401 8.41001440097294050702
O  18.13480302806413035910 39.36032777424379958120 8.41005555221795120246
O  17.03255430769780787159 36.91943977604397986170 8.41303947742974500557
O  16.87874623616767166823 38.46045460951032879393 6.16703646051380349746
O  20.79783431272987570537 29.86305527326994280202 8.41010005688318607042
O  20.79833215692391235052 34.74505622561441242624 8.41009857892587042727
H  4.07465742966853561313 24.98677204229430515170 8.03659115491797670927
H  1.41040896956913286431 29.60201496894488215617 8.03674925646631344023
H  1.41040904226228569485 35.00798498174885509115 8.03674927981014164402
H  4.07465743662817381221 39.62322797228596726882 8.03659115996670259108
H  8.94818089240392211536 22.17325476607896206360 8.03830170515271902332
H  8.94818094394596563745 42.43674513472838327743 8.03830170253215392506
H  14.27776169762795888118 22.17320385269507454495 8.03828218825586482410
H  14.27776172924953002052 42.43679616355269246242 8.03828219207331251539
H  18.96055650113633817000 24.87622790070065548207 8.03640580115476410583
H  18.96055653433511523076 39.73377222703155098316 8.03640577802552158460
H  21.62471720642771799703 29.49141990681909319960 8.03658340193312525912
H  21.62471721060063245545 35.11858010968664700613 8.03658340166517248804
H  13.43954241645749903000 34.27033907749161301126 5.76911862840216649317
H  10.79702477691085249489 34.91824969914416243455 5.76839603389711363945
H  8.90770700519886737823 32.96594596342111316289 5.76499475609025946454
H  9.65945432671793113855 30.34299409101988231896 5.76888004997170344978
H  12.30259135924059421541 29.68912269953958826818 5.76803922525069889815
H  14.18560353659185935271 31.64418153944215816864 5.76552258693663866040
H  13.46208429049242738529 39.53603768253091743645 5.76468154414389388762
H  10.78553467791653375230 38.90473306566881461777 5.77122838900861623301
H  8.14831461376186894086 39.50994490625892296976 5.76699955043662271237
H  6.23317386256655847632 37.58286575783589711364 5.76180503609029237566
H  5.45415702013639069889 34.93908511451761000899 5.77152547630265821965
H  3.60566386736477628716 32.96814933290939109156 5.76410508772358731733
H  4.32812544151872469200 30.34544671593286935263 5.76331957709621889308
H  6.21212642376297630165 28.34933201851297823737 5.76816829118088136852
H  7.00946743390299165100 25.75759721933824408779 5.76754704197418721634
H  9.64012206828227924404 25.06582758257795973122 5.76488469700773276116
H  12.31500792591240767138 25.70853944786059486205 5.77192568458840327139
H  14.95343798992633033151 25.09203406429537963618 5.76610003216912936352
H  16.85241664091608271292 27.02653749503202718074 5.76116217476013225962
H  17.64630213704171879385 29.66655897891690685242 5.77122747476961528434
H  19.48194554574570958039 31.64158903464976901887 5.76482831317814081729
H  18.77355783046661130697 34.27390173268077688817 5.76498788578134657712
H  16.88031299267366946992 36.26100719992430043703 5.76894103293259341569
H  16.09309773605913207462 38.86024083648046456574 5.76722976377283291782
P  9.27309375292394477697 29.18022176035821146911 15.44499006503630411657
O  11.35175287960924705999 32.00619219508385526751 13.22686879004925586401
O  11.56546820484363280457 32.22384440067718713863 9.71522724513468460827
O  9.90511577118998687297 33.68070093018187094458 11.18484785841191531119
O  8.98606277948188392202 30.66670521008094851823 14.69466986658742158056
O  10.40921690058627646636 28.52826578340091856489 14.75526359635871642695
O  7.87363668686890783022 28.40321708577512893612 14.98544005990272687256
O  16.83804054742330791328 28.08332454278365020173 11.82725525586361925434
O  9.18525186474117205648 29.42413571930973148483 16.90350487405141777231
N  12.98572470136385703654 30.60888802790170970525 12.23228882866157540832
N  13.83945151756774194496 28.59722130604429324308 12.66205989717367685898
N  14.91576281501627576631 31.68423893460877849293 11.25011927842538383970
N  16.74600499588034452358 30.22506547803645915451 11.10833288879443259134
N  16.91744913402499861377 32.44110495362965451704 10.41146237513016004073
C  11.11761718043086766272 31.60886699396047916366 10.88599862581124000371
C  9.85558782504116059897 32.29596792206179856066 11.44998169291864797970
C  12.11094410238984941941 31.74214545181340696445 12.07516014267082127276
C  9.95031857348838499888 31.98789865778215002479 12.94456274307496279619
C  9.24086922481098227422 30.68309242197944541886 13.33182599202120321991
C  14.27157819511189984496 30.62579976657586300348 11.79070838520917696712
C  12.78728354309121151289 29.34889696086929333774 12.75455925134802726006
C  14.79989694833489899395 29.35962568575588349518 12.05146861393641799509
C  16.15466723105321733556 29.07796454561541565909 11.69046856994302352462
C  16.14124553044933207957 31.42926065231218402118 10.90505993508601711994
H  10.93458546782473739256 30.55398689097314601781 10.67049989613208893502
H  8.94350887904397851003 31.93518389986516226031 10.97862005170507160301
H  12.79634603858319330527 32.58510028001943936715 11.88105016620458442844
H  9.51515602526401771399 32.78805525234131579282 13.55526987141686667826
H  9.85393386230604129139 29.81679499271625033430 13.06536761713806171770
H  8.29309809313540746700 30.62908329151300179660 12.77492420517621241061
H  11.18830643047187400896 33.11809591006511510614 9.70696121939489131591
H  10.61720422791685791708 34.06227235709811651532 11.71373368268144510296
H  11.88987677622513672304 29.04768328026762702621 13.26563253847618639725
H  17.68082522807389267427 30.08173770429752380551 10.74838138644970797486
H  17.70775282669373140720 32.17629534626021836630 9.84691433770674606762
H  16.38868025677275497287 33.22607325632073838051 10.06553496321349072673
H  7.26298936216245305530 28.68332348458821101644 15.66173486187390651025
