163
Coordinates from ORCA-job gmp_frame16
  Si          3.77454868659166     34.07021311993250      8.12643119182479
  Si          3.90969000643579     31.12678949847960      8.78820540625484
  O           2.53006003643538     35.00327169503943      8.58090900576325
  O           2.79449618833774     30.51936132917049      9.79672753628052
  O           3.86447440149317     32.72574399476562      9.03417958915557
  O           3.72358914335442     33.65216561784698      6.54518671090658
  O           3.57989685053131     30.86226206790575      7.20459372799407
  Si          6.41365013842010     26.50624357887538      9.11654670342670
  Si          9.12418076392877     25.17488096670252      8.89502008080846
  O           5.17715618312470     25.90884020294023      9.97479955203019
  O           7.82969541835786     25.86399301947607      9.58456970541413
  O           9.51764888705502     23.80744086433938      9.67400606746428
  O           6.22692322245339     26.27809867806645      7.50375095246634
  O           8.73284273624920     24.95381563959145      7.31838219311510
  Si          6.37525330361987     29.43013644246335      8.47958433065237
  Si          6.40179625347076     35.34535497796060      7.49113948871580
  Si          9.00653095707368     33.71787678418124      7.50611965598156
  Si          9.14086896192139     30.71545415121382      7.74689679167131
  O           5.39198998868576     30.54384459747633      9.12455542440640
  O           5.08681201051892     34.99375944048490      8.36777804053530
  O           7.56544738420732     34.31050793962797      7.92160512401944
  O           7.86614594874722     30.02835730763022      8.43646969663376
  O           6.38513246476713     28.10328287459369      9.40310035289444
  O           9.16633038991115     32.27053171605619      8.20188381965773
  O           5.80907638540764     29.09274743524845      6.98323169946055
  O           6.07904939806707     35.29196180453327      5.89285254765491
  O           9.18570847517679     33.60978986962237      5.88466379307869
  O           9.06850592968748     30.64575134484137      6.11786066516321
  Si          6.69805204772638     38.26378071205011      7.04020193460105
  Si          9.12770491552848     40.07455580313439      7.04335488347965
  O           5.18109565379805     38.73018697812411      7.37544265662469
  O           7.77622040445761     39.34740608082561      7.57640454412402
  O           6.90537595577034     36.85152175512257      7.81385893095660
  O           9.10116109195733     41.66444157169501      7.34820830286333
  O           7.00685656054436     38.11025471107397      5.43943476393945
  O           9.34039812717333     39.73769988284863      5.45566530364526
  Si         11.72774318404838     26.40280864908136      8.09492991990889
  Si         14.21864555144670     24.77704719056331      7.89282747628390
  O          10.42221001518731     26.14374074373385      9.01505543024335
  O          12.97660628533414     25.52076446269619      8.62855913509939
  O          14.17746638095576     23.25863999025393      8.45342952509917
  O          11.32416936891959     25.97236967829217      6.57066095213429
  O          13.98756495462176     24.85947511431649      6.27368636697504
  Si         11.87010908143489     29.45321186699570      7.66462977267895
  Si         11.41997660309296     35.50844140701303      7.41848746355693
  Si         14.14644993669269     34.24311387173774      7.47620246236215
  Si         14.28355784738429     31.23936491167163      7.47560768277839
  O          10.46816195277568     29.96634510196661      8.29650929626960
  O          10.14567071227343     34.73476122188028      8.04482635360234
  O          12.79780537672035     34.93129822168689      8.04555275259740
  O          13.09125861407482     30.38597095532758      8.16486812938543
  O          12.13932986954889     27.95929477609399      8.20035749020548
  O          14.30955960622150     32.74320277240172      8.06371565505121
  O          11.72982904053153     29.50673010430357      6.03727482935128
  O          11.47689310021991     35.31549264744366      5.79625981021653
  O          14.09626405172016     34.14393197554969      5.84526610150889
  O          14.01639293079537     31.24398268721722      5.86328163484048
  Si         11.67745391726672     38.58793020118151      7.46039386853095
  Si         14.29993460944613     39.93316184628997      8.05178070538336
  O          10.41935051840251     39.52519271080764      7.86145286616973
  O          12.98190819747794     39.01588655252955      8.31654265832029
  O          11.29944379972647     37.06277267697013      7.81989217548451
  O          14.16233336086308     41.38226641873793      8.76551242271906
  O          12.06780580802086     38.77742355959986      5.88414519606278
  O          14.57104437066473     40.03034584158510      6.43849408976606
  Si         16.68073449711957     26.49313422714357      7.55671431833016
  O          15.61466285662567     25.51178198281241      8.27412930821926
  O          18.13581030163845     25.96205671053901      8.03850604744403
  O          16.43294949386859     26.35781387145897      5.94146677715384
  Si         16.83886341646800     29.48987070160499      7.44100481904441
  Si         16.91359707874755     35.62787221319790      7.82404836052373
  Si         19.34286506128438     33.88736160415741      8.01831986543788
  Si         19.47757954916724     30.88245176328894      7.67640407017975
  O          15.68665790019379     30.54264952650161      7.84089080102324
  O          15.39736632169887     35.11246416540161      7.99161909206977
  O          17.90872794098294     34.51298858988142      8.44940662829173
  O          18.21678262855010     29.97548770156952      8.14529614637860
  O          16.42249563706237     28.03409832902283      8.00185227330072
  O          19.42372369777424     32.32084129397055      8.43822366633423
  O          17.02520288289252     29.34029197576131      5.82753541965447
  O          17.33202625105201     35.82688901974104      6.25703909227781
  O          19.50924603961240     33.92701964135272      6.38825948887962
  O          19.37641163300816     31.11483862007788      6.06148264335371
  Si         16.99808091782651     38.59053858398627      8.22449471771133
  O          15.60094595781639     39.24971120913597      8.73055553151168
  O          18.27093500984048     39.25767279038952      8.97176600579735
  O          17.05821573407325     37.02171853585728      8.63596038652299
  O          17.08568362588277     38.69874308543844      6.59212202618808
  O          20.77979011461936     30.02725346168851      8.11904772480459
  O          20.46147114933599     34.74487066060607      8.82003797170690
  H           5.06955517713634     24.95400097457616     10.00038772249556
  H           2.72745230556837     29.56309976464664      9.87280639689756
  H           1.64519637688563     34.63255261662421      8.51573935473876
  H           4.85563050799537     39.53790538251857      6.96757974162645
  H           8.82985559243773     23.14824853277928      9.80552041116092
  H           8.39522686268067     42.18865618136491      6.95910909736952
  H          14.85380787697744     22.64714453703936      8.14859545264680
  H          13.38818264910105     41.91381250001128      8.55672574881820
  H          18.91200864972388     26.46780385353384      7.78040903571072
  H          18.39878387424126     40.20650064151988      8.88177089005062
  H          21.64883386717424     30.39926353361339      7.94176123553811
  H          21.37388972064867     34.44381233649678      8.78625291624496
  H          13.30679143110432     34.54768836612431      5.44931713617174
  H          10.77373288132703     34.75008048296151      5.43745191814830
  H           9.11095128129268     32.71711291638841      5.51848619064776
  H           9.84987354746755     30.23881127145271      5.70994207374810
  H          12.41094360040308     30.03682816792191      5.59298776747723
  H          14.02329350757716     32.12427328312964      5.45653509607693
  H          13.84272432196188     39.70069514527854      5.88752134172424
  H          11.32392910780098     39.01931474078252      5.31052234355483
  H           8.67181283391056     39.14219782994089      5.08327204679855
  H           6.69680951182199     37.29203604624034      5.03077856034758
  H           5.35808316793574     34.69690126961816      5.64088503979973
  H           3.65623322510310     32.69573745657032      6.39020340009629
  H           4.15134507368564     30.19926507106350      6.78480937281408
  H           5.86051683516646     28.15545357257839      6.73815492063374
  H           6.97205883857447     25.81631045679877      7.08405262849190
  H           9.45958247917319     25.10961646554470      6.69733462423220
  H          12.06149982824403     25.62148667259325      6.04691384205453
  H          14.68060690118462     25.34280504977928      5.79607609964501
  H          16.57588231787616     27.16548472530884      5.43027531886119
  H          17.69933022952795     29.91542571268850      5.43726951661604
  H          19.37811147285648     32.04908119403447      5.79582388631767
  H          18.97789407900104     34.60596483783271      5.94579720369465
  H          17.29561977100598     36.74453912629749      5.94774352285829
  H          16.32249522334931     39.14410642981348      6.18651634025688
  P           8.51604403582251     27.69033014639898     13.50046761068513
  O          10.87473833079103     30.90023899791234     13.25848214417448
  O          11.74924556245004     32.79350096012509     10.38576330690645
  O           9.86880535675347     33.64177394244373     12.12918170646860
  O           8.55190294813784     29.30731148383985     13.61831685787922
  O           9.58089756901249     27.23145621506887     12.56424842399002
  O           7.11372705419373     27.40603690571917     12.73826651530496
  O          16.31053064488901     27.46162181566535     11.19796689838405
  O           8.44900798078939     27.20292105663871     14.90366306436523
  N          12.67137235709406     30.11698189133860     12.01195010553127
  N          13.31967601566738     27.99189245578678     11.81061597543045
  N          14.72912391328891     31.26087291081606     11.45332535646127
  N          16.46148047683203     29.72589775114291     11.03138804558007
  N          16.83307787186530     32.00461696930053     10.88943079309315
  C          11.06489741714879     31.80671898283446     11.09047989029779
  C           9.75679309052823     32.29444910503910     11.71439928190478
  C          11.83358001237727     31.26564546066475     12.30362442164766
  C           9.55762213242318     31.31190664044069     12.85361598915808
  C           8.71758039429049     30.11454564369730     12.46946816008882
  C          13.98983018446293     30.15690947889080     11.65822475236897
  C          12.31851822209613     28.78810101409091     12.07590380739106
  C          14.37900230444919     28.82978475561663     11.54543961185597
  C          15.74198411282167     28.54387666317064     11.25503882397388
  C          15.97119239263343     30.99550331540761     11.12056971757363
  H          10.85747167576022     30.97776879417492     10.41227168247596
  H           8.93771185281827     32.26766333684660     10.99593239001910
  H          12.50199845415839     32.03999652032905     12.69410817492510
  H           9.09524680350637     31.80434532921377     13.71398638757940
  H           9.19896800594661     29.54867762657370     11.66508986131563
  H           7.74067748144633     30.46130748010148     12.11444899329466
  H          11.46859135658888     33.64356131609456     10.75329765192155
  H          10.37435909644084     33.69043933411737     12.94860748498907
  H          11.31749763437940     28.46528136844978     12.33384218606258
  H          17.43972306615929     29.59756462698886     10.80791892279985
  H          17.68716904905133     31.82814715826029     10.38631604042388
  H          16.42518957943459     32.91630099581739     10.76509689600473
  H           6.36034749078413     27.56078174658006     13.32009716392232
