163
41 Eopt=-411.1456198182 (Eh) Einter=23.219494 (kcal/mol)
Si 3.55619763364949736939 33.84476438752783877817 7.82276356520043769649
Si 3.55590020138933748939 30.76676464373951347397 7.82284080425835881556
O  2.14725468928950213865 34.47991510854996732860 8.40973850967112745991
O  2.14683493983094386692 30.13191591150544468292 8.40984764130866757625
O  3.71004511995407426639 32.30576446282717739678 8.41280326854178994722
O  3.55520839971362700993 33.84672285105892797219 6.16676352314210163286
O  3.55491063441884946883 30.76472336343999813835 6.16684084156699263701
Si 6.21945436091395187361 26.15150720506066051030 7.82297308157779713866
Si 8.88330595075854567710 24.61424971710520637203 7.82302827334208661370
O  4.81038912301831356189 25.51665837090710908797 8.40997994576689400503
O  7.47536352390268632462 25.24940041131715418032 8.41000351753342556549
O  9.03815422656990818950 23.07524947495465994507 8.41306749472250459121
O  6.21946467122459800692 26.14946602953574839034 6.16697313188645335202
O  8.88331682560952451411 24.61620855315681666298 6.16702822455146471015
Si 6.21975164893351450957 29.22950713438449810155 7.82289629594905289167
Si 6.22034606034393444673 35.38150694238213844756 7.82274214661307532026
Si 8.88419749391500879199 33.84424961064076597950 7.82279783624890256988
Si 8.88390007933129410844 30.76624969362180195276 7.82287493803025579808
O  4.81080926824687349352 29.86465800434472939173 8.40987141373751789786
O  4.81128092692659503626 34.74665785953084196080 8.40974902290973425067
O  7.47625510413570015800 34.47940034822094190758 8.40977288582231530256
O  7.47583501009123718717 30.13140043746934892965 8.40988179727326290447
O  6.37359925343357502925 27.69050701003605041706 8.41293572192701510915
O  9.03904502020417588426 32.30524947110087197188 8.41283744516965192872
O  6.21976243051789356997 29.23146574678557740867 6.16689624719296958233
O  6.22035654086607170399 35.37946534027793177302 6.16674219942642665160
O  8.88420829537479228577 33.84620807331188530043 6.16679780118792209009
O  8.88391050902629153541 30.76420830476042667101 6.16687499345168088638
Si 6.22064342937722614124 38.45950675824239795020 7.82266469570779054976
Si 8.88479196068415433274 39.99624949846755583849 7.82264305152433259138
O  4.81170078706694770432 39.09465713688432941808 8.40963963092814559275
O  7.47672682140561217778 39.36140026756965681898 8.40965003247158904287
O  6.37449096691858141384 36.92050681618392360406 8.41270448564241135614
O  9.03993734323139541686 41.53524934030543391827 8.41260523431678208794
O  6.22065423081966706320 38.46146494249572356239 6.16666464607171516121
O  8.88480247300063297189 39.99420773059157596663 6.16664310188967235149
Si 11.54845425335569153447 26.15099231043680205744 7.82300716932754447441
Si 14.21330583571091743522 24.61373476700824625141 7.82306269787409203076
O  10.13938923346681164617 25.51614299979130606744 8.41001391988970503633
O  12.80436342455793408135 25.24888571858675234694 8.41003765703223749028
O  14.36715413714399680600 23.07473489420517509529 8.41310175908383328647
O  11.54846468375055401623 26.14895111408655381524 6.16700718903024913686
O  14.21231682810087093571 24.61569390445816907231 6.16706245435240596464
Si 11.54875144819666843432 29.22899227969106661362 7.82293037512092581665
Al 11.54934590544776007448 35.38099222381322306319 7.82277639367075572352
Si 14.21419719507148116122 33.84373470257625626800 7.82283175553913245892
Si 14.21389968516376001162 30.76573493013582805133 7.82290889321896454334
O  10.13980915816667405238 29.86414307975260840067 8.40990554966025705141
O  10.14028082576462352904 34.74614302633350604310 8.40978325092074641134
O  12.80525495803596669475 34.47888561242669425155 8.40980702456663919975
O  12.80483508335502840225 30.13088546700864611694 8.40991602566332296931
O  11.70259910149633952869 27.68999211518916325758 8.41296980489168078066
O  14.36804498092840809420 32.30473477142269445039 8.41287157454217116026
O  11.54876230602667419589 29.23095089773100951902 6.16693037744411576284
O  11.54935627602778502876 35.37895056308408214818 6.16677636208719714972
O  14.21320801575805070627 33.84569331732785002487 6.16683188749254185268
O  14.21291023935803821132 30.76369350385868273179 6.16690910465195507584
Si 11.54964334756921751080 38.45899207187099477778 7.82269886891083299219
Si 14.21479182911931360422 39.99573458077573206992 7.82267712881126975333
O  10.14070098599645497472 39.09414296917860554004 8.40967387386652553971
O  12.80572673607341194213 39.36088551891904785407 8.40968415925243384379
O  11.70349086022409323959 36.91999208257572462344 8.41273860845173615530
O  14.36893722489593905323 41.53473456856773537993 8.41263927683743162333
O  11.54965410705954198534 38.46095034771077791902 6.16669881861443247573
O  14.21380227317096256456 39.99369288616928486135 6.16667717805901105521
Si 16.87745388928439993492 26.15047748055771137388 7.82304138869477050378
O  15.46838893665207415040 25.51562861909760471235 8.41004812098049825408
O  18.13336275494087601601 25.24837057410066165630 8.41007175807330042971
O  16.87746416323736298182 26.14843626040414648060 6.16704135342486736704
Si 16.87775116885482873386 29.22847757807883439796 7.82296434116616712373
Si 16.87834574443277801947 35.38047756177264346888 7.82281018245778181353
Si 19.54219718334667277304 33.84322024343278201286 7.82286556314282055524
Si 19.54189976566459563401 30.76521990510272530628 7.82294278170953827356
O  15.46880892083386171976 29.86362819336106966261 8.40993969250668982340
O  15.46928065347374747773 34.74562828960669236267 8.40981729027979341140
O  18.13425457946965480005 34.47837060677716181090 8.40984080895394470190
O  18.13383451600586937502 30.13037093602994076491 8.40994987084336287353
O  17.03159897575005743420 27.68947740206411367581 8.41300384932806011307
O  19.69704437363586180254 32.30421988462843074785 8.41290520492276350240
O  16.87776192834439115131 29.23043613043023469800 6.16696440701275339080
O  16.87835594270605099609 35.37843575061788214953 6.16681025567617968619
O  19.54220746129577435113 33.84517858042855209533 6.16686553955056471210
O  19.54190966734743639677 30.76317847853631803900 6.16694279693838609546
Si 16.87864312482800244197 38.45847737307114755367 7.82273276750375590183
O  15.46970084519827715042 39.09362819201656691348 8.40970792219186868977
O  18.13472631345608476749 39.36037116674752667222 8.40971797394844955420
O  17.03249065402698292360 36.91947734862952756885 8.41277248582988335102
O  16.87865370840005851960 38.46043574280145804778 6.16673271693540758775
O  20.79780831209312452756 29.86311289573122351726 8.40997323274541663807
O  20.79828006328847322948 34.74511391228113410534 8.40985082707553566195
H  4.07465742947724685052 24.98677204220796355116 8.03659115490516917646
H  1.41040896945944105312 29.60201496960199918362 8.03674925682119933867
H  1.41040907264887316330 35.00798495706787605286 8.03674929217241107438
H  4.07465743686354553432 39.62322797150482500683 8.03659115980679317204
H  8.94818084748979991616 22.17325470651930174881 8.03830168945227896415
H  8.94818087915147586386 42.43674530213535689427 8.03830168082384055595
H  14.27776167753567371221 22.17320384953200829159 8.03828219933276599818
H  14.27776172697335255179 42.43679615649364222918 8.03828219380507036362
H  18.96055658398610788140 24.87622777869145451746 8.03640578280176676174
H  18.96055653330970613979 39.73377222817011755751 8.03640577837908764991
H  21.62471723061923256637 29.49141993373772407949 8.03658341191220237931
H  21.62471722730721523931 35.11858007409070125959 8.03658341010442356378
H  13.39922795274789280029 34.28531246722602077170 5.85463176557322118043
H  10.85603170626048807890 34.89218233039314043253 5.71721595831053086556
H  8.79316677986241401754 32.97374190339422739271 5.76219940704057531633
H  9.66357961574778023817 30.35160700894340024547 5.76895568212382947593
H  12.30629750016656309697 29.68608883509737950135 5.77123880326514626660
H  14.17430145208014025116 31.65300279531841454173 5.78286316861379301457
H  13.45700859401555327111 39.52750483000831849267 5.78093078815762062561
H  10.82185198507522905231 38.95872177509734513023 5.76976940794291692782
H  8.14980839581163252205 39.50861002845801550620 5.76627385360508881718
H  6.23194667490966480727 37.58116492090096016909 5.76471310404837833374
H  5.44704955136638879765 34.95093754243495709488 5.77257540969537075171
H  3.60664936758015475249 32.96826992893192453948 5.76388710861650110928
H  4.32819223232655314604 30.34484056262073536914 5.76402041613524307451
H  6.20754699176927982052 28.34935900036066058760 5.76818373916203341878
H  7.00943285661475812276 25.75772182331179394055 5.76748914511278609751
H  9.64047060951403800289 25.06526887726871422046 5.76511829277529574966
H  12.31477063490970458304 25.70825778158604890677 5.77188275842645204250
H  14.95393929006679023530 25.09100721658297317163 5.76597661935760896768
H  16.85170392206076073194 27.02666098761990554067 5.76146799763514927406
H  17.64768340943968993884 29.66420704390871065925 5.77142433308132574155
H  19.48180901229006423137 31.64168671129526799746 5.76490010388540419228
H  18.77140969216245736106 34.27358368685342071558 5.76790924505575652859
H  16.89481963973159395209 36.26079390007514291483 5.76914703616454627166
H  16.09152697013755073385 38.86028470013369684466 5.76951241488523347556
P  16.85874533896578597592 32.03140320812927654970 10.07057024141797008099
O  14.96588622558283177000 28.40490185296046021790 10.43631720208799329441
O  14.32345784751011663616 26.48088263734457825649 13.29300335193368809428
O  12.55026944197246052681 27.94212918185007765715 11.98203019309460870545
O  15.32961299917650066504 31.50064562998779393865 10.57630298550000880198
O  17.82186997774742209799 31.19665397958004149359 10.83865408772843608176
O  16.79107057050689633115 33.50665746626128083108 10.77045615167953229729
O  20.73250836776124828020 24.67444836031677368737 11.08017516505991473252
O  16.86880612821098424092 32.22009643953374080638 8.60060467276913698242
N  16.83542463246480025418 27.16951858697044741575 11.24387628426971730278
N  19.05051974565504480097 27.36195189171463226785 11.17307427152775645141
N  16.61687072163008949133 24.76653768383886955462 11.23277201244738066066
N  18.69938702195926794047 23.70143537638485753405 11.14283826022342083206
N  16.70997532106304461763 22.47245787337892153346 10.99591374270331378682
C  14.82884822624887100062 27.62803122954058565597 12.67326940155639292129
C  13.71566541600177124849 28.65324687011411342041 12.35822215473444884992
C  15.40017447104532344326 27.37091471018760202583 11.24860466817767168379
C  14.32376581775706902988 29.43099260274806638904 11.19588591058906068554
C  15.24174127776632303721 30.59628880980407572565 11.60835630057734135789
C  17.33454726318056771106 25.91327783571530574136 11.23454385713124281665
C  17.92300894946455258605 28.01087602006578336500 11.17427411829736350057
C  18.72962515233705715900 26.03220045123853410018 11.20841342977931809344
C  19.52679330624279785411 24.85343108882672069626 11.14138924833117449964
C  17.33541918767370049181 23.69892150691240928495 11.14450054880737184249
H  15.59665387875764608339 28.05435219802972568459 13.32380111416398449364
H  13.45619062291961576250 29.26906813478811031359 13.22198633785994914547
H  15.00381092404741245616 26.41646473395149286034 10.86182020618301713455
H  13.56579233153508567966 29.86146864590886451651 10.53755027691465784301
H  16.24798480012024270991 30.24714582606834767375 11.87143123759198104494
H  14.79193630503415946009 31.08643808781908290939 12.49055739395132924585
H  13.42842599852346197054 26.37581079324827015853 12.92534723712435962284
H  12.51076163951083053405 27.91444855735628038929 11.01623611730852658752
H  17.86028475831708917099 29.08599820938774271895 11.07392828399616924173
H  19.19185134702780004545 22.82512903347103261353 11.02482544033745348599
H  17.05046030650235522330 21.73301805999248159651 11.59327201009738317339
H  15.70732822680686169292 22.59301218436439029347 11.02180872139768652573
H  16.29629149786305220005 34.02954350412097994649 10.14176889068358988766
