163
Coordinates from ORCA-job /data/Seafile/amp/al_surf/protonated_al_surf/frames/frame12/amp_al_frame12 E -13418.103614288733
  Si          3.45243822118366     33.84170911441112      7.83788947034308
  Si          3.47713037742365     30.74147302751819      7.82624123224748
  O           2.19124520775789     34.64292135858035      8.48091867341306
  O           2.21749702708688     29.93146328622092      8.46656074172921
  O           3.46610376918913     32.28974258407443      8.36047191660683
  O           3.44619523926981     33.85356431254780      6.19877127718118
  O           3.43470182714141     30.81720177110515      6.19146176081636
  Si          6.15875344361354     26.08763102887236      7.80487911202026
  Si          8.85300659460446     24.53482404597798      7.79597908441142
  O           4.86089571409491     25.36171359607409      8.46519378042540
  O           7.51858730731786     25.33400968944090      8.31167526311458
  O           8.81998138174933     23.04432312096484      8.45240842244306
  O           6.11671233124161     26.10643009293834      6.16758597024867
  O           8.80587643016809     24.50786530720105      6.16127537437025
  Si          6.12648721126789     29.17105975721293      7.69286470079176
  Si          6.10762722417311     35.40116013811387      7.71470231023425
  Si          8.85532290268593     33.84088618940365      7.70712752093400
  Si          8.86450071694206     30.75741279090367      7.64498913213723
  O           4.86782429674534     30.01307325758967      8.30683294983874
  O           4.81739622520990     34.60577848215466      8.32444555282226
  O           7.46345178049169     34.61087344115144      8.12596705438307
  O           7.51014689435725     29.95030191304440      8.05315370864474
  O           6.18412110867232     27.65515786160920      8.29521050974297
  O           8.76928237931872     32.27264450485129      8.23158239701858
  O           5.88872084771182     29.10852452947963      6.07514037632665
  O           5.93916218603056     35.50875182451854      6.08637690142610
  O           8.96104237394471     33.79228023206861      6.06800904294057
  O           8.99806564873364     30.86296289036249      6.01588606499797
  Si          6.13434071421065     38.49246331935930      7.69775011626141
  Si          8.86009040635772     40.10649337060987      7.69256390761860
  O           4.95239709638650     39.38479162928918      8.38680592367646
  O           7.55704769545830     39.20598009898215      8.09224154230832
  O           6.17115651810725     36.94474253533800      8.25886569676064
  O           8.59485214879616     41.58240453151321      8.33520352178146
  O           5.96034414851828     38.44576936266152      6.07674199491527
  O           9.09838139721601     40.12768014200405      6.07197359972283
  Si         11.52658670448857     26.08015249501306      7.68462165915946
  Si         14.19380016719834     24.52978742554723      7.78429549166297
  O          10.18460278151954     25.36532691651233      8.28264940544836
  O          12.88081854043406     25.38754123041011      8.27399076234182
  O          14.00587434160378     23.03420519922018      8.39753605668484
  O          11.46936604786710     25.88211808610391      6.06140535185505
  O          14.20681575280493     24.52826282829152      6.14667760325553
  Si         11.54439300061129     29.24215174026029      7.66931633051366
  Al         11.60501694867655     35.38042593408750      7.79545952590357
  Si         14.26049858513510     33.80778069336924      7.84712520933152
  Si         14.20701343428276     30.75584395208129      7.75346649026464
  O          10.17931153982758     29.96020706488581      8.21934834249392
  O          10.10899041817206     34.61625327726777      8.32681937664456
  O          13.05235320462384     34.63668897197635      8.49640447109559
  O          12.87929656734434     29.95183727361238      8.29648744753294
  O          11.50301306921329     27.66501767553446      8.07431181980074
  O          14.32899188254138     32.24572843475234      8.40016619849158
  O          11.55761328016519     29.42359845160479      6.04332723057174
  O          11.80592307591917     35.12929887904743      6.06026358546895
  O          14.05585753749134     33.69369669666796      6.21809515821789
  O          14.04101932835457     30.89401818275410      6.12945052687505
  Si         11.59512261684645     38.64861113198417      7.74494674641208
  Si         14.33392093870959     40.07990144485424      7.81642745116270
  O          10.24092628510298     39.43346754093044      8.25807301337816
  O          12.94241004900788     39.38910400371682      8.33800677660034
  O          11.54907172688569     37.11176995569966      8.21915728753867
  O          14.53612730912252     41.58117336548317      8.41778989902327
  O          11.69824926454172     38.80934402708607      6.11152620545101
  O          14.35144481750418     40.04488382611244      6.17824622163503
  Si         16.90652593307724     26.03708289389010      7.81994801588632
  O          15.55150348726992     25.26544832160158      8.32599156628186
  O          18.18975041579284     25.27658186443496      8.47136674050124
  O          16.89099213015898     26.00095119478760      6.18385060390096
  Si         16.91412010938145     29.12343085058450      7.73341296205433
  Si         17.02728826773988     35.34788996597113      7.75059857461420
  Si         19.68232133473567     33.77578217331013      7.80739664447578
  Si         19.57851426051527     30.67137155884296      7.81637847487010
  O          15.52300686924969     29.87239859122212      8.12938311857573
  O          15.71514416447882     34.49632030135933      8.18023828385982
  O          18.35463053427251     34.58374489597809      8.33166309354517
  O          18.18288714638762     29.96546904362863      8.32271176007146
  O          16.86673266727515     27.59954146948358      8.32359855348049
  O          19.63244598725235     32.22298348984788      8.33677869832689
  O          17.06549742713928     28.98326597358413      6.10970999715503
  O          17.20257448149171     35.38566371333199      6.12112466067231
  O          19.65475943120421     33.72922829176121      6.17066657824197
  O          19.56832918158467     30.66027435831507      6.17807490304304
  Si         16.97274152127988     38.44182215550484      7.80642778305798
  O          15.63192690714528     39.21793113102919      8.33705146015140
  O          18.34670520200760     39.07731075510694      8.40793754414154
  O          16.93567465941743     36.87960181591508      8.31456197214809
  O          16.96142844626397     38.43082378564951      6.16801792096152
  O          20.78747585352835     29.77667199812587      8.43715193096449
  O          21.06129970114799     34.41203158574629      8.39655983331711
  H           4.07465743197221     24.98677204080451      8.03659115502603
  H           1.41040897281916     29.60201497189946      8.03674925620901
  H           1.41040901022685     35.00798498418740      8.03674926235524
  H           4.07465744655248     39.62322797318638      8.03659116091954
  H           8.94818084799062     22.17325472868951      8.03830168966151
  H           8.94818087210639     42.43674528814736      8.03830168717402
  H          14.27776169873208     22.17320385146288      8.03828218843369
  H          14.27776172767777     42.43679616500923      8.03828218143458
  H          18.96055658636533     24.87622777282968      8.03640577904969
  H          18.96055653106472     39.73377222675978      8.03640577872009
  H          21.62471721930045     29.49141993548789      8.03658340842005
  H          21.62471723013266     35.11858007200526      8.03658341032591
  H          13.22484507800577     34.17636304519925      5.95890116038618
  H          11.02687026837683     34.75760706137108      5.63382430518832
  H           8.96128900314814     32.89526846616860      5.70371101304747
  H           9.78694990920707     30.42924039073067      5.65530429427205
  H          12.33572310867977     29.90368857024986      5.71352325517847
  H          14.02093230602368     31.83080020057442      5.84952734159646
  H          13.53086343195103     39.69779202021385      5.79363374885717
  H          10.90618409286546     39.18802441527432      5.70298446312200
  H           8.34722978898028     40.29566271968105      5.49589336412518
  H           5.92705155488304     37.54736700738133      5.71562361728240
  H           5.22293137927134     34.96909454005645      5.72200184551130
  H           3.41959303663468     32.97593077300429      5.79207222293174
  H           4.08664818510795     30.25831101773700      5.74516188557704
  H           6.00066098721909     28.23192844203800      5.68158161992771
  H           6.83447587476655     25.62714997429548      5.73331943590128
  H           9.60051062859666     24.85328452827250      5.73024329609159
  H          12.27897492129762     25.53668611432671      5.66132659267125
  H          14.96858274500038     24.97314702591550      5.74992332480240
  H          17.02239367008503     26.86295856042507      5.76297170213352
  H          17.77127771789152     29.51887598646473      5.72049783085313
  H          19.58305716132703     31.53712119741738      5.76959808995950
  H          18.94699057442480     34.25697265519852      5.77145031588136
  H          17.09088725856667     36.25702678427434      5.71731412309107
  H          16.19551801976851     38.86790854355363      5.77020400717411
  P           4.02115229946613     36.66641780260390     12.05552976290411
  O           4.52400611607002     35.27293424835253     11.85867265329877
  O           3.27735411191904     37.35059401296879     10.96316924892460
  O           3.11028853249730     36.74539457729625     13.38381533051550
  O           5.25551048097954     37.60106700441285     12.55540468872280
  C           6.27936935390360     37.89628720281401     11.62339068618810
  C           7.59247090955425     38.01654922911267     12.35925022026283
  O           7.96800838599810     36.75920320556096     12.95024116044942
  C           8.74434472824789     38.41402055940402     11.45975087995044
  O           9.69849678103513     39.14097761455150     12.19757747840256
  C           9.33258741738255     37.06061075088667     11.04082007601722
  O          10.71110400863898     37.12608248267863     10.82276042802452
  C           9.04030414347542     36.19016485659070     12.26839989362018
  N           8.70535053968289     34.80730290813681     11.94225984503058
  C           7.45235877785919     34.26985590232459     11.79664207932529
  N           7.47588883911603     32.98622159301013     11.53210041413621
  C           8.80371711351780     32.67245175535531     11.49520669938745
  C           9.45647370577021     31.45747156435901     11.25715774453102
  N           8.85411548456761     30.30873795790275     11.03855266579946
  N          10.81131041401770     31.55117006710680     11.26862804003672
  C          11.49029891489847     32.70234476470442     11.51930660903190
  N          10.93226445681691     33.84317512139185     11.77168618481595
  C           9.58829438330420     33.79293455468339     11.74461621066770
  H           3.42115900345192     36.13252143683182     14.05982082021388
  H           6.34671107298355     37.12173442899282     10.85203181325926
  H           6.06339453274638     38.84867703956007     11.12728882327498
  H           7.48185648319268     38.73234043764585     13.17734073547029
  H           8.39781331170018     38.98504433396783     10.59367981959505
  H          10.55760063068695     38.91175393255725     11.81212159893231
  H           8.80050877553078     36.67107005997394     10.16883719486265
  H          10.90918996428942     37.12726372323409      9.86513815710986
  H           9.93311753317579     36.14546170183771     12.89984018049543
  H           6.54498007543216     34.85603065657492     11.90320230783344
  H           7.84734290940666     30.27554384142634     11.02829461537618
  H           9.36348065711924     29.46211643852292     10.84116762277825
  H          12.56894405657442     32.60767180864513     11.49626996917117
  H          11.36197092830155     30.71969415931257     11.08971050684336
