162
Coordinates from ORCA-job /data/Seafile/amp/al_surf/frames/frame15/dry/amp_al_frame15_dry E -13417.339409682376
  Si          3.47966474901105     33.89206738427968      7.88679710093070
  Si          3.43653344636721     30.81050726135985      7.93587826852803
  O           2.25293766052022     34.80874796288252      8.45742714018719
  O           2.08569850302283     30.09619630146133      8.51750661541618
  O           3.42108714704705     32.35931856294334      8.45378886287763
  O           3.44900531074670     33.80591939014177      6.24369931399201
  O           3.44154554811201     30.85113165359985      6.28977553694667
  Si          6.10910464428175     26.17680813353713      7.87239040856236
  Si          8.73518285809586     24.55129785837060      7.87139488826858
  O           4.67414984445475     25.62928566313250      8.43001942171652
  O           7.37674544251588     25.29775453156278      8.39768642207950
  O           8.60751355905752     23.00603028595193      8.39490722816087
  O           6.15094296017900     26.16236687581931      6.22408490119437
  O           8.71410335383130     24.64283380043189      6.22547066325344
  Si          6.07031058662718     29.24336729630445      7.80727280299418
  Si          6.12695569623090     35.45971296400899      7.77400235319252
  Si          8.88307843950406     33.89103172082734      7.66010170120082
  Si          8.85005496394345     30.80936307947137      7.67143697517255
  O           4.79782254816395     30.06561674240734      8.43808353686705
  O           4.84862425536105     34.62017634786442      8.36048631405282
  O           7.47361957896477     34.65078465158718      8.09422019831915
  O           7.43827012244298     30.06181769387122      8.01587951406531
  O           6.20270146054766     27.72245547948332      8.37067595306767
  O           8.76371138413295     32.33400061750807      8.21301093652258
  O           5.68032808090562     29.13354942697977      6.20279312787130
  O           5.87582784366678     35.69421361126003      6.15994442022257
  O           8.90153358855760     33.78670537778940      6.01732844598284
  O           9.04829972642717     30.87058456208203      6.04108879596595
  Si          6.18504234992119     38.53374349437475      7.87538127907234
  Si          8.85800113635516     40.08333360173284      7.85844149986357
  O           4.92451453206166     39.41210403272032      8.44965250567882
  O           7.55866256028553     39.24209290476463      8.38850148955286
  O           6.14480696098459     36.97976834169258      8.37670139373100
  O           8.62366104250208     41.61015027366619      8.40991366330119
  O           6.19935412061363     38.54340099606472      6.22879963452406
  O           8.86164529367332     40.01458497113928      6.21047380515522
  Si         11.42130685773435     26.05123090693887      7.80046218949826
  Si         14.06168973113337     24.51262986506456      7.83516184938863
  O          10.06727645415517     25.33360086655535      8.38795667040717
  O          12.76214343419748     25.34535223637088      8.38882311466283
  O          13.73023576981645     22.94934820858013      8.20929864669925
  O          11.35610650606871     25.76631343431299      6.17841703712253
  O          14.10401667986664     24.74011772564997      6.20249862824870
  Si         11.46907968213849     29.23874709533037      7.74989903688595
  Al         11.66847777769684     35.42914870777842      7.77153583829789
  Si         14.26521391413169     33.75854749089382      7.85469424979440
  Si         14.16046943568949     30.69684377824077      7.80162838950199
  O          10.08941647575669     29.93918843196427      8.28289508279709
  O          10.12704412062318     34.69388869466578      8.21772389632102
  O          13.08577142093496     34.64005589172489      8.47013422788206
  O          12.79496310507738     29.93935851249380      8.37222090293180
  O          11.39975669618219     27.64375815427967      8.11588001366456
  O          14.32648946220891     32.20248033220694      8.41381725757985
  O          11.50187161968355     29.44845744019815      6.11970641385980
  O          11.88530573773312     35.14004402151497      6.03437690044047
  O          14.06033145291945     33.61375831483056      6.22312960384533
  O          13.88552179896373     30.86494595994786      6.18136084488665
  Si         11.64497299628907     38.71357556128088      7.80970057732232
  Si         14.39519030846538     40.08616631196836      7.88009735195874
  O          10.27961338131518     39.48283244603429      8.35615782791332
  O          12.98508087959967     39.47905490759253      8.41431675168679
  O          11.63602018341996     37.16608576385106      8.11592896601638
  O          14.66296086741858     41.62530780611092      8.39056895060977
  O          11.74530046420225     39.09689751049721      6.19582154332912
  O          14.40118801600849     39.99330803682891      6.23487190841774
  Si         16.80103645153561     25.86732062026865      7.93960511913470
  O          15.46990042837416     25.02919381416025      8.44160465341895
  O          18.03102510589696     24.83339363603588      8.29443204005783
  O          16.61919852746489     26.08169571852493      6.31681139618811
  Si         16.88182979710562     28.98746590776649      8.35272423682698
  Si         17.05013053598016     35.31154197369282      7.81231695413050
  Si         19.70374896152369     33.76008218909674      7.90636295768899
  Si         19.58932849660460     30.66274022574732      7.90132100257226
  O          15.41021050817466     29.76005220177491      8.11957918825604
  O          15.74187913682958     34.44467786087896      8.15479320764178
  O          18.38480056074316     34.58133403994589      8.41750838285049
  O          18.19395004405547     30.06407461918957      8.43103809250499
  O          16.88738804437250     27.31120838817317      8.64348479000124
  O          19.67930807205038     32.22567465552547      8.43888050411889
  O          17.15249275006327     28.64455474198388      6.67088289610703
  O          17.33705081502932     35.39479970314076      6.18796278217153
  O          19.66223222606881     33.73830405496405      6.25914544173808
  O          19.66703509206090     30.73834564297068      6.26126664896241
  Si         16.98788821105116     38.40530968827697      7.85062476626847
  O          15.70267795842772     39.25309939076993      8.40416666813843
  O          18.42218676434656     39.00491725932244      8.37379262895380
  O          16.93543779053940     36.85756753234170      8.35246283716086
  O          16.90860368441350     38.42609710954583      6.20608505754057
  O          20.80545898218077     29.73760628891970      8.47712533715807
  O          21.10520645230347     34.41622953530211      8.44686962444170
  H           4.07465741258317     24.98677202734869      8.03659115421087
  H           1.41040897917630     29.60201497173397      8.03674925818334
  H           1.41040897918911     35.00798501014908      8.03674926027792
  H           4.07465742267653     39.62322797024203      8.03659116039772
  H           8.94818084310520     22.17325471105265      8.03830168966466
  H           8.94818088541295     42.43674531782433      8.03830168016378
  H          14.27776169796318     22.17320381932127      8.03828219005278
  H          14.27776171764579     42.43679616110104      8.03828219638779
  H          18.96055660368031     24.87622776267274      8.03640577635938
  H          18.96055652638898     39.73377221567655      8.03640577835251
  H          21.62471724014220     29.49141991559000      8.03658340930779
  H          21.62471727358669     35.11858011050225      8.03658341005390
  H          13.26582358427508     34.15237229147446      5.95418748378590
  H          11.08769208277006     34.83210772525032      5.59765001409567
  H           8.94097306598062     32.87177480678633      5.70543066221309
  H           9.85760498814457     30.40826120692448      5.75997607732193
  H          12.31373237122444     29.92972116715901      5.85573453914149
  H          13.92698583839289     31.81312219730741      5.93033088650531
  H          13.53719756722504     39.69717432405311      5.89501238572594
  H          10.89075515880142     39.23136617206016      5.77166279968482
  H           8.06037867952562     39.60640496543807      5.85522674453212
  H           6.08942048518064     37.65177985462267      5.86056946520045
  H           5.30222954897033     35.04330735629613      5.74166801914246
  H           3.45818297394132     32.89065728924221      5.92455075509145
  H           4.14052476136369     30.28077507384672      5.92341604663489
  H           5.89516585059966     28.27826542403350      5.80865380265965
  H           6.94055208881237     25.71306539601632      5.88491144500153
  H           9.55688330972357     24.97891007835114      5.87488714044579
  H          12.21819759030158     25.51759725645299      5.81016665456917
  H          14.90540284574925     25.23694120903724      5.94677201564456
  H          16.77528469418062     27.04710258429719      6.15330384868761
  H          17.42810404659404     29.40558491159694      6.15701618142994
  H          19.62438894726480     31.64527755180629      5.92976763057353
  H          18.93076753623067     34.27278713180547      5.90829680631876
  H          17.10204061407962     36.24067934584217      5.78868066101966
  H          16.10763414337228     38.87008747338012      5.88659467392927
  P          17.44096498376736     29.87462922339589     11.25511051831255
  O          16.66394807846276     29.15550104493840     10.11988949256936
  O          18.75623436159071     29.35376839872512     11.61737213886858
  O          17.38464981408248     31.43634817205562     10.91956606294837
  O          16.45226791100795     29.81007009452848     12.50201057418682
  C          15.11130549357034     30.26371248584726     12.43534688164803
  C          14.16150513832867     29.08745923049948     12.54776193232891
  O          12.91417767943713     29.58242380148728     13.03039305813103
  C          13.81416525231915     28.36773291401447     11.24530173907864
  O          14.67283220382764     27.32147931594623     10.90427279267287
  C          12.43766138389189     27.78871325597526     11.56095592789080
  O          12.57654816446272     26.56396087437041     12.23746402294391
  C          11.85261142575609     28.81245586543449     12.53192187804179
  N          10.87837360121339     29.72238790967911     11.94823597086149
  C          11.02613937707891     31.06431341669834     11.68455768218614
  N           9.91709770033160     31.65272313798815     11.33375179205575
  C           8.97811687368497     30.65056033328829     11.36050964367855
  C           7.60402047379016     30.62169367497030     11.08851265247337
  N           6.90410821754005     31.73122647749134     10.75969159872242
  N           6.96016047596503     29.45342249773514     11.17833802608435
  C           7.64608465162540     28.37123521778613     11.54856459589967
  N           8.93115006467653     28.26927317149728     11.85702339681244
  C           9.55468219473959     29.43996147716545     11.73852973529751
  H          17.75784142064606     31.61756694213666     10.04801772823347
  H          14.94758893135610     30.93102369036323     13.28526282445746
  H          14.92903379086910     30.83000478097616     11.51684992221600
  H          14.57989099508741     28.36138433246087     13.25559448613536
  H          13.73051603572733     29.09681138816567     10.43425350657075
  H          15.49820531274370     27.70023774103557     10.55800780889070
  H          11.80652030748374     27.68057592385563     10.67489994723381
  H          13.37491352292478     26.16218228662396     11.86679379201244
  H          11.34294392461297     28.27484729145822     13.33760478245831
  H          11.98524803008909     31.54696996188052     11.78014283714339
  H           7.43778273955659     32.50751938998229     10.40280322323798
  H           6.00739412278589     31.56976941077202     10.33090553697642
  H           7.07070806223220     27.45032872140648     11.59437257272363
