162
Coordinates from ORCA-job /data/Seafile/amp/al_surf/frames/frame15/amp_al_frame15 E -13417.648761353294
  Si          3.45412666184446     33.84466118829684      7.83055467640232
  Si          3.47407498990925     30.74516237226005      7.81807472073848
  O           2.20717650226743     34.66895770788287      8.47306418879560
  O           2.22021275308509     29.92957048685772      8.46209401343373
  O           3.45673735778295     32.29356800697527      8.35589339952533
  O           3.44191461704589     33.85265202438676      6.19195091362365
  O           3.43019128191540     30.82361909327480      6.18333570805147
  Si          6.15470999605487     26.09019041292027      7.81735437037253
  Si          8.84342293573430     24.53698625370741      7.81257084481375
  O           4.84852059212590     25.37531028310077      8.47459721883097
  O           7.50947326719236     25.33258751793952      8.33413396343506
  O           8.81193872269473     23.04107698430914      8.45724526183828
  O           6.12203715769006     26.09278256657516      6.17949510200039
  O           8.79325077522519     24.52132439449241      6.17715664436694
  Si          6.12691042614455     29.17455577195770      7.70153955537155
  Si          6.10469019908319     35.40385758279420      7.69750173033321
  Si          8.86095596018606     33.84264897407277      7.65402588786936
  Si          8.86796381915014     30.75668863105054      7.62790289722015
  O           4.86781470521973     30.02911312975162      8.29809208910077
  O           4.82485867607486     34.59816515646468      8.31954320806611
  O           7.46613422884287     34.60918444551099      8.07467628566462
  O           7.51753673691479     29.94790064535776      8.03628033507158
  O           6.17912201727619     27.65751910556916      8.29989030813261
  O           8.76474529231856     32.28055608531030      8.18605251141054
  O           5.87789102454878     29.10277406054200      6.08317732712722
  O           5.91263172011483     35.54181947557910      6.07509042022687
  O           8.96356881516437     33.78613402904048      6.01431717284797
  O           9.00980853522440     30.84521187196042      5.99756929702949
  Si          6.14922561995885     38.49621159753557      7.74718786624046
  Si          8.85464136905837     40.09268403894613      7.75407561758523
  O           4.92514657299361     39.34241812316734      8.42043310300622
  O           7.55046985468889     39.21337148635796      8.20542735448532
  O           6.17174888657067     36.93689348288730      8.27078925014919
  O           8.63053136461755     41.58444671178230      8.37712919882131
  O           6.06406566249181     38.50325878249829      6.11626238290660
  O           9.00350675004663     40.09061047988561      6.11984152063567
  Si         11.51579661104311     26.07738132674226      7.69711789515518
  Si         14.17874199026729     24.52958002337840      7.79179360009149
  O          10.17431803589588     25.36694192610815      8.30132690705783
  O          12.86781301067791     25.38469252065124      8.29095475040030
  O          13.99375900571536     23.03028459891252      8.39808687949103
  O          11.45937010199723     25.86695996109136      6.07522707360126
  O          14.18146347735096     24.53449866329226      6.15329596766986
  Si         11.53439039238268     29.24097924619324      7.65811703663936
  Al         11.61690880194010     35.39429707687125      7.76637326715577
  Si         14.26325029993337     33.79923554795476      7.81437012026277
  Si         14.20598051393185     30.74752570500343      7.69895957236838
  O          10.17867924417628     29.96559892455778      8.22025155317671
  O          10.11128763205941     34.62176591559551      8.27337402927161
  O          13.05293331581296     34.61911192754793      8.46976445592169
  O          12.87971523949133     29.95035591027042      8.25578332833090
  O          11.49248867275215     27.66534367117720      8.07235632345542
  O          14.33867309272197     32.23326151524258      8.35278019964069
  O          11.53263310188943     29.40584299912080      6.02884422499276
  O          11.81757888885280     35.11799698277746      6.02766879040033
  O          14.06094464075516     33.69922662930403      6.18398903889841
  O          14.01333503440774     30.89755226513132      6.07800294205311
  Si         11.60330861020482     38.65526628246033      7.75493943007489
  Si         14.34054452904119     40.08308109048459      7.82054048905710
  O          10.24727591651984     39.42862956683850      8.29578806732294
  O          12.94864840286088     39.40805332027817      8.35234729989685
  O          11.59887787239326     37.11211675371706      8.15491802797897
  O          14.56268734292271     41.58727191763386      8.41144563407019
  O          11.68727784324530     38.89706400574019      6.12397221383547
  O          14.35168082050010     40.03812790581028      6.18179048272825
  Si         16.89879260199145     26.01836238930928      7.80939572378423
  O          15.53704677945913     25.26504752305335      8.32652625517491
  O          18.16073275076049     25.22378947672481      8.46311953389291
  O          16.88113791309186     25.97230500798302      6.17230632825713
  Si         16.92029487365247     29.10678805425741      7.71298916655991
  Si         17.02920312621971     35.34464630579580      7.73960270649827
  Si         19.68395799527794     33.77616714994740      7.80526814358439
  Si         19.58697267866332     30.67437818720545      7.79591321913446
  O          15.51604827416619     29.85513334254771      8.05010237959883
  O          15.71670545399024     34.48929516196863      8.15676755591348
  O          18.35431023133311     34.58208441227714      8.32757612996610
  O          18.18642066082510     29.96952352150548      8.27106110106304
  O          16.88202053714364     27.58116165777053      8.29730562375490
  O          19.63301169575823     32.22306880720068      8.33000621818058
  O          17.08495794201855     28.93921657677243      6.08715045737774
  O          17.21646063369926     35.38765238169132      6.11101013194332
  O          19.66262451457151     33.73707425893688      6.16780797203715
  O          19.61901841572247     30.67721407928175      6.15818357649919
  Si         16.97518930169263     38.43884129953978      7.80172953005270
  O          15.64019310775760     39.21986140457140      8.33758122944386
  O          18.35601662368382     39.06414578014310      8.39962721170801
  O          16.93338411221799     36.87553757528217      8.30586265845817
  O          16.95923184369396     38.43443738952939      6.16307745110420
  O          20.78687297195716     29.77768443896526      8.43408644543498
  O          21.06059703907792     34.41413902382941      8.39931271173034
  H           4.07465742475532     24.98677203787362      8.03659115441066
  H           1.41040897452648     29.60201496987301      8.03674925791819
  H           1.41040901529871     35.00798499579822      8.03674926144705
  H           4.07465742258742     39.62322796853260      8.03659116006132
  H           8.94818084279399     22.17325470483814      8.03830168948364
  H           8.94818088692262     42.43674531914028      8.03830167997098
  H          14.27776169322698     22.17320385156216      8.03828218803584
  H          14.27776171772069     42.43679615070175      8.03828219585697
  H          18.96055661043068     24.87622775937205      8.03640577899956
  H          18.96055653478206     39.73377222503559      8.03640577855919
  H          21.62471721987926     29.49141993220105      8.03658340839063
  H          21.62471723862620     35.11858007828615      8.03658341027842
  H          13.22523605742574     34.18344269236223      5.93350782430963
  H          11.04277609465221     34.72221597143837      5.61535249810377
  H           8.96618338466686     32.88521406006972      5.65955776214109
  H           9.79596714224128     30.39858003776088      5.64572986700844
  H          12.30375699941440     29.89193836925227      5.69107290564910
  H          13.99775207841057     31.83692848314855      5.80649598339136
  H          13.51425685884282     39.71877609305626      5.80719450792762
  H          10.87571514557855     39.25776994081291      5.73909941424538
  H           8.20644347746831     39.91790159685327      5.60772277444577
  H           5.97960298171955     37.62217017381864      5.72343269709532
  H           5.20030366189131     35.00026436705387      5.70645426403157
  H           3.42911836275071     32.97304926481415      5.78822677792510
  H           4.08362190937946     30.26294620210789      5.74072482360455
  H           5.99860422983044     28.22648234546772      5.69236804459990
  H           6.85423904706188     25.62360675472084      5.75751056874644
  H           9.59166542823544     24.86105310306799      5.74799829650895
  H          12.26997086349598     25.51610019394475      5.68082755975884
  H          14.94600642903556     24.97382804481079      5.75518124577281
  H          17.00870807140908     26.83793627184263      5.75602304496303
  H          17.78085444719983     29.48005002961361      5.69075271932582
  H          19.61879556685441     31.55803247630194      5.75830332631748
  H          18.95393881339164     34.26453427958618      5.76946232556975
  H          17.10249020384710     36.25952477587366      5.70903303836876
  H          16.18539577196254     38.86401736954416      5.77188240025199
  P          16.94986666786938     30.37107470843965     11.99357647686696
  O          16.62442333871909     29.24814598433748     11.05808953982515
  O          18.29233974570294     30.44242401331191     12.62137950551008
  O          16.61892625783947     31.71784379655858     11.16720315322182
  O          15.88689991027066     30.39877811936811     13.21146723221418
  C          14.49584379190465     30.58826792296308     13.01582787658071
  C          13.72685770579478     29.28316047234474     12.86277419715693
  O          12.41752741885491     29.51384526621656     13.39543799991547
  C          13.47872940439671     28.78157454699529     11.43604494799524
  O          14.44667432020288     27.91395617253029     10.93537926188992
  C          12.16273430189724     28.02614836892660     11.58463520560009
  O          12.40407697396358     26.72720448413207     12.07038461185433
  C          11.44215728424168     28.82855768819961     12.65998126218680
  N          10.49590176965702     29.79579018105924     12.12353661182020
  C          10.68689150692808     31.13061385109246     11.88876073846879
  N           9.60728629135104     31.74417930495417     11.47957483891278
  C           8.64683666373665     30.75867024125873     11.43623545409748
  C           7.28176610418923     30.75690150215815     11.10298520701956
  N           6.61553245636877     31.86242053591723     10.73396161481512
  N           6.61375479289937     29.59774265540016     11.19130467080192
  C           7.26301235205747     28.50027530906952     11.57495620187813
  N           8.54007814588301     28.37286589669586     11.91254488885976
  C           9.18429828878566     29.53820536782043     11.83318316948116
  H          16.95180007730508     32.50265794269911     11.61789899657330
  H          14.12530000868545     31.08558774338511     13.91433507733914
  H          14.30900330392242     31.24600903087307     12.16097462170643
  H          14.22731654680613     28.50005678930949     13.44509580812599
  H          13.32534765503920     29.64558856698630     10.77688286453033
  H          15.32514104569813     28.39504920638618     10.95767738401887
  H          11.58439552083998     27.99461553770012     10.65724073659597
  H          13.28601718278336     26.49225547186753     11.74320528185753
  H          10.87007276642877     28.15854773006117     13.30681871349460
  H          11.64542629149951     31.59840610991715     12.05203654150588
  H           7.14316203185685     32.67335454517830     10.45726863602337
  H           5.70826866392657     31.74186004561867     10.31318458125338
  H           6.66635390208970     27.59273637600030     11.61179466490154
