126
Coordinates from ORCA-job flower_ring_al_geom E -11887.485078013895
  Si          3.55619789673403     33.84477483767482      7.82261730940746
  Si          3.55589990487007     30.76677505798210      7.82269198337882
  O           2.14725541125143     34.47992525331518      8.40959264371084
  O           2.14683443251038     30.13192613444299      8.40969816259236
  O           3.71004506401360     32.30577434975742      8.41265574374373
  O           3.55520891749254     33.84673463793092      6.16661725472661
  O           3.55491048740461     30.76473514819576      6.16669202570337
  Si          6.21945307629835     26.15151705813528      7.82282072801825
  Si          8.88330434436555     24.61425900923162      7.82287492394079
  O           4.81038764472367     25.51666803229061      8.40982692405355
  O           7.47536198934781     25.24940951543088      8.40985054821261
  O           9.03815223167739     23.07525824653724      8.41291288924917
  O           6.21946355556354     26.14947724916753      6.16682077660836
  O           8.88331538843060     24.61621921467519      6.16687487639471
  Si          6.21975101369344     29.22951698696999      7.82274648306100
  Si          6.22034672876595     35.38151679259239      7.82259742114433
  Si          8.88419783165836     33.84425891843183      7.82265212409867
  Si          8.88389978126816     30.76625900423691      7.82272667135969
  O           4.81080870494707     29.86466767192945      8.40972198153979
  O           4.81128139642042     34.74666753279411      8.40960362588347
  O           7.47625552004124     34.47940945683975      8.40962754505181
  O           7.47583450479723     30.13140954327553      8.40973285957887
  O           6.37359823340517     27.69051634422731      8.41278465383920
  O           9.03904497595400     32.30525824263334      8.41269045307347
  O           6.21976196564655     29.23147696765129      6.16674643524826
  O           6.22035737140389     35.37947657340409      6.16659747024084
  O           8.88420880903372     33.84621874067526      6.16665207609860
  O           8.88391037081218     30.76421896610199      6.16672672023280
  Si          6.22064474070876     38.45951662017583      7.82252252043931
  Si          8.88479359767578     39.99625879751181      7.82250242173879
  O           4.81170217310270     39.09466681130737      8.40949783821731
  O           7.47672826448427     39.36140937739911      8.40950873256156
  O           6.37449189410894     36.92051615649753      8.41256104950082
  O           9.03993924306227     41.53525811966238      8.41246589724675
  O           6.22065571242308     38.46147617689431      6.16652247212498
  O           8.88480427943683     39.99421840336439      6.16650247105111
  Si         11.54845298675429     26.15100105536803      7.82285533881413
  Si         14.21330424355978     24.61374313433478      7.82290974348192
  O          10.13938775729547     25.51615155138720      8.40986145194852
  O          12.80436186570284     25.24889362325126      8.40988524998737
  O          14.36715210917958     23.07474250176654      8.41294776692187
  O          11.54846357025675     26.14896120817239      6.16685538745198
  O          14.21231537976405     24.61570341519534      6.16690968930096
  Si         11.54875087960037     29.22900099656356      7.82278115408211
  Al         11.54934655830236     35.38100091030099      7.82263214350499
  Si         14.21419762846323     33.84374294188012      7.82268672942859
  Si         14.21389954804797     30.76574302670204      7.82276131335456
  O          10.13980858263001     29.86415158649529      8.40975666249288
  O          10.14028129976317     34.74615157641390      8.40963841771940
  O          12.80525536884165     34.47889358175048      8.40966221339455
  O          12.80483432196224     30.13089360900620      8.40976754479007
  O          11.70259810526962     27.69000034190373      8.41281928677255
  O          14.36804478290098     32.30474236880880      8.41272505804179
  O          11.54876184096894     29.23096101217324      6.16678110631078
  O          11.54935711166256     35.37896067312768      6.16663219262307
  O          14.21320852005028     33.84570284476562      6.16668667494634
  O          14.21291007381181     30.76370306014434      6.16676135578294
  Si         11.54964466110733     38.45900081329558      7.82255723960958
  Si         14.21479346772223     39.99574275534515      7.82253705355468
  O          10.14070237706416     39.09415151838535      8.40953262838639
  O          12.80572818419940     39.36089350833745      8.40954340592763
  O          11.70349179250132     36.92000030604821      8.41259573123447
  O          14.36893907990441     41.53474216891182      8.41250049136413
  O          11.54965559499219     38.46096045330368      6.16655719139356
  O          14.21380408766556     39.99370243615854      6.16653709636123
  Si         16.87745263674987     26.15048521576416      7.82289005235945
  O          15.46838752618849     25.51563578851999      8.40989631469042
  O          18.13336122784794     25.24837744269998      8.40991990384296
  O          16.87746305285804     26.14844519939401      6.16689010120464
  Si         16.87775060449563     29.22848513253668      7.82281570991935
  Si         16.87834632583801     35.38048502481329      7.82266657730697
  Si         19.54219732448748     33.84322714215475      7.82272096624406
  Si         19.54189926438445     30.76522706270164      7.82279559941903
  O          15.46880835250163     29.86363572596791      8.40979126836435
  O          15.46928111378860     34.74563570142647      8.40967294276238
  O          18.13425513485758     34.47837768431198      8.40969659050819
  O          18.13383409241209     30.13037768061241      8.40980201143867
  O          17.03159782692134     27.68948451406027      8.41285390207520
  O          19.69704453076586     32.30422639877364      8.41275929507460
  O          16.87776147678476     29.23044510248555      6.16681566209339
  O          16.87835678155080     35.37844476884150      6.16666662644760
  O          19.54220803236010     33.84518703165306      6.16672091832181
  O          19.54190958614306     30.76318686478160      6.16679564848729
  Si         16.87864444497673     38.45848498991038      7.82259169301154
  O          15.46970223805441     39.09363561651640      8.40956722571406
  O          18.13472776322339     39.36037802412249      8.40957778136837
  O          17.03249160360896     36.91948445006415      8.41263015159047
  O          16.87865520254530     38.46044472298527      6.16659164490450
  O          20.79780779022709     29.86311917703110      8.40982547623767
  O          20.79828055317742     34.74512022029678      8.40970709488539
  H           4.07465743029689     24.98677204320006      8.03659115484100
  H           1.41040896959906     29.60201497081326      8.03674925614420
  H           1.41040901039002     35.00798498362865      8.03674926215911
  H           4.07465743773271     39.62322797063773      8.03659115978523
  H           8.94818084785504     22.17325470875422      8.03830168975561
  H           8.94818087957782     42.43674530092819      8.03830168077944
  H          14.27776169820333     22.17320385431967      8.03828218836582
  H          14.27776173040917     42.43679616028475      8.03828219211100
  H          18.96055658296500     24.87622777346753      8.03640577878644
  H          18.96055653204048     39.73377222793752      8.03640577825705
  H          21.62471722865044     29.49141993089172      8.03658340870354
  H          21.62471723227998     35.11858007513661      8.03658341031153
  H          13.39969331037462     34.28647018009232      5.85480154849489
  H          10.85592355258121     34.89227537515333      5.71720347240680
  H           8.79340571281719     32.97370527721350      5.76224447072714
  H           9.66313496995666     30.35068608247173      5.76901928041011
  H          12.30652547219002     29.68585024619808      5.77130339459198
  H          14.17561025901087     31.65315201661178      5.78291162920962
  H          13.45707728538315     39.52728898085667      5.78093305348061
  H          10.82132978198449     38.95797242246275      5.76978359468166
  H           8.14949182238007     39.50902849228758      5.76632110380236
  H           6.23267341465899     37.58113181279818      5.76474357172571
  H           5.44719184234709     34.95071402179904      5.77256475990123
  H           3.60564649198325     32.96819779837361      5.76389619213937
  H           4.32822302569830     30.34480138186377      5.76403999443393
  H           6.20795002867239     28.34936063173368      5.76817076740684
  H           7.00900271162695     25.75679969529784      5.76748401984821
  H           9.64062112618693     25.06513823192636      5.76513738485271
  H          12.31500759233345     25.70864951255645      5.77187544208333
  H          14.95457393914385     25.09009801841032      5.76598058995767
  H          16.85212747946590     27.02675095388821      5.76150285021982
  H          17.64737930139648     29.66478854227258      5.77141804065080
  H          19.48269583293651     31.64180794493671      5.76492254634288
  H          18.77147208228241     34.27387455195176      5.76795586980200
  H          16.89360676432772     36.26084681580775      5.76916082257138
  H          16.09162921122925     38.86062497592586      5.76955486994790
