163
Coordinates from ORCA-job /data/Seafile/gmp/al_surf/frames/frame59/gmp_al_frame59 E -13492.860784491322
  Si          3.44540983941056     33.83398032911936      7.83809101770016
  Si          3.47709578226188     30.73474067094380      7.79176065897344
  O           2.17497814937459     34.61695195503589      8.48631067180166
  O           2.24196720690611     29.89675853225587      8.44411690327242
  O           3.46233172543052     32.27709097425846      8.34338554361374
  O           3.44763509602556     33.86576669467339      6.19933711714252
  O           3.39847004580153     30.84185101762627      6.15907773383927
  Si          6.16659900701251     26.07800353122368      7.81531740005292
  Si          8.85049047245596     24.53565408320086      7.81584700662419
  O           4.87248615282063     25.33752597417015      8.46502319762772
  O           7.53053659264068     25.34782406208888      8.35548347693950
  O           8.80830093982172     23.04021397327211      8.45767417267375
  O           6.15609080465805     26.07296051482232      6.17815889221209
  O           8.78020687554478     24.52395782335000      6.18115981609986
  Si          6.14327409030935     29.15937208774206      7.66152072984021
  Si          6.09204133048381     35.40174504289899      7.73043159329652
  Si          8.83502627151567     33.83357698786882      7.68534620273332
  Si          8.86739054157791     30.75595438567299      7.63444269624358
  O           4.87856215866259     30.01437130690205      8.23389633323676
  O           4.80281938266954     34.60229699316886      8.34161924447899
  O           7.44642438424618     34.60018079652061      8.12141847078968
  O           7.52083428373798     29.93750017106452      8.04704681265813
  O           6.17400071105962     27.65005005889948      8.29018289067484
  O           8.76040000156008     32.26975717188224      8.22477254740281
  O           5.94524564677290     29.06778613354162      6.04191200737494
  O           5.91257417010156     35.53596648585462      6.10601880394928
  O           8.91527420874356     33.77793509009441      6.04653906759570
  O           8.98809419145424     30.87509314657595      6.00344185161843
  Si          6.14827737903503     38.49162692427721      7.75994637367628
  Si          8.84881893204246     40.09267320701239      7.74530444497545
  O           4.92794526039634     39.35239553999437      8.42219095194173
  O           7.55390382071277     39.20579531494087      8.20982936442542
  O           6.16344508284642     36.93649066928100      8.29855730224224
  O           8.60533567824848     41.58613797602339      8.35582620134242
  O           6.06023631962021     38.48175427628751      6.12912038532763
  O           8.99811833724425     40.06629449013278      6.11192838683689
  Si         11.52488771404501     26.07264912313621      7.68051182762496
  Si         14.19538544144264     24.52731239779728      7.77823631006975
  O          10.18939878180789     25.35674871723120      8.29442964850835
  O          12.88199060616073     25.38507525951270      8.26527867950444
  O          14.01221395369056     23.03482636152831      8.40035834658260
  O          11.45234857037309     25.86657808252795      6.05941638324056
  O          14.20690291377643     24.51508993794382      6.14105276669039
  Si         11.54421022533460     29.23162424516317      7.63702215493310
  Al         11.58721989953431     35.40846286275261      7.79410848162850
  Si         14.24249281442047     33.79556797393462      7.82099583764836
  Si         14.21655527326898     30.73951369185576      7.69725852463986
  O          10.18617464073560     29.95635635279914      8.18491294398459
  O          10.09085731138462     34.62291173870539      8.28338399164543
  O          12.98590676731869     34.54600187609786      8.49453018218198
  O          12.89326052764164     29.93291419665232      8.23961991250620
  O          11.49683522920344     27.65823234078682      8.06545322887082
  O          14.34197886829103     32.22911458343997      8.34486578001840
  O          11.54602465618445     29.38816802392503      6.00789539176147
  O          11.82303347571728     35.20302874450589      6.05796424659568
  O          14.04275344190122     33.72280038749023      6.19288390724187
  O          14.05081173573194     30.88097246061936      6.07363434695500
  Si         11.60117486000599     38.64926251335363      7.79404099267017
  Si         14.34208278015126     40.08194938656028      7.82834129711200
  O          10.25315849286003     39.45493931090621      8.28547835137136
  O          12.95631691078707     39.39557667312725      8.36077789898484
  O          11.55989766639278     37.11617781067861      8.28233447724444
  O          14.55341402071267     41.58701126898224      8.41738784495852
  O          11.69937229399584     38.79723485130997      6.15597400715647
  O          14.35152978294720     40.03514853470408      6.18956055188595
  Si         16.90967754647176     26.03113895229770      7.80869409605077
  O          15.54927633326245     25.27128652236558      8.31630511659930
  O          18.18132873174590     25.26005041674541      8.47004276410722
  O          16.90086938837126     25.98455314170894      6.17290076604170
  Si         16.93175747379363     29.11639538091591      7.70187786437667
  Si         17.00146896826621     35.34900353598118      7.75323629913775
  Si         19.66579413915012     33.78800797805535      7.80828705625030
  Si         19.58647490808334     30.68039334328210      7.80829680316713
  O          15.53385840757038     29.86188094161578      8.07598549331340
  O          15.67059792395616     34.52116671036159      8.18205089427818
  O          18.32058193975560     34.56940557711724      8.33186338394593
  O          18.19024547097236     29.96618445847544      8.30128489120708
  O          16.88053633611018     27.59669911290320      8.30174855380740
  O          19.62819066984781     32.23179812847732      8.32904107431889
  O          17.10181384725825     28.96657220499484      6.08100533677568
  O          17.17780251598579     35.38553853612061      6.12410547468621
  O          19.64910929841083     33.75280584236038      6.17163746363839
  O          19.59223072796762     30.66607314947283      6.17007148007800
  Si         16.97493526036537     38.44055259178376      7.80978925768073
  O          15.64450056558984     39.22650444037836      8.34834191248188
  O          18.36022183588620     39.06122548747091      8.40078983634656
  O          16.92868118468567     36.87961489780216      8.32009431476568
  O          16.95181390585340     38.42926713838123      6.17124621780130
  O          20.79797516586911     29.79848308616718      8.44235143158951
  O          21.03072355854474     34.44359609260606      8.40958036723043
  H           4.07465748157370     24.98677201258311      8.03659118126843
  H           1.41040899278257     29.60201494487784      8.03674928208352
  H           1.41040900334883     35.00798499311832      8.03674926456998
  H           4.07465743803733     39.62322796988243      8.03659116041659
  H           8.94818092380250     22.17325464935356      8.03830167881075
  H           8.94818087505463     42.43674529912131      8.03830167991757
  H          14.27776162627239     22.17320388095420      8.03828222115560
  H          14.27776172855368     42.43679616691269      8.03828219293112
  H          18.96055642034593     24.87622778867340      8.03640578683403
  H          18.96055654376967     39.73377223158851      8.03640577823787
  H          21.62471723906278     29.49141992191100      8.03658340901364
  H          21.62471733701193     35.11858013759826      8.03658340581066
  H          13.22065723794522     34.22365330249266      5.93951697607450
  H          11.05279819623850     34.85612853185980      5.59757301627559
  H           8.94287119869469     32.87764648162283      5.69030197814769
  H           9.76041434514171     30.42404657509316      5.63007555301342
  H          12.32176901708035     29.85894963293703      5.66256955692687
  H          14.02254721157327     31.81370502875532      5.78879052033468
  H          13.52808291424928     39.68421045418147      5.81436436325817
  H          10.89080038934940     39.13061972964094      5.74256933573757
  H           8.19566254714649     39.91431425694408      5.60184613323666
  H           5.98101208465958     37.59552082182479      5.74632004985965
  H           5.19975949887181     34.99563783244031      5.73565777571965
  H           3.41077390442199     32.99271347404800      5.78320761320291
  H           4.01091905932821     30.27036129064621      5.67813967670391
  H           6.06119899522079     28.18350386761328      5.66759080650435
  H           6.89513018543913     25.60060291679916      5.76993445078986
  H           9.57249490383196     24.86367248862251      5.74084896028427
  H          12.25726175050302     25.52098882402397      5.65071158496836
  H          14.96614484448440     24.95980140395750      5.73966533976725
  H          17.03970933117359     26.84258006458172      5.74645037670496
  H          17.80894216580808     29.50291858976785      5.69554039794478
  H          19.60455115313659     31.54109969354144      5.75835281303457
  H          18.93556007729330     34.27225814300040      5.77203529990636
  H          17.06212533271447     36.25624892533964      5.71982101816535
  H          16.18121377719559     38.86585015115051      5.78122586389249
  P          10.39186730805174     38.01378316010047     11.96855952288801
  O          10.59484654461867     33.30674371431834     13.45974094523042
  O          11.70428927172752     32.48711964248176     10.23522015197087
  O          13.27480697131330     33.50338571916948     12.16252091123847
  O          11.15473280626068     36.84207054523417     12.80839083810094
  O           9.15114327992661     38.40546669960568     12.69538990498817
  O           9.90432783326872     37.23480291218809     10.64269320871789
  O           5.15821895695810     29.86778481975838     11.56877885212132
  O          11.44983945733610     39.01016327281280     11.64665420935832
  N           9.06930281309154     32.19053761905496     12.10654425411128
  N           6.84483721675944     32.39213494289156     12.15587628726029
  N           9.28046521921454     29.87993862832423     11.41650268796134
  N           7.16657140919314     28.87585672167255     11.16543898836157
  N           9.09771163229656     27.68327296021508     10.74266011396065
  C          11.08998639543465     33.34298720297866     11.15760074334377
  C          12.09038317939481     34.22519199029070     11.90078701215276
  C          10.46664479788037     32.53104046692389     12.29397119070859
  C          11.36053807791167     34.49354950843902     13.19583733615247
  C          10.41585591002593     35.67961099754774     13.12230301900627
  C           8.56949404180458     30.96926824891904     11.74867275138582
  C           7.98245879250853     33.00261465184469     12.33112898787276
  C           7.18955063283156     31.11203167234062     11.78866771732354
  C           6.37731514389225     29.97644838239759     11.51875481856449
  C           8.52861377050607     28.84862515434633     11.10516035886861
  H          10.33103030224386     33.96363251507849     10.67389278301300
  H          12.30567923251438     35.14762829303273     11.35524055443997
  H          10.99605155949257     31.57933673849866     12.39821229431153
  H          12.06902930218673     34.62343725400819     14.01724982254244
  H           9.90264010774353     35.79436868256042     14.08201324248367
  H           9.65909926598014     35.49827746563700     12.35343151415853
  H          11.99349292220226     33.03022635247851      9.48410842584254
  H          13.38302669740361     32.88718151485666     11.42367663366320
  H           8.09763081035945     34.02852062684155     12.64161499879484
  H           6.65350802027937     28.03733989210253     10.92744063308462
  H           8.55161384838009     27.00018546223568     10.24254430257959
  H          10.07687725878686     27.72133322647586     10.51202662535559
  H          10.57819241365929     37.19798301708727      9.94020754270295
