163
Coordinates from ORCA-job gmp_al_frame59_dry E -13492.518414155413
  Si          3.42532796946078     33.80341137399687      7.87430172080011
  Si          3.49334448362872     30.69886432593702      7.83959298305302
  O           2.14920683088311     34.60440592910673      8.50382109276623
  O           2.29837514626821     29.72412499324686      8.39387255176817
  O           3.34109138745361     32.23209336071564      8.32040365579454
  O           3.36652497673842     33.81768932294879      6.21923682320632
  O           3.49569277531147     30.76740824969468      6.18880011028061
  Si          6.16520171197824     26.09442203493985      7.90489246188631
  Si          8.82427497576216     24.53817001519638      7.92142725072086
  O           4.81977563246853     25.39016662427618      8.49756581020620
  O           7.48597036870492     25.30349422010168      8.45295553907497
  O           8.76296849089584     23.00740184026809      8.48915208825800
  O           6.20359082813573     26.06058310479428      6.25898457353507
  O           8.78696512344080     24.57745856741833      6.27589467947078
  Si          6.15369592808562     29.16601311650635      7.72408807736103
  Si          6.08710365043666     35.36500207872862      7.75330434271540
  Si          8.87465008244062     33.82857671582682      7.61063488372006
  Si          8.90713868072178     30.74779720075925      7.66586661400211
  O           4.89558921476946     30.00032525290250      8.31179117594800
  O           4.80411710622504     34.51632205660584      8.32672656433737
  O           7.45388236845339     34.54696234532097      7.98830381624549
  O           7.54462479872532     29.91446754793285      8.03802794115536
  O           6.21556684564120     27.65302062241971      8.38349379143812
  O           8.78986142917150     32.26444644607017      8.17735252882913
  O           5.86151838690273     28.99248264259252      6.11702501337603
  O           5.79467044718659     35.58197948871854      6.13750129063047
  O           8.98461777567084     33.69771603583492      5.97131523932795
  O           9.07825689961287     30.75158276773058      6.03067387443685
  Si          6.10604575981927     38.43555685423736      7.87499399615206
  Si          8.74110837602270     40.08739999608405      7.77418431334522
  O           4.73765938532426     39.09737754516600      8.50123079241159
  O           7.41967238837651     39.26312233360907      8.32624960483109
  O           6.17494898123560     36.87106496117121      8.35759187283904
  O           8.40334962773115     41.65402203093593      8.17968574243086
  O           6.04806222816356     38.45250505795719      6.22493272498064
  O           8.73177377308037     39.89690753124681      6.13456960949328
  Si         11.49148116597509     26.05888618413783      7.80550747293595
  Si         14.15804489771411     24.53271319418991      7.86158424998802
  O          10.15733868667091     25.33839380814777      8.42020066814304
  O          12.85220285408272     25.36091421311784      8.36961958412781
  O          13.93961581326163     23.00353330077869      8.39329432297273
  O          11.39809259444514     25.76000743416223      6.18742935234751
  O          14.20324208799284     24.59658530619167      6.21712563314336
  Si         11.55865495542050     29.23240701497908      7.75751270599132
  Al         11.64583829274726     35.44564796785289      7.75142506120477
  Si         14.28595304061355     33.76396615992901      7.84665707470549
  Si         14.21706674305425     30.72220615842516      7.79744086847489
  O          10.18572166251451     29.92062355013929      8.28145942909939
  O          10.12295182033923     34.63303688782307      8.17701451498589
  O          13.03488662347325     34.53351477245523      8.47585797390821
  O          12.91445850738612     29.89883144747334      8.36600886398707
  O          11.49302010074836     27.63673627335334      8.13827818307390
  O          14.39580497215145     32.20113894638919      8.42529923686013
  O          11.61257002862577     29.39701858988413      6.12353700935896
  O          11.95470250026265     35.09183421810721      6.03610511440556
  O          14.07612610375299     33.59235602917350      6.22440512149322
  O          13.99756214552009     30.87204293041234      6.17672559219345
  Si         11.63296343639687     38.73806801782148      8.38367240811109
  Si         14.45754506917774     40.07463634412490      7.97610889065141
  O          10.14062392201778     39.57532483957470      8.33749723925086
  O          13.12984813122124     39.52694504771785      8.67726613192097
  O          11.51007616079708     37.09064083646650      8.24603954351447
  O          14.80463513335728     41.66375604549887      8.27934404047893
  O          11.91305681796169     39.04594630706660      6.67264056046153
  O          14.38954857655942     39.76008161333376      6.36040715196689
  Si         16.87490247657069     25.98987944745587      7.89988972651962
  O          15.52804343754318     25.22076913020017      8.41568759138286
  O          18.12197829449214     25.09448065514049      8.46029862796294
  O          16.81538759937184     26.00500889281525      6.25441141200978
  Si         16.93102432548292     29.06172747300470      7.80401021149713
  Si         17.06318609696256     35.33113093037653      7.84216363692920
  Si         19.68673363469271     33.73023728842747      7.86351974505751
  Si         19.55720915385994     30.64398348029225      7.85617168617536
  O          15.52936075487172     29.79304425721935      8.11057629844648
  O          15.73927485544896     34.46700487699639      8.16684968650335
  O          18.39117496427592     34.53611763975935      8.42082745219901
  O          18.17668978296250     29.94083493109394      8.37691337728689
  O          16.91177619550290     27.53667324781965      8.41383373326300
  O          19.70669275366691     32.17377321156886      8.39440878327524
  O          17.17120949057422     28.83185887860776      6.18853074772767
  O          17.35143786628647     35.42785747146933      6.22078849773436
  O          19.56335851731595     33.64793011999045      6.22241859152325
  O          19.50223731820859     30.70426608155113      6.21104737940973
  Si         17.01160342162428     38.39079564408769      7.87907991914044
  O          15.84202114974068     39.31660740713235      8.50541779210456
  O          18.53471450970344     38.89381574283558      8.24867024813582
  O          16.98260718952533     36.84191173252084      8.43496939564761
  O          16.78729419610882     38.31258161817565      6.25008197293522
  O          20.73692342185135     29.63986528397692      8.37982721788928
  O          21.12929108735330     34.34403187608528      8.34027132371700
  H           4.07465748017544     24.98677201113571      8.03659118007073
  H           1.41040902477656     29.60201493205398      8.03674928289400
  H           1.41040900616306     35.00798499055291      8.03674926527775
  H           4.07465743858708     39.62322796909734      8.03659116020106
  H           8.94818092286288     22.17325464634679      8.03830167760023
  H           8.94818087482553     42.43674529718280      8.03830167977166
  H          14.27776159772569     22.17320390793079      8.03828222267609
  H          14.27776172851757     42.43679616531867      8.03828219292524
  H          18.96055641917543     24.87622778838690      8.03640578705377
  H          18.96055654281505     39.73377223049989      8.03640577810196
  H          21.62471723853977     29.49141992178814      8.03658340876144
  H          21.62471733545189     35.11858013628069      8.03658340571583
  H          13.26330472901447     34.13494736824804      5.96347047039974
  H          11.16539177906902     34.82761723196427      5.55700128732011
  H           8.95869310984647     32.78577509576005      5.65827218948361
  H           9.89286476321004     30.31522389801016      5.73773503607829
  H          12.40120863600560     29.89985683454811      5.84317442029350
  H          14.00779025133170     31.82907061870966      5.93102298822824
  H          13.45606826602056     39.43083940777704      6.20681587227650
  H          11.13290886821095     38.88570222430549      6.13816572260340
  H           7.91129448493552     39.50171487208271      5.81636766522461
  H           5.92572536935354     37.55956128987664      5.86619201018886
  H           5.09364421716969     35.01165840571566      5.79923930812774
  H           3.39320892994274     32.92351340440239      5.85336498195036
  H           4.15600785246267     30.18406708082912      5.79047775755125
  H           6.05374820085014     28.11235972994347      5.77023905615454
  H           6.97979279375750     25.59270211735429      5.91662928050372
  H           9.61063856554199     24.93028789818961      5.90051179070333
  H          12.24107753926126     25.52587409335674      5.77948484080074
  H          14.99665725781098     25.04622143152375      5.88802545145202
  H          16.96171673799783     26.89733905585421      5.89542913509795
  H          17.80197516553342     29.45195898850800      5.79776769630030
  H          19.49037436044312     31.61932389689498      5.88499786780977
  H          18.85980231311458     34.23470156874743      5.88959005938360
  H          17.10682534372592     36.29125563752011      5.85144516605654
  H          15.93761617848885     38.74168326209315      6.01019634952799
  P          10.64634174048335     37.89452133395790     11.16967845413130
  O          10.43107059445195     34.28092120195887     13.11012914659107
  O          11.67982467943917     32.66020733753320     10.21824321512256
  O          13.18372123262086     33.00354077692506     12.41553880509904
  O          11.66545463953909     36.74414656796359     11.66844067700979
  O          10.04509641908983     38.59621479669651     12.30835997852282
  O           9.55270303210939     37.07374937626510     10.34838002124724
  O           4.65584131198546     31.74560126416965     10.97532398525471
  O          11.48400828603197     38.68489699641540     10.16652485265386
  N           8.93369137956765     33.28244420766936     11.66709655580836
  N           6.84183674432505     33.96987188606658     11.29028920891829
  N           8.65806027653470     30.88771328253035     11.47553293165467
  N           6.42047085998977     30.32239526362562     11.08991537767881
  N           8.05582656521110     28.66922870629328     11.18739447005225
  C          11.33959479318598     33.72603602427768     11.05877841018844
  C          12.49644752592029     34.15208446754915     11.96086623834925
  C          10.30927430613751     33.31608191102282     12.09635930467494
  C          11.76364073923858     34.81900630721680     13.11359146364478
  C          11.74350453917088     36.33051301729168     13.01373866309593
  C           8.18942112554909     32.15569517623281     11.48424115044969
  C           8.06619592719423     34.34664910721107     11.52477902050380
  C           6.89208230868601     32.59799648510483     11.26136409946061
  C           5.85997070585614     31.62700669268899     11.09176536318802
  C           7.73261874158845     30.00655819666459     11.24693178271559
  H          10.95815715055701     34.58397041924285     10.50343231334353
  H          13.17236406740787     34.84299727444508     11.45084635679064
  H          10.53739613990382     32.30485199686653     12.45281958615198
  H          12.23683461636942     34.53623422446613     14.06074961561350
  H          12.68158514196172     36.71192290610114     13.43610073984177
  H          10.91312352926496     36.74184892485909     13.59300177056771
  H          12.10043207178493     33.07131439665778      9.44749462223789
  H          13.13895180831400     32.38269516284733     11.67383564182656
  H           8.41331232178926     35.36711603986406     11.59067814678302
  H           5.73855550108495     29.58933334537066     10.96575555846896
  H           7.54974450492505     28.14097361997487     10.49050974506821
  H           9.05408210369539     28.55059935340628     11.09758599273229
  H           9.91586929793181     36.81213212793353      9.48375494178089
