195
Coordinates from ORCA-job amp_dimer_gfn_frame03_dry E -14917.811158199604
  Si          3.53185264429144     33.94849420904659      7.84046180778511
  Si          3.43898597213964     30.86171659897759      7.89475058431637
  O           2.31969230766652     34.91807860373985      8.34786297441112
  O           2.03820937880698     30.21952981913555      8.43638716103640
  O           3.43097594041044     32.42031559457618      8.39930268518481
  O           3.58963950780883     33.86441301676683      6.19618463735121
  O           3.51039528305508     30.90195740197976      6.24980731962211
  Si          6.10626090185255     26.22139922971288      7.86693605772822
  Si          8.70848580716113     24.56404452638387      7.88760232256666
  O           4.62032981860542     25.72423187528414      8.33379773501265
  O           7.32923537719768     25.29821933993582      8.40789429451464
  O           8.53084540997042     22.99834266802501      8.32923746039331
  O           6.23201709493666     26.28710129573280      6.22371583204442
  O           8.71271664153994     24.74522154477328      6.24730489772813
  Si          6.08294290626499     29.28312231598971      7.84669503181068
  Si          6.17500394027073     35.51461693300698      7.76937036062884
  Si          8.89132762155176     33.86489415929707      7.72175936279234
  Si          8.87588277064805     30.80008982086595      7.84361921663494
  O           4.77174268053257     30.08374537505209      8.42806747152243
  O           4.90288790275483     34.67506204225950      8.34833970844153
  O           7.55470482605878     34.72558256976339      8.09115423495029
  O           7.43244622330761     30.12015473374240      8.18226471508645
  O           6.19073680161350     27.76485947248082      8.41227131213239
  O           8.78454021701848     32.36568130802356      8.38364364194143
  O           5.81503913377667     29.20934706556123      6.22183394019859
  O           5.96038884417909     35.71069982098954      6.14822440264917
  O           9.03098569347350     33.68853014608036      6.09888308454747
  O           9.10754332969396     30.90370700833273      6.22336225800820
  Si          6.22309155087716     38.59440584363403      7.85679134220273
  Si          8.94771460886826     40.06635909590145      7.85041221409203
  O           4.94628569825675     39.44623486143462      8.41731011170486
  O           7.56090143025219     39.37380783276234      8.37124934373379
  O           6.22541333988125     37.03702279595716      8.36065572136827
  O           9.14181579882672     41.57735709220387      8.43177349536093
  O           6.27906386706917     38.58247595291687      6.21114135998496
  O           8.90872789993104     40.05276463243882      6.20222104575295
  Si         11.39590932639311     26.05104038645315      7.90304475068487
  Si         14.03145053787833     24.51717258058423      7.81333100758189
  O          10.03386975842843     25.31077199278541      8.45954741508866
  O          12.74185770045650     25.32349149031454      8.43106216352275
  O          13.70970569444065     22.94394744466273      8.15871705483468
  O          11.31379224289423     25.83108515195346      6.26607305216939
  O          13.98486522568515     24.78621505380856      6.18119051322672
  Si         11.48123599609842     29.22330970536713      7.93519345390042
  Si         11.57673499321593     35.35640933057780      7.64615544568703
  Si         14.21483878136535     33.77375264731202      7.62935110700969
  Si         14.19776934857201     30.65289997699776      7.84691621158909
  O          10.11619687420570     29.98895171309221      8.49479995561301
  O          10.20149223574496     34.68216547790896      8.23460846493746
  O          12.91190656791376     34.61975099743203      8.18725509241126
  O          12.84540002426644     29.92247275943255      8.45257516103372
  O          11.35267877821625     27.63851592773701      8.24744974354128
  O          14.24174650377774     32.26731076159209      8.19400103192691
  O          11.40774762417559     29.47749226424619      6.29938347786469
  O          11.53522509070891     35.18110915389310      6.01123211053469
  O          14.04814515612022     33.66648593618013      5.99524645292450
  O          13.87807300487235     30.63584539122434      6.20427829061459
  Si         11.61744332886760     38.53400333572245      7.74583644205461
  Si         14.27530214571846     40.06718922645263      7.88240311209222
  O          10.24604021709558     39.20662853481259      8.32702828365870
  O          12.96311022240478     39.21763505268514      8.36106586080918
  O          11.61342933210829     36.94091477067499      8.02246560946487
  O          14.17567148421996     41.58495912276248      8.48166425155104
  O          11.68172386148995     38.87052323429528      6.13246659224430
  O          14.32179110543871     40.05387589298931      6.23484677266197
  Si         16.79229845569069     25.85291665870719      7.80940253782614
  O          15.47062113946992     25.01939163861510      8.33819385664457
  O          18.00418149830469     24.76029414213719      8.00829304348500
  O          16.49522537280417     26.13026213146452      6.20158304700882
  Si         16.96602076307708     28.97986657287772      8.37060922866497
  Si         16.95246375846047     35.40858077373857      7.75467758316911
  Si         19.62414665586585     33.86804846741600      7.88471588276533
  Si         19.60261876767768     30.75934836447787      7.90951964680052
  O          15.54578232117851     29.91150279409217      8.20281330206600
  O          15.57039296958811     34.59622364669767      7.99171291714941
  O          18.25066859650498     34.63456827284043      8.34097159329095
  O          18.37352227623713     29.93764374346638      8.52007060449080
  O          16.99953441855768     27.28835286651467      8.47975267309367
  O          19.60108721071192     32.33953410175550      8.41732182426654
  O          17.14969111342539     28.78049300844060      6.65145656810318
  O          17.25305263083252     35.53773794414236      6.13391564702618
  O          19.67276887705057     33.86416412789136      6.23735109507265
  O          19.47608324325312     30.81141400318546      6.26670787040854
  Si         16.94058292786932     38.49214154537781      7.85253209120626
  O          15.65529489370085     39.36349715241106      8.38419192856842
  O          18.35121493339252     39.08948807877273      8.42003175222493
  O          16.82760667336831     36.94413923465267      8.32507890683882
  O          16.90164951895831     38.54658008874978      6.20492522752586
  O          21.08417484081373     30.21456396434114      8.37731728615386
  O          20.93255127405708     34.63489277574052      8.50447104893391
  H           4.07465743028940     24.98677204404026      8.03659115491770
  H           1.41040897358300     29.60201497574205      8.03674925736170
  H           1.41040905214515     35.00798500141764      8.03674927070161
  H           4.07465743400150     39.62322797531658      8.03659115932051
  H           8.94818084264501     22.17325465224892      8.03830168693258
  H           8.94818087747834     42.43674530853271      8.03830168067478
  H          14.27776170012002     22.17320385544488      8.03828218916169
  H          14.27776170886620     42.43679616609013      8.03828219225654
  H          18.96055658562474     24.87622778142607      8.03640578358675
  H          18.96055653538293     39.73377222809306      8.03640577929088
  H          21.62471721660217     29.49141992203301      8.03658340598242
  H          21.62471723215259     35.11858007855833      8.03658340886260
  H          13.29855965493889     34.17124630858689      5.65282638017808
  H          10.73840674941214     34.72301699641405      5.70374337137055
  H           9.05282797633970     32.74794125819702      5.83694113757614
  H           9.92327060368593     30.40846108750538      5.97561197155522
  H          12.25787972959287     29.85789038997019      5.99032330679297
  H          14.03244631509041     31.49374755068137      5.79016785536016
  H          13.48820528276320     39.74091266281066      5.84959371088410
  H          10.83666382796106     39.15328772450383      5.76038139902974
  H           8.11790548602906     39.61625861928778      5.85407994505055
  H           6.14938266928353     37.69361046902549      5.84371468476606
  H           5.31672481876819     35.10128782108004      5.76313003562608
  H           3.58544096891675     32.94897655004741      5.87591718974125
  H           4.22243724216513     30.33512661872900      5.90585201057852
  H           6.01385817876471     28.33860439134383      5.84589986419264
  H           7.03114503743749     25.82820080677167      5.91200170668553
  H           9.57418623567495     25.08545397003964      5.93900831604291
  H          12.17073522206492     25.54716497042675      5.90253486532727
  H          14.77663909192124     25.28956567833794      5.90560241217315
  H          16.66788498842709     27.08697127260987      6.05410100040933
  H          17.45401172246599     29.56832943558180      6.19656288293926
  H          19.61346921484972     31.69618462223093      5.90872999952560
  H          18.94857100932076     34.38171435488228      5.85508358044331
  H          17.08252466911836     36.41487328424158      5.77149256265194
  H          16.11375464469548     38.99740404699187      5.86935653497723
  O          17.07756670200246     26.71697336048037     11.25987319829468
  P          16.19861490849012     27.86494283035671     10.99805282763963
  C          15.45904438368700     27.70664132324835     13.41645392636290
  H          16.35168713236312     27.24269006180413     13.84394580125231
  H          14.83021551794663     26.90831376132135     13.00732991617468
  O          15.83801598480450     28.61475846498102     12.38860301563875
  C          14.66356723176929     28.40460919107534     14.48373666789708
  H          14.24534789489783     27.63436046330290     15.14433962312110
  O          15.48970388158269     29.27372443109364     15.25502916640737
  C          13.51738719524752     29.26079185345842     13.95732063939725
  H          13.77992037384977     29.67090018877490     12.98129109235222
  O          12.32977312050636     28.50616442750954     13.90274065218878
  C          13.40683856962180     30.36001302495133     15.01472171355304
  H          13.02920994292981     31.30428765258493     14.61400273061446
  O          12.60622904559291     29.91058918626015     16.08415269554822
  H          12.03015677693806     29.23549246563676     15.69641221630969
  C          14.84445732502894     30.48719451142336     15.51340264332325
  H          14.83170953401449     30.70204536079183     16.58546293522653
  N          16.17367056501590     35.44275906131536     15.63938405993589
  C          15.32558422499948     34.73099756736764     16.38458857259510
  H          14.82434251184517     35.28532553564749     17.17449816289823
  N          15.00255031421255     33.44981434348662     16.28348739973508
  C          15.67238834249246     32.85339905382836     15.29783896352997
  C          16.61569706859208     33.45213122123518     14.46602729559566
  C          16.82711195757458     34.82072357742219     14.65386159056126
  N          17.68850679576292     35.52614583102878     13.87586475540778
  H          17.55962458052029     36.52363672768358     13.91693313827595
  H          17.83908679981971     35.14339709410922     12.95115727852988
  N          17.13842818044429     32.54243456571237     13.58274174800650
  C          16.51564014370898     31.42852682704446     13.85522006447738
  H          16.65126502609227     30.48784041179340     13.34160283240769
  N          15.61016347209059     31.55112307274723     14.88308526428163
  O          14.79875944848411     27.45082292334549     10.41030905727667
  H          13.96646610596551     27.84699178931987     10.78978871411481
  O          16.76792714303980     29.03065012451834     10.13496514399035
  P          11.50237126689559     28.31142076516775     12.49615364317788
  C           9.94152759451775     30.34864524281787     13.21573822993262
  H          10.24295265093751     30.14752749299879     14.24942384853474
  H           8.94225230423392     29.92488351752020     13.06228963836046
  O          10.85434163342592     29.79886190752345     12.30546880953659
  C           9.88759945511172     31.84534801174992     13.00301538898668
  H           9.07124452532611     32.25712365802909     13.61104426659790
  O          11.11488927477323     32.44784566425767     13.39787916862969
  C           9.67190282072246     32.26074336970841     11.55284945587405
  H          10.12306653701227     31.52094002383390     10.88772578549198
  O           8.29048758592729     32.40479443640175     11.29149200175054
  H           8.16986294207554     32.33990443637042     10.33708158421322
  C          10.42168587722511     33.59175599545282     11.46635570355089
  H          10.80640747139378     33.80255221567815     10.46543776510597
  O           9.59427787552462     34.63470799060580     11.91749495799283
  H           8.68944430109678     34.32050407614651     11.78047996418541
  C          11.56555859616766     33.38742771362543     12.45102277655423
  H          11.81605702227149     34.33149480979489     12.93926230049067
  N          16.38676219480582     34.49384463138396     11.04146522500731
  C          15.40501674016518     35.26161641869788     11.52238503537904
  H          15.66517628472897     36.30843175192705     11.66012517754084
  N          14.16576513075186     34.93209053594165     11.85676989194242
  C          13.93659266107437     33.63555719569889     11.63469566657678
  C          14.84283329739708     32.72340040164695     11.11790646314707
  C          16.13089426927335     33.19072854446767     10.82882944505455
  N          17.05590085373072     32.37425892183770     10.32793748804194
  H          18.00269724229734     32.69129858843129     10.23539410430442
  H          16.87860647824603     31.37926817812642     10.30598217228315
  N          14.27697984081425     31.48295878754357     10.97933296496914
  C          13.05472519475830     31.63329295523828     11.39958148724627
  H          12.31470971860200     30.85068625409047     11.44564266701254
  N          12.78283671283476     32.91421943774466     11.82901942109784
  O          10.45082448721235     27.32573040666613     12.78178344039242
  O          12.48011525223462     28.23323367674465     11.37766710327235
