35
Coordinates from ORCA-job cmp_prot_geom E -1458.150501028051
  P           3.09258883999683     -1.69209169687332      0.25710203718052
  O           0.35830529919077      1.28082363148786     -1.28366162570179
  O           0.69695016009031      4.10456406325576     -0.21463656440021
  O          -1.68476746186654      3.25085134436824      0.71782271202004
  O           2.48955712360710     -0.32986960710433     -0.40367297270770
  O          -3.33892316877537      0.97408577410101      0.38442128870102
  O           3.43648486331952     -2.55963043780041     -0.90059093682058
  O           2.19623484770494     -2.15669218860028      1.34966643429899
  O           4.43937975372803     -1.16236410592439      0.98764647243420
  N          -1.41216345103526      0.03084990952455     -0.37814412450973
  N          -3.16716128980899     -1.28442078233159      0.37446395291706
  N          -3.06672585381328     -3.58210194227116      0.43011783544166
  C           0.68884526067613      2.85148920831164      0.41816463058321
  C          -0.71747945316713      2.25412644998145      0.58940514736374
  C           1.38419315051025      1.77223891201204     -0.39908667288420
  C          -0.88251716079026      1.39087416852149     -0.68223264499511
  C           1.98198951320371      0.67448074023824      0.45064614142329
  C          -0.70834650992532     -1.09198943681175     -0.64016518635753
  C          -2.68115726552751     -0.01877136162352      0.14142306908046
  C          -1.19788056363962     -2.32855892855424     -0.39205326569961
  C          -2.49585329320918     -2.43547943606087      0.14727738065933
  H           1.16963991689857      2.99712410955436      1.38617962656360
  H          -0.70609947614465      1.59307313462628      1.46437584307684
  H           2.15487571684630      2.20076480299509     -1.04101233003453
  H          -1.59732281199502      1.84520847321212     -1.37292657278922
  H           1.24313926055957      0.24503434953833      1.13583072610345
  H           2.78444488608900      1.11168348415123      1.05549294793496
  H           0.21059956207238      4.05082231499121     -1.04475506596750
  H          -2.53603195462849      2.79095447763205      0.74845523380293
  H           0.27786969383178     -0.93339790023335     -1.05593857894410
  H          -0.61608508480021     -3.21403701868801     -0.59767494001636
  H          -2.56719798434663     -4.44181981175771      0.26690365073718
  H          -3.99638569228763     -3.64145414252084      0.81576971018570
  H           5.13287696203100     -0.96963552294225      0.34626817968985
  H          -4.10517633459510     -1.31161502840495      0.75762846163010
