161
3 Eopt=-23.1947790073 (Eh) Einter=-39.479613 (kcal/mol)
Si 3.55624979841579325068 33.84481353756117272269 7.82283073592830735521
Si 3.55593599364984314093 30.76681371291211064545 7.82283165646061373621
O  2.14730566344588069683 34.47995710736113039729 8.40980819157330650171
O  2.14686235311431872219 30.13195800690411019218 8.40980961812932648058
O  3.71008468594565066212 32.30579810938066032122 8.41283323502651825265
O  3.55527641252087533985 33.84681298289013540170 6.16683047777056980721
O  3.55496208840403848939 30.76481348921938163699 6.16683146979857266246
Si 6.21946586291222835996 26.15154206187967034225 7.82287393699658295532
Si 8.88330921869963496817 24.61427032257048352903 7.82291554141072698059
O  4.81039181981710139979 25.51668623301624450050 8.40985212814847571394
O  7.47536479463449143879 25.24941401312405275803 8.40989357650397018062
O  9.03814384301584894388 23.07525464043755647481 8.41291806249709317456
O  6.21949137276523700280 26.14954191344434519806 6.16687394279305234335
O  8.88333532827661542797 24.61627018285118850827 6.16691554185269463773
Si 6.21977965359221052211 29.22954187147198723551 7.82287340264162267545
Si 6.22040694774953184520 35.38154176309300424919 7.82287166513968035275
Si 8.88425012589170037813 33.84427023704292025741 7.82291376649611436278
Si 8.88393630142446077969 30.76627024824044553952 7.82291463019562183234
O  4.81083524641487780826 29.86468592303423008616 8.40985133808104023956
O  4.81133299210052545192 34.74668573498072277062 8.40984985183061262148
O  7.47630573420063537782 34.47941393837938051092 8.40989159062156410585
O  7.47586232044410792241 30.13141413928649825493 8.40989277921321765064
O  6.37361352442730755286 27.69052644198065493697 8.41287612053125499756
O  9.03908400343074447392 32.30525462993871599338 8.41291665824723011724
O  6.21980561077887905697 29.23154164938285859421 6.16687340492519009416
O  6.22043260607775660986 35.37954121888523673078 6.16687164863802106396
O  8.88427616594076496881 33.84626969201071489124 6.16691376366546606391
O  8.88396188649694451556 30.76426994284080862485 6.16691460817989955956
Si 6.22072075250450584605 38.45954160483384498548 7.82287044075533621879
Si 8.88487749793345926719 39.99627009483869954920 7.82291135291085737435
O  4.81177610610228168042 39.09468497632234829098 8.40984815289548492956
O  7.47680356782289123885 39.36141385622546806644 8.40988966353251043984
O  6.37455462302472231073 36.92052623250577880754 8.41287352475862171275
O  9.04002569362958396937 41.53525449283503689912 8.41291308190108999554
O  6.22074678612487019791 38.46154080494163451931 6.16687043959766256762
O  8.88490322598074655502 39.99426934456842985810 6.16691135395323453139
Si 11.54846575542564757200 26.15099867921908582957 7.82295698235362202411
Si 14.21330911530166574153 24.61372707263738135453 7.82299879686490928776
O  10.13939192943460021468 25.51614235718111700635 8.40993508460498162549
O  12.80436466496337644116 25.24887074062142389153 8.40997670747546521852
O  14.36714371781934218575 23.07471152393478419640 8.41300136409054566400
O  11.54849138182681400622 26.14899848637983126309 6.16695698266262315457
O  14.21233531243735015437 24.61572701467788704122 6.16699878114707900068
Si 11.54877946852995052041 29.22899860261288296215 7.82295650838521527959
Si 11.54940674244849674324 35.38099852954786683767 7.82295479942605176404
Si 14.21424991866046738664 33.84372686822902664971 7.82299680136121633467
Si 14.21393603164705332631 30.76572694349063752384 7.82299768856769173198
O  10.13983509193729304343 29.86414239845623797009 8.40993441038192557357
O  10.14033289433054818574 34.74614236811805767502 8.40993306887316549592
O  12.80530558736048085677 34.47887069151194339156 8.40997468714714990767
O  12.80486219122111357649 30.13087074062050518819 8.40997590531551075799
O  11.70261341754693162898 27.68998304661281650851 8.41295918205121040501
O  14.36808380192017153831 32.30471138058024394013 8.41299968267472308980
O  11.54880548306610066334 29.23099829219184542239 6.16695650457621979967
O  11.54943234040271171637 35.37899793402749537563 6.16695480130946016573
O  14.21327587071941067620 33.84572642425612798434 6.16699678565772213545
O  14.21296158959905575614 30.76372665004843653946 6.16699767054258707333
Si 11.54972065803409364548 38.45899842489734510309 7.82295359226534436914
Si 14.21487735428026866202 39.99572667032420980604 7.82299441751789093047
O  10.14077630367738080963 39.09414231229922620514 8.40993138116694360917
O  12.80580347701119947601 39.36087061220197114153 8.40997276717927633172
O  11.70355452276667129752 36.91998300236156893561 8.41295663505718493980
O  14.36902552307915748031 41.53471116358436887595 8.41299609779205148641
O  11.54974665235092246007 38.46099771191595806386 6.16695359150957500560
O  14.21390301442679060528 39.99372599910576298043 6.16699440302944523751
Si 16.87746539917147714505 26.15045546543498744541 7.82304011498392437574
O  15.46839169473639863384 25.51559922185402840000 8.41001837199052459937
O  18.13336401817723597674 25.24832717950983251853 8.41005977550186223368
O  16.87749085155665085267 26.14845510350175317171 6.16704011560817910720
Si 16.87777918052706382923 29.22845537946531635498 7.82303948020462325275
Si 16.87840650205568948650 35.38045526707664834021 7.82303765215313706705
Si 19.54224959874274958338 33.84318370348953664006 7.82307943930443627778
Si 19.54193573095900049452 30.76518362550398322242 7.82308037193343785987
O  15.46883485757320819687 29.86359915569556733317 8.41001744328295508524
O  15.46933269791600373821 34.74559912786483550917 8.41001601457428549224
O  18.13430534091785517603 34.47832742223018698269 8.41005747963649064047
O  18.13386196599589794687 30.13032742019602849837 8.41005879031751746311
O  17.03161313514860353280 27.68943984307811945200 8.41304221827738096806
O  19.69708353896481156653 32.30416803809466586017 8.41308232676971279318
O  16.87780511008808304041 29.23045500239813776489 6.16703947980237643378
O  16.87843199470718147381 35.37845465741340689192 6.16703765309399720707
O  19.54227536088349381771 33.84518324299744307382 6.16707943894413368469
O  19.54196108727642311464 30.76318307834991472305 6.16708037281924248418
Si 16.87872042549242124210 38.45845522894201451436 7.82303646022136334182
O  15.46977615194531097131 39.09359903579681372321 8.41001439947877216241
O  18.13480302861472992504 39.36032777484203393215 8.41005555168105622954
O  17.03255432141961378534 36.91943977498692674999 8.41303947246117012071
O  16.87874623692015063625 38.46045460899686929679 6.16703645967260882799
O  20.79783428702660330600 29.86305523100412528947 8.41010005882536404442
O  20.79833211850040441959 34.74505628373745480530 8.41009857302376140353
H  4.07465742929102159309 24.98677204132197715580 8.03659115461763917665
H  1.41040896308738439302 29.60201497836775175188 8.03674925639903747765
H  1.41040900589144868604 35.00798498540696357395 8.03674926631011565803
H  4.07465743660376400470 39.62322797217314018781 8.03659115986284255939
H  8.94818084692624537979 22.17325470609949888967 8.03830168963738245225
H  8.94818087839385256643 42.43674530330679317558 8.03830168073762862946
H  14.27776169773945191821 22.17320385279022332270 8.03828218825895923771
H  14.27776172869387139031 42.43679616363888840169 8.03828219214372907686
H  18.96055658448422320816 24.87622777377863769743 8.03640577884624462968
H  18.96055653558419606952 39.73377222677832065756 8.03640577822899437876
H  21.62471722976446386610 29.49141993089033064734 8.03658340867787401862
H  21.62471723477835894300 35.11858007483852617270 8.03658341031411183053
H  13.43954240673258837546 34.27033906242130711917 5.76911863107946665252
H  10.79702478200782955753 34.91824967626583031688 5.76839602509271287545
H  8.90770700602677401037 32.96594596366431062506 5.76499475618715528924
H  9.65945432878431198276 30.34299409116055912250 5.76888005087826449824
H  12.30259136295070732103 29.68912269560163963433 5.76803922561508208844
H  14.18560353517512950816 31.64418151975408832755 5.76552258392695549105
H  13.46208429046987120614 39.53603768198131973577 5.76468154407456623289
H  10.78553467866269777176 38.90473306683254861582 5.77122838976162366720
H  8.14831461449205107783 39.50994490506728595847 5.76699955036195710534
H  6.23317386280494645234 37.58286575622417302611 5.76180503619795647552
H  5.45415701414901477051 34.93908510512433451822 5.77152547800398174616
H  3.60566382807635665841 32.96814933363844346559 5.76410508852654857037
H  4.32812543836639740391 30.34544672238746798598 5.76331957366205038795
H  6.21212642579634710671 28.34933201352239962034 5.76816829291185495521
H  7.00946743351326961857 25.75759721927348522286 5.76754704181298905041
H  9.64012207135359489030 25.06582757767451141717 5.76488469561885885639
H  12.31500792558955481582 25.70853944704234805840 5.77192568456026222634
H  14.95343799045901533873 25.09203406455248952511 5.76610003219242095440
H  16.85241664021647167715 27.02653749609260813713 5.76116217504011540740
H  17.64630213792084845181 29.66655897895402205222 5.77122747419241832745
H  19.48194552511116128812 31.64158903501476416409 5.76482831426395581076
H  18.77355784191661314253 34.27390176099192586889 5.76498788540752382659
H  16.88031298498418664167 36.26100719846022002457 5.76894103315759920747
H  16.09309773697314938090 38.86024083822814390032 5.76722976413041088506
P  8.52143466154955930847 37.17863133543876585918 11.14205922654567793018
O  10.92882937076712934754 34.50899320975420181412 12.92570882736603188334
O  13.83011901916716723804 34.11019091808567083035 12.00922060405998159638
O  12.49476157531700870607 32.05938422312659241697 10.94733438919102930242
O  9.76880169340337545236 36.78097949618447870535 12.09010676953859508842
O  9.95778883943156856162 30.77448388875639651019 11.39809380391971416202
O  7.25550412244763354153 36.57428887524338279036 11.70149188749116220265
O  8.78883968277553151438 36.69915110354570941809 9.73126214482920381954
O  8.44558975055436533808 38.77163176122776633292 11.07341273290677108321
N  9.45442526445066278029 32.96773880236028730906 11.80359513077100963585
N  7.84722886676745723378 31.49533077279205173227 10.89964721270913372564
N  5.78210032810324392472 32.35024993319865416197 10.09337298981870034709
C  12.67777989397784565995 34.50232009247861242329 11.30372625174821976657
C  11.78440580919254010439 33.27332881641248008009 11.02473272070070819950
C  11.75259214463645385251 35.40115069991784935155 12.17097131139547450118
C  10.81611782725180859188 33.25491995066956008031 12.23425584800804521990
C  10.85640447164133526314 36.32961938469463092360 11.33255845134465822355
C  8.55790232604023515250 33.98814074940139562386 11.72285032479700461749
C  9.13460892843584382206 31.67580996799380343987 11.37840205072117427676
C  7.32463515660787134465 33.79467843646528280033 11.19896212608692387391
C  6.95343705172328174768 32.52490194947111490364 10.75205866665483078748
H  12.99729065080707712809 35.01285110626919561128 10.38371279448071504703
H  11.22138184263543791985 33.40260432902396559030 10.08641590471689930553
H  12.34039978193436581932 35.96836292228416454009 12.90713302859559163949
H  11.12533119561818040211 32.47828121877648044347 12.94659877187737606619
H  10.44226291675789042301 35.77103829199483442380 10.47565148353731068198
H  11.39915467269771198744 37.20175375127701045130 10.93272428741900625937
H  14.12629991739662749239 33.24184918789907783321 11.65685446155380589062
H  11.81637627180081118183 31.34966321955015899903 11.00037982520949597642
H  8.87187078258388162055 34.95887684764249314640 12.06538484485604456609
H  6.65228757739743237209 34.62814315251790020511 11.07931294740196648263
H  5.31651833956718622431 33.14287088782413803756 9.64622341984957820671
H  5.52853392283409128538 31.48991349117545013314 9.61484064537914839832
H  8.09391163386403000857 38.99931742018826952290 10.18811878517619362583
H  7.62728053261764671333 30.59173999730072779357 10.49096226008672338992
