161
Coordinates from ORCA-job /data/Seafile/cmp/protonated/frames/frame11/cmp_prot11 E -13392.646576768417
  Si          3.50201162250713     33.89849007479912      7.79068047418468
  Si          3.46144519688681     30.79062870921468      7.81076038522680
  O           2.28939069384308     34.79897112543149      8.39692799723174
  O           2.17576402781661     30.02997427150462      8.45872266690135
  O           3.46261556969128     32.34960165527738      8.32400322569707
  O           3.51440212248012     33.89190217820210      6.15287278865691
  O           3.43301894776025     30.83909762004232      6.17505652255173
  Si          6.14596749995679     26.13980011733252      7.79975557604486
  Si          8.82397193184326     24.54563503800531      7.79196107597465
  O           4.79899096828698     25.49209349788378      8.44395742312225
  O           7.48763888438759     25.34809020645195      8.30813607064456
  O           8.76779667199649     23.04733854488503      8.42969722786163
  O           6.11911050609288     26.15239715055291      6.16239742996572
  O           8.78230590882891     24.54258096503007      6.15642662058336
  Si          6.12800654442842     29.22969439058472      7.70530077576891
  Si          6.17103829512978     35.44787405828161      7.70274401970792
  Si          8.90665223018718     33.86605544517370      7.69141140540974
  Si          8.87267922206648     30.79614359283493      7.66843928031584
  O           4.84600375112146     30.05113335586741      8.30226454975719
  O           4.89462103143493     34.61829807884903      8.29124009517431
  O           7.56132487137944     34.68557063683110      8.10434506333734
  O           7.49481096667371     30.04098747822810      8.08816388421882
  O           6.21043087462559     27.70898432782939      8.29339454136573
  O           8.83786875989292     32.32835394473113      8.25453612074151
  O           5.92013377641699     29.17640134683152      6.08349102080020
  O           6.03865622337665     35.58143767698385      6.07849097442329
  O           9.08124910026905     33.82573297306936      6.06429185130930
  O           9.00161368413199     30.91982786928632      6.04275841302786
  Si          6.19835808839726     38.54528982566043      7.79351882628427
  Si          8.91262993653861     40.06674966242989      7.78959250447099
  O           4.94183832097288     39.37523464419501      8.40765888020986
  O           7.57235693059925     39.27939388265390      8.34975931326666
  O           6.20670048304952     36.97890040208558      8.28249437360751
  O           9.02329818638958     41.55277283606065      8.43745724684338
  O           6.26921089960676     38.59702819216962      6.16040773080540
  O           8.87324013952286     40.07833003506993      6.15805346401968
  Si         11.51420930744818     26.07556839607781      7.69744636151761
  Si         14.19497768588013     24.53804766282301      7.78785982517323
  O          10.16661634344815     25.36002231147012      8.28603492772662
  O          12.87324517928642     25.38536439438266      8.28246490444674
  O          14.02277491061308     23.03964636214590      8.39929468057317
  O          11.46065100510734     25.88707097329209      6.07343548973855
  O          14.19779271697322     24.54438314127716      6.15016382192958
  Si         11.51919472412301     29.23578595070971      7.67443300359596
  Si         11.57823347509902     35.37086946066333      7.70530489642000
  Si         14.22288262351119     33.82146993720865      7.70163809331164
  Si         14.18507953000820     30.75418430326946      7.70617766459221
  O          10.16626759335018     29.96878197699388      8.24424891252989
  O          10.22025356014239     34.65609869508772      8.27576141154499
  O          12.93224288707231     34.64572965073368      8.28646515376410
  O          12.86258764124480     29.96270077087230      8.27907105127560
  O          11.48869012430244     27.66346902538958      8.09246350386564
  O          14.25216796443861     32.28661308868919      8.29160013990346
  O          11.50167103809045     29.40841591879488      6.04967810956008
  O          11.62262932858307     35.19608093515819      6.07925842357102
  O          14.08037323379049     33.69172004696104      6.07754007360205
  O          14.02457530299659     30.81321133793895      6.08036703729631
  Si         11.60204599077019     38.52357239014425      7.69903702169525
  Si         14.28214737858448     40.06535867850770      7.79624852347805
  O          10.24408539118893     39.23035713286605      8.26373566548193
  O          12.95346630538872     39.22855421665649      8.28808281662335
  O          11.60790048675478     36.94405957766445      8.12056853731886
  O          14.25309224783521     41.55567053803993      8.45142835936926
  O          11.67557271175022     38.69732109623131      6.07494932458773
  O          14.33607529333601     40.07390310208048      6.16089049795615
  Si         16.90404777991257     26.06482708149310      7.81142862691332
  O          15.55586801189945     25.27919432794129      8.32100338759520
  O          18.21253995766658     25.33896620522306      8.45386758952268
  O          16.87418862797394     26.02488418489044      6.17558573563262
  Si         16.90935713654454     29.15680977232288      7.72956023023093
  Si         16.97057954661447     35.38338989819520      7.69997043215103
  Si         19.63699269647864     33.81663878378244      7.79777177874558
  Si         19.58176135032671     30.70171153958776      7.81129826742963
  O          15.52278508751685     29.93004632405299      8.12708387877722
  O          15.60891920655479     34.57102264435245      8.10090724388826
  O          18.26353483740027     34.57657888146027      8.29393871350100
  O          18.18971085813277     29.98284249888174      8.31820841778911
  O          16.84392329759227     27.63055950274899      8.31272651936975
  O          19.61130454489899     32.25955395060977      8.31868583330389
  O          17.05341299331990     29.02471266167540      6.10573551764366
  O          17.16175029531778     35.41611850395569      6.07507759846510
  O          19.65229705068999     33.77615465078113      6.16226485352295
  O          19.56578579559232     30.67296307781550      6.17331610991191
  Si         16.95692828155461     38.47675720956774      7.77875791515238
  O          15.63369081356378     39.28781945466499      8.30417902461446
  O          18.33796924635153     39.07861067173225      8.39517369504658
  O          16.89167073176510     36.90881491158215      8.27083778508461
  O          16.95266099819095     38.47384982817137      6.14113652546667
  O          20.81429913763012     29.84595006631257      8.44153197123662
  O          20.96775747199413     34.51415352195940      8.42735544389662
  H           4.07465741178354     24.98677203485102      8.03659115557973
  H           1.41040898702904     29.60201497718319      8.03674925909959
  H           1.41040893809267     35.00798502165796      8.03674925642313
  H           4.07465744795328     39.62322797251538      8.03659116057135
  H           8.94818084027286     22.17325472353207      8.03830168953669
  H           8.94818083028632     42.43674532603361      8.03830168757942
  H          14.27776169486422     22.17320382794878      8.03828218841222
  H          14.27776170169377     42.43679615582155      8.03828218433465
  H          18.96055669552181     24.87622771537028      8.03640577736447
  H          18.96055651507779     39.73377221360736      8.03640577754008
  H          21.62471721511070     29.49141993705876      8.03658340852313
  H          21.62471724474517     35.11858008253885      8.03658341068661
  H          13.31071281317823     34.15719646195923      5.71065086173368
  H          10.83222863852645     34.77061129548797      5.70810736195741
  H           9.05380635287865     32.93327726540525      5.68432075988996
  H           9.76446099969544     30.45405052441744      5.66554090290106
  H          12.28774333429732     29.84946254128943      5.68853996430792
  H          14.03425163195405     31.71315901959051      5.71487009337757
  H          13.52871403021630     39.76125849603822      5.72854938880372
  H          10.86464125402546     39.00085628773620      5.64740877401684
  H           8.10705920013543     39.63314044615745      5.76764769239100
  H           6.16052669306459     37.74084982374010      5.72240332495300
  H           5.33499124383827     35.05053631410972      5.68029300795674
  H           3.50755407079870     33.01019132198461      5.75471323290145
  H           4.10513623164031     30.29086319733246      5.74539913934666
  H           6.03111430939494     28.30160478343413      5.68592561041290
  H           6.85506042667777     25.69001371742979      5.73956442140151
  H           9.58381991921481     24.88119604078080      5.73266093570423
  H          12.27188621241660     25.54482446724392      5.67352973628564
  H          14.95975671044014     24.98768805118490      5.75185097886452
  H          17.01157089664478     26.88261795306149      5.74888584475733
  H          17.76445280142434     29.55569114238747      5.71909971463079
  H          19.60257359831874     31.54181273638915      5.75088010667202
  H          18.95394282986899     34.29854479652516      5.74195635543918
  H          17.04582328362000     36.28411428607495      5.66537396658495
  H          16.19715045109674     38.92544633083957      5.74027339332916
  P           8.35012823580488     37.72809870781382     11.99055916655353
  O          12.29029967298141     37.27109241188706     13.23723778808464
  O          14.33243238393881     39.35614475541131     12.70993239528783
  O          15.16677648808100     37.33923622894000     11.25392980335783
  O           9.75186129410780     38.26348786704203     12.61567454353726
  O          14.69290814586259     34.55426597883002     11.43684202439998
  O           7.49092638740048     37.44864538542632     13.16975692690124
  O           8.63603595354995     36.67906793288788     10.96936624562923
  O           7.77753778555200     39.04870527073884     11.25187921625742
  N          12.62361502788742     35.27202821190546     12.05840373882583
  N          12.93480655039945     33.15312689812086     11.17445145189591
  N          11.19987806271678     31.69779116348451     10.78887564470590
  C          13.37007626551902     38.81108095652586     11.83799779483351
  C          13.77803197755613     37.40413460131200     11.40187510441084
  C          12.09325170042985     38.55404199180076     12.61219677751634
  C          13.23679743002562     36.53372053500622     12.55115033019978
  C          10.84127504343276     38.55849404582364     11.76643358373761
  C          11.29409658355156     35.03831644696103     12.10940941944254
  C          13.49952222887365     34.34685765963084     11.55078551935318
  C          10.74958866013368     33.87306351142677     11.68891581119135
  C          11.61328671399024     32.87090219973294     11.20434826022106
  H          13.20249904163166     39.46367344309876     10.97552254750990
  H          13.26289533751337     37.14151052992787     10.47111779857821
  H          11.98418344509437     39.27592416807554     13.42344415082392
  H          14.04558467232538     36.22714812485777     13.21997638347578
  H          10.90533475433130     37.81957485039741     10.96014423075488
  H          10.72054104123609     39.54822024069166     11.31221904905371
  H          15.19062569715330     39.01733497538590     12.42002927356567
  H          15.40330341584351     36.40115595557688     11.20140126144141
  H          10.69146268467591     35.84365473347889     12.50536506692872
  H           9.68334962538181     33.71001647975852     11.71900667278176
  H          10.21774200109370     31.47721561058969     10.81285787496839
  H          11.83674373034990     30.99913200743300     10.43781984632770
  H           7.80952929155183     38.97038363566971     10.28757137252847
  H          13.59215345956095     32.47480581041516     10.80713376444224
