161
8 Eopt=-23.1879247852 (Eh) Einter=-35.178522 (kcal/mol)
Si 3.55625019689406851597 33.84481352179312807493 7.82283052395839906268
Si 3.55593639356571600274 30.76681374921312439596 7.82283149590996451650
O  2.14730565080599689054 34.47995712107387333845 8.40980825223328309903
O  2.14686231986645204017 30.13195801645905902433 8.40980966038280897124
O  3.71008409349984535908 32.30579811954867608392 8.41283350936281060228
O  3.55527628704841980323 33.84681297584680237378 6.16683050726335491021
O  3.55496202326694188400 30.76481349813343513233 6.16683148089041477391
Si 6.21946585149125752423 26.15154206469244613231 7.82287394191641283214
Si 8.88330922210952067530 24.61427033158387445155 7.82291554225467500316
O  4.81039181912643254435 25.51668623362755994322 8.40985212637111878564
O  7.47536479265418840612 25.24941401074794455894 8.40989357711832852260
O  9.03814384289509042958 23.07525464005686188784 8.41291806255382113022
O  6.21949137448470246170 26.14954191171147002137 6.16687394246381082041
O  8.88333532773039280528 24.61627018263268240617 6.16691554167465039171
Si 6.21977960348609304475 29.22954198860233177015 7.82287340523830732053
Si 6.22040692346696211246 35.38154178949694284029 7.82287165257739225410
Si 8.88425016951453372371 33.84427018719680546610 7.82291377477510074812
Si 8.88393627151814335718 30.76627031459262440194 7.82291460260297544238
O  4.81083522049720624381 29.86468585893346272542 8.40985130298000527205
O  4.81133299224282584561 34.74668571354818169539 8.40984984574773086763
O  7.47630573513053686696 34.47941393507160512399 8.40989159797214291814
O  7.47586238886070475473 30.13141403625517256160 8.40989279951986290484
O  6.37361355190541090110 27.69052643055399798300 8.41287612237952586725
O  9.03908398600256290933 32.30525462924867952097 8.41291665548691014465
O  6.21980562023176020148 29.23154162476186712638 6.16687340476804646272
O  6.22043261151699677924 35.37954121051246403340 6.16687165174401030754
O  8.88427616135672160169 33.84626970266249657016 6.16691376196314067215
O  8.88396189358050847318 30.76426992966241158456 6.16691461314862188203
Si 6.22072075448921957275 38.45954157655752680967 7.82287042808722610232
Si 8.88487734837698717172 39.99626974094262976678 7.82291119969048320826
O  4.81177610766518615293 39.09468497215401328049 8.40984815996096557456
O  7.47680356409414592633 39.36141396154132365837 8.40988967696165623522
O  6.37455464009661998404 36.92052622385153171081 8.41287352275139532765
O  9.04002576648616340549 41.53525455857380421776 8.41291310865688402032
O  6.22074678407008363479 38.46154080738259040118 6.16687044385683247327
O  8.88490325850123952023 39.99426940865737378772 6.16691137987220905359
Si 11.54846575585793466701 26.15099867880370965167 7.82295698234694381057
Si 14.21330911522704454342 24.61372707277115523539 7.82299879684970456140
O  10.13939192841602832118 25.51614235749088166472 8.40993508420484836563
O  12.80436466474844081631 25.24887074060730185465 8.40997670746913250639
O  14.36714371845350513013 23.07471152269265957102 8.41300136402582054984
O  11.54849138177633349756 26.14899848642543034316 6.16695698266779501751
O  14.21233531243117020892 24.61572701471844482057 6.16699878115243294019
Si 11.54877946110468478480 29.22899861543201183167 7.82295650405187181775
Si 11.54940693216135727539 35.38099852340379669613 7.82295477677294925911
Si 14.21424996186658518127 33.84372689093559216644 7.82299679015306281826
Si 14.21393604330423698912 30.76572695528899714645 7.82299767885029329051
O  10.13983509611104594228 29.86414239319160657260 8.40993441777558281558
O  10.14033283297857757077 34.74614243679674530085 8.40993306364269344044
O  12.80530552528940368973 34.47887065101171799597 8.40997467643054896769
O  12.80486220028288890660 30.13087072234176133634 8.40997591159972479602
O  11.70261341812487287939 27.68998304563020340652 8.41295918390844299495
O  14.36808377936958791565 32.30471137987306917694 8.41299969035457095856
O  11.54880548643674664788 29.23099828726946469715 6.16695650525172567313
O  11.54943229512154267979 35.37899795040705441806 6.16695481218602736817
O  14.21327586188414571211 33.84572641739946874395 6.16699679098252762088
O  14.21296158394358322141 30.76372664715751525932 6.16699767160526146625
Si 11.54972060701604164024 38.45899869445882757191 7.82295339308423098856
Si 14.21487716577892967962 39.99572689810575809588 7.82299418002906676861
O  10.14077643257411764921 39.09414258225905314248 8.40993151071514510875
O  12.80580365685875676718 39.36087013020893721205 8.40997294383826243802
O  11.70355433470970929477 36.91998293262786745572 8.41295670602337075650
O  14.36902556721555335173 41.53471115596865104180 8.41299612661580198392
O  11.54974665620237139763 38.46099765886960852868 6.16695360255972779839
O  14.21390302635800573228 39.99372598048569926732 6.16699446443661347672
Si 16.87746539906105525120 26.15045546535974096969 7.82304011504879426298
O  15.46839169466760921523 25.51559922181605344349 8.41001837192522394560
O  18.13336401756281546227 25.24832718046099344633 8.41005977586923414435
O  16.87749085160823270257 26.14845510347429069498 6.16704011558184550523
Si 16.87777917985258824274 29.22845537859191011876 7.82303947976186542235
Si 16.87840650473287240629 35.38045526648068062059 7.82303765255877703311
Si 19.54224959837740271951 33.84318370338734638381 7.82307943930879812200
Si 19.54193573082202917135 30.76518362531913908242 7.82308037198275041391
O  15.46883485814406711256 29.86359915559268785046 8.41001744400717932137
O  15.46933269379315412095 34.74559913015946222004 8.41001601166378698338
O  18.13430534079279254911 34.47832742239989300970 8.41005747943691694957
O  18.13386196595418553557 30.13032742089564308685 8.41005879027965974615
O  17.03161313552713096442 27.68943984330121921289 8.41304221838751864482
O  19.69708354073660672157 32.30416803810252446283 8.41308232670054678692
O  16.87780511026568319721 29.23045500253612516417 6.16703947997444235085
O  16.87843199502807323142 35.37845465710781667212 6.16703765286757477071
O  19.54227536086424521500 33.84518324298760205693 6.16707943895626442554
O  19.54196108729718517338 30.76318307836941201572 6.16708037283574572740
Si 16.87872039211394792346 38.45845517008622493904 7.82303642572448687531
O  15.46977621905112698641 39.09359911043916468998 8.41001450281585505309
O  18.13480303075893473874 39.36032777546665784030 8.41005556212724236786
O  17.03255431765460770066 36.91943977665160758761 8.41303947099416937760
O  16.87874623827750397709 38.46045462546513249436 6.16703645944003753243
O  20.79783428695746749781 29.86305523093628977449 8.41010005882878886041
O  20.79833211840736595377 34.74505628374711818651 8.41009857308391062247
H  4.07465742959683119295 24.98677204115540817497 8.03659115489495157192
H  1.41040896896465994814 29.60201496919616204195 8.03674925624619795883
H  1.41040900673054814263 35.00798498463046826146 8.03674926123449573367
H  4.07465743640228872380 39.62322797290432419004 8.03659115870233264900
H  8.94818084693646653704 22.17325470599399750427 8.03830168966446123591
H  8.94818084341032715656 42.43674529379664051021 8.03830168793541410821
H  14.27776169752151069758 22.17320385292811124600 8.03828218835299601608
H  14.27776170570425762207 42.43679616288852685102 8.03828218400199467908
H  18.96055658605159521812 24.87622777142327024080 8.03640577840521785902
H  18.96055653650773464847 39.73377222744095860207 8.03640577721913906828
H  21.62471722978987997976 29.49141993093943270310 8.03658340868681619895
H  21.62471723481508334430 35.11858007482158683388 8.03658341030708101016
H  13.43954241400544802332 34.27033906113490502321 5.76911862884877280067
H  10.79702478971901946636 34.91824966749312153524 5.76839602173515864081
H  8.90770700462324427349 32.96594596307627256238 5.76499475670641459146
H  9.65945432622718946902 30.34299409129885560787 5.76888004972562029593
H  12.30259136244362672130 29.68912269778505930162 5.76803922570578286866
H  14.18560353753505687280 31.64418152046395249499 5.76552258410902318531
H  13.46208429753029811593 39.53603768164929022078 5.76468153751808021212
H  10.78553467884624517126 38.90473307345130393742 5.77122839325994263504
H  8.14831460921026362598 39.50994489094784967165 5.76699955446959755534
H  6.23317386242485049763 37.58286575919341032659 5.76180503564805057692
H  5.45415702102184685174 34.93908511446658593513 5.77152547609978139320
H  3.60566386893069967812 32.96814933243119583040 5.76410508778876007341
H  4.32812544120934106218 30.34544671560285067358 5.76331957716864451413
H  6.21212642416823879188 28.34933201800189195296 5.76816829137240993930
H  7.00946743375408320986 25.75759721974877436423 5.76754704176168608853
H  9.64012207140599208799 25.06582757755838386515 5.76488469573149320269
H  12.31500792563551449632 25.70853944705601179521 5.77192568457611443478
H  14.95343799049690680647 25.09203406452802909143 5.76610003219463163049
H  16.85241664020511720423 27.02653749609246602859 5.76116217504285632600
H  17.64630213786814749710 29.66655897894120741398 5.77122747414638670449
H  19.48194552510150856506 31.64158903502802644425 5.76482831426427289045
H  18.77355784192894105900 34.27390176103795482732 5.76498788542281559444
H  16.88031298486666642589 36.26100719967108432229 5.76894103313441242165
H  16.09309775899340166916 38.86024082019378056430 5.76722976291884492639
P  8.72737908825249419920 37.07714794451617024151 11.27665022720090348685
O  12.42823871901946120033 36.97709520855475062717 12.79782669546108309078
O  14.70226536735516376098 38.66793253190650858642 11.71388915040136602386
O  15.09891727093489954825 36.29021609577790030698 10.62064513162197165741
O  9.93306396719240503046 37.77718002720991563592 12.10105264799909008389
O  14.10355172835352277616 33.64320992479367333772 10.96234696421362997398
O  8.21774867116124596578 35.89385672761566326017 12.06873839829330208318
O  9.22202873549269597220 36.66378389219335787175 9.91019609390819411487
O  7.56078972734187004789 38.13209336603424759460 11.01713858686619929017
N  12.31091779526094498465 34.83835151132871743584 11.71522789353159410553
N  12.04068774839697120171 32.66093318249203747428 10.84609377144943032079
N  9.89568993389898565738 31.63594246432660384016 10.84022409942422271456
C  13.55919660295375805958 38.15820066875838989517 11.07420284758269346526
C  13.75037377153773654470 36.65286662679493190353 10.79281483394114715679
C  12.32313619660755144025 38.16874689069538106878 12.01694313410045467094
C  13.14969054096219913674 35.98121920379320215488 12.05438083403317506281
C  10.98246248740686148437 38.16245023941403502477 11.25784708658336441545
C  10.96901233402337894063 34.91563551737649362394 11.92863861506392808565
C  12.90144639091576550527 33.69909455526348551757 11.16398843809886187728
C  10.15618785108794064342 33.86895163785921880617 11.65142244363730128498
C  10.69420863497138185494 32.69893263148516382444 11.11149560211973863488
H  13.39616394190299963896 38.74649103476097167231 10.16180323177222355469
H  13.19483610390218331077 36.34851318462168734413 9.89262654759143877925
H  12.37917753297063505613 39.00649892503809468280 12.72659288011752920511
H  13.96263154938120187865 35.63224066153452440631 12.70523524564899453537
H  11.02531323573064625521 37.42635694348308561530 10.43790900196996673799
H  10.74125211789958278530 39.14225520093610555250 10.81591054262692530585
H  15.49138345984355247253 38.27745469078480056169 11.27692193966981193398
H  15.11798139480909952681 35.30808423400688411675 10.53854992178844618422
H  10.57513283971444195686 35.84115789571185928253 12.31268943151368944200
H  9.09088987266629189321 33.96362715770710138941 11.78300444707962313373
H  8.89243729004636485058 31.71273902508869468875 10.90234046772029685712
H  10.14639988907030243581 30.95216226373538503935 10.13174080187019043819
H  7.12091489401493493716 37.81493501346605512481 10.19983481790601409500
H  12.42020399371818406564 31.87583450479013080781 10.33105466460294152853
