159
Coordinates from ORCA-job ump_frame15 E -13412.056213117063
  Si          3.50486360846951     33.90289276413642      7.79651114985873
  Si          3.45725416315290     30.79563533881082      7.81280072239566
  O           2.28829615152480     34.80004350781925      8.40002692059299
  O           2.16357073163933     30.04879233505209      8.46081790994164
  O           3.46783900925348     32.35372363129133      8.32858559329634
  O           3.52120097961724     33.89605609471526      6.15825210547287
  O           3.42783229533117     30.84519217475475      6.17713256073827
  Si          6.14929625521208     26.14291215788840      7.79909453675984
  Si          8.81947573123029     24.54409508885564      7.77948204483562
  O           4.79775463542395     25.49970294442090      8.43839689200413
  O           7.49062956213465     25.34791126359106      8.31020106379168
  O           8.79540595968310     23.05222901535037      8.43190881972002
  O           6.12817479658906     26.15100884669513      6.16165531767216
  O           8.74674968089261     24.53186480980190      6.14587346373932
  Si          6.12085609380461     29.23231665977851      7.69734305835926
  Si          6.17091043593174     35.45313387820112      7.70482292279178
  Si          8.90178735276493     33.87201751849052      7.65079376636902
  Si          8.86368957155347     30.79367756226837      7.61700615717682
  O           4.83746483833629     30.04635698115505      8.30148745352156
  O           4.89417734418179     34.62673642515855      8.29922056036435
  O           7.55765087991265     34.67522627676132      8.09239340212291
  O           7.48132033659487     30.06155487390134      8.06334891127690
  O           6.21873866712124     27.71318031390419      8.29030369360241
  O           8.87928697548979     32.32856611789079      8.20970901414564
  O           5.89914077781114     29.16931229587934      6.07762569943570
  O           6.01970437081119     35.59070203037965      6.08185262029760
  O           9.04841425284154     33.83855274136907      6.02194643463343
  O           8.95420908719778     30.92329994861749      5.98795116580534
  Si          6.19421552833434     38.54764466808211      7.79128665779207
  Si          8.91542352641457     40.06698327150034      7.79607703499774
  O           4.92180083183622     39.34185214871094      8.42784502602050
  O           7.55515483952509     39.30862099542878      8.30539320777836
  O           6.23285897417536     36.97914021742722      8.28925066648142
  O           9.04501013684236     41.55612662502808      8.43933235700572
  O           6.21395911782684     38.58107553785073      6.15563162316094
  O           8.93475039934320     40.08756869129667      6.15819887676226
  Si         11.51106634203083     26.05596535634964      7.58347724650974
  Si         14.20123724730704     24.52861513644010      7.73664880021748
  O          10.17224632947480     25.37196543448152      8.24222516341090
  O          12.87160570758630     25.38848904715024      8.18590300667124
  O          14.01000996641167     23.04460236324240      8.37687685884749
  O          11.42084918769062     25.79512893311183      5.97335178083170
  O          14.23725533867329     24.49152729153431      6.10077327642585
  Si         11.51542119414396     29.24047611574548      7.59830789415256
  Si         11.58136345996958     35.37293719447626      7.65192820501056
  Si         14.22749996292965     33.81917440290702      7.64596870414007
  Si         14.19952453168177     30.74539527407432      7.62949283292877
  O          10.15374697864335     29.95609445287437      8.15855776626649
  O          10.22069084102164     34.66019982275643      8.22453240231864
  O          12.92929230008184     34.63560866484090      8.22326156461363
  O          12.88158027636119     29.93849822099270      8.16981722990958
  O          11.48632901178836     27.64610337453560      7.92927819445485
  O          14.25484191194139     32.27860011389618      8.20078259167753
  O          11.48028497879307     29.45660389880431      5.97188943550106
  O          11.61619502331047     35.21265699225552      6.02387332917226
  O          14.11538874593222     33.72697808759381      6.01601009056633
  O          14.07132917719779     30.80117420467467      5.99790862120987
  Si         11.59586916171518     38.53127225523085      7.69616568246467
  Si         14.28197172492863     40.06328193616650      7.80492832770279
  O          10.23807114900227     39.21926105232894      8.28731866375169
  O          12.94888480293549     39.23196886295889      8.29073393404436
  O          11.61626723365351     36.94257441124720      8.07952956825121
  O          14.26017007049728     41.55668381707747      8.45384460281871
  O          11.64701559683745     38.73907805361414      6.07435133651583
  O          14.34610524832300     40.06596270658382      6.16915776374013
  Si         16.90805244013520     26.06048981910661      7.79252199559729
  O          15.54969086547778     25.28043519606055      8.28117937474815
  O          18.19955758338841     25.31855855327365      8.45224329444360
  O          16.90627695199329     26.02414040123068      6.15642961407753
  Si         16.92236080863279     29.14892973934182      7.70389821394694
  Si         16.96963471717168     35.38527445350829      7.70090312829836
  Si         19.63469321834929     33.81790831834503      7.80175626654809
  Si         19.58679264583675     30.70491414195747      7.81085231748237
  O          15.53341179288635     29.92419826024310      8.07538318615975
  O          15.60676727905685     34.56716265510578      8.08533136896049
  O          18.26178795219150     34.57847968777305      8.29744049825035
  O          18.19648989847513     29.97591366596917      8.30416371919365
  O          16.84957732101666     27.62560970314531      8.29413094731107
  O          19.60773477051163     32.26125658233229      8.32384436252618
  O          17.09247326457301     29.00454372538942      6.08262866997820
  O          17.17608677524762     35.43355397592119      6.07833277069895
  O          19.64986840707788     33.77494675808422      6.16595822417489
  O          19.58392353513637     30.68239214325510      6.17244447504100
  Si         16.95378949278458     38.47522126694540      7.78735038188977
  O          15.63065349617274     39.28249420998209      8.32067843161470
  O          18.33842934860194     39.07758188277806      8.39524472496505
  O          16.88411507391079     36.90805678474474      8.28439637557180
  O          16.94241623650288     38.47241949121140      6.14968116049571
  O          20.82218546401549     29.85699338209844      8.44680754739931
  O          20.96581187752436     34.51719157654486      8.42933809980593
  H           4.07465760636166     24.98677217117014      8.03659119027487
  H           1.41040896431533     29.60201496807468      8.03674925623426
  H           1.41040902480391     35.00798498302076      8.03674925124528
  H           4.07465744119739     39.62322796903062      8.03659115994944
  H           8.94818084709290     22.17325470217194      8.03830168802393
  H           8.94818090120516     42.43674538058473      8.03830165613999
  H          14.27776173125605     22.17320386336263      8.03828217698547
  H          14.27776173147208     42.43679616651445      8.03828219124319
  H          18.96055657957566     24.87622777697115      8.03640577904290
  H          18.96055633341340     39.73377198711422      8.03640582735167
  H          21.62471714524681     29.49141994960357      8.03658340353698
  H          21.62471723870312     35.11858007564970      8.03658341108148
  H          13.34558318058861     34.18676628621098      5.64500559608082
  H          10.82593649363454     34.79204467285554      5.64941125202019
  H           9.01511274160158     32.94728321043877      5.63940212948024
  H           9.73228255733798     30.48327251898775      5.60878094165614
  H          12.27798893555073     29.87614814456010      5.61340706955981
  H          14.10168957297042     31.69815705418263      5.62999071856801
  H          13.53384749054704     39.77245959278083      5.73274274832205
  H          10.83482664853331     39.09101883985159      5.68415196364428
  H           8.17518321961466     39.66223465512303      5.73805351316164
  H           6.09766490796959     37.71751409292367      5.73425228200014
  H           5.31864497327416     35.05036122810606      5.69096002222445
  H           3.51133610666285     33.01407442436523      5.76058668445132
  H           4.09750359644623     30.29411727267128      5.74694886170918
  H           6.01596238425477     28.29445357804243      5.68194431488164
  H           6.86880293652184     25.68982967003809      5.74467473149849
  H           9.55300069405754     24.82893386891464      5.69966548348599
  H          12.22227885037131     25.44593882351370      5.56155650243628
  H          14.98543858571047     24.95776188045113      5.70347187062231
  H          17.04535674216640     26.88557160714659      5.73698384597779
  H          17.80313470239032     29.54042060831292      5.70223253669011
  H          19.61410821994503     31.55396712930582      5.75481719677961
  H          18.95564022918280     34.30281171245257      5.74542055249344
  H          17.05404247206901     36.30323801350912      5.67361453759049
  H          16.18081632685580     38.91912786788929      5.75394425095110
  N          13.70870853779519     28.93374569943304     11.21179808300901
  C          14.90338452336438     28.27419469044995     11.34335933467726
  N          16.00373128663178     29.07190652007514     11.43698550236632
  C          16.03944385125543     30.46256332194500     11.45640478860639
  C          14.74316117163238     31.06782756691854     11.34959200980867
  C          13.64827901892008     30.29427298910300     11.22047633451403
  O          14.97937853878042     27.05107583211848     11.37734864762092
  O          17.11076278623471     31.04275696854578     11.55514500140073
  C          12.51530930813433     28.09743328980056     10.96329048810603
  C          12.05211704327293     27.28364951208509     12.17750730730648
  C          10.52403575383140     27.27001909369565     12.02362070491892
  C          10.26042690038555     28.60205468796757     11.32301649359995
  O          10.01006125089989     26.15722008160339     11.33607345700658
  O          11.46103455767576     28.92274818491238     10.59938656237717
  C           9.88663610826857     29.71240018551572     12.27832440384839
  O           9.45370007047792     30.86495995860611     11.58111262500093
  P          10.18183547146007     32.30890431081161     11.73408351306054
  O          11.05144197026206     32.31406696945568     12.94203791743423
  O          11.19404387315022     32.34371463531412     10.46641002065079
  O           9.11083508983082     33.32388216303719     11.53544671871889
  H          16.88694148358067     28.58710024519632     11.53182252414673
  H          14.66208614563228     32.14427301011514     11.34483650176005
  H          12.66084901844155     30.71325896968956     11.09211896937212
  H          12.78965370860985     27.42547213842892     10.14322333842112
  H          10.04843709136308     27.24416995833987     13.00465057467778
  H           9.46594358352444     28.48252657108787     10.58216038433631
  H          10.32292841108075     26.13524170731899     10.42435104255216
  H           9.05446635540099     29.35965518331082     12.89579805483418
  H          10.72555608387278     29.95788559105399     12.93531305411053
  H          10.70767474620449     32.44466281281876      9.63936995428241
  O          12.58945564666963     25.99740023592009     12.23526859294084
  H          12.28911648290704     27.86339034806748     13.08091899921551
  H          13.53380367177211     26.09672251296305     12.02142790126268
