36        
AMP
P -4.783000 -0.980000 0.105000
O -5.820000 -0.005000 -0.302000
O -5.311000 -1.828000 1.368000
O -4.474000 -1.978000 -1.119000
O -3.437000 -0.195000 0.511000
C -2.782000 0.727000 -0.362000
C -1.540000 1.290000 0.331000
O -0.571000 0.246000 0.523000
C -0.885000 2.365000 -0.558000
O -0.852000 3.623000 0.119000
C 0.552000 1.839000 -0.794000
O 1.503000 2.903000 -0.720000
C 0.733000 0.850000 0.386000
N 1.740000 -0.163000 0.060000
C 1.508000 -1.369000 -0.530000
N 2.628000 -2.017000 -0.672000
C 3.646000 -1.270000 -0.183000
C 5.036000 -1.447000 -0.069000
N 5.642000 -2.606000 -0.520000
N 5.755000 -0.474000 0.482000
C 5.186000 0.636000 0.914000
N 3.889000 0.845000 0.829000
C 3.090000 -0.068000 0.287000
H -3.803000 -2.646000 -0.923000
H -2.486000 0.214000 -1.277000
H -3.462000 1.543000 -0.607000
H -1.816000 1.721000 1.294000
H -1.420000 2.456000 -1.503000
H -0.450000 4.336000 -0.395000
H 0.624000 1.321000 -1.751000
H 1.373000 3.594000 -1.383000
H 1.006000 1.385000 1.296000
H 0.538000 -1.734000 -0.835000
H 5.106000 -3.309000 -0.920000
H 6.602000 -2.717000 -0.435000
H 5.807000 1.402000 1.355000
