36
Coordinates from ORCA-job amp_geom E -1529.961579763798
  P      -4.783000     -0.980000      0.105000
  O      -5.820000     -0.005000     -0.302000
  O      -5.311000     -1.828000      1.368000
  O      -4.474000     -1.978000     -1.119000
  O      -3.437000     -0.195000      0.511000
  C      -2.782000      0.727000     -0.362000
  C      -1.540000      1.290000      0.331000
  O      -0.571000      0.246000      0.523000
  C      -0.885000      2.365000     -0.558000
  O      -0.852000      3.623000      0.119000
  C       0.552000      1.839000     -0.794000
  O       1.503000      2.903000     -0.720000
  C       0.733000      0.850000      0.386000
  N       1.740000     -0.163000      0.060000
  C       1.508000     -1.369000     -0.530000
  N       2.628000     -2.017000     -0.672000
  C       3.646000     -1.270000     -0.183000
  C       5.036000     -1.447000     -0.069000
  N       5.642000     -2.606000     -0.520000
  N       5.755000     -0.474000      0.482000
  C       5.186000      0.636000      0.914000
  N       3.889000      0.845000      0.829000
  C       3.090000     -0.068000      0.287000
  H      -3.803000     -2.646000     -0.923000
  H      -2.486000      0.214000     -1.277000
  H      -3.462000      1.543000     -0.607000
  H      -1.816000      1.721000      1.294000
  H      -1.420000      2.456000     -1.503000
  H      -0.450000      4.336000     -0.395000
  H       0.624000      1.321000     -1.751000
  H       1.373000      3.594000     -1.383000
  H       1.006000      1.385000      1.296000
  H       0.538000     -1.734000     -0.835000
  H       5.106000     -3.309000     -0.920000
  H       6.602000     -2.717000     -0.435000
  H       5.807000      1.402000      1.355000
36
Coordinates from ORCA-job amp_geom E -1529.995203671204
  P      -4.665154     -1.029302      0.124080
  O      -5.724703     -0.094276     -0.333349
  O      -5.084500     -1.905279      1.349886
  O      -4.255262     -1.982001     -1.103133
  O      -3.342898     -0.214379      0.532083
  C      -2.737285      0.721323     -0.352403
  C      -1.518884      1.317801      0.317592
  O      -0.530378      0.300455      0.495094
  C      -0.896011      2.409921     -0.556134
  O      -0.925349      3.626836      0.159158
  C       0.548311      1.898572     -0.807068
  O       1.526787      2.911814     -0.739375
  C       0.740576      0.909270      0.349571
  N       1.710738     -0.121874      0.045375
  C       1.457487     -1.336859     -0.536095
  N       2.542990     -2.043075     -0.684202
  C       3.561470     -1.286944     -0.186783
  C       4.944147     -1.492206     -0.063244
  N       5.527204     -2.639321     -0.489025
  N       5.680384     -0.534393      0.484173
  C       5.106808      0.591872      0.902850
  N       3.821423      0.866046      0.825179
  C       3.051175     -0.061881      0.279034
  H      -3.547809     -2.603788     -0.892675
  H      -2.435596      0.218122     -1.275297
  H      -3.445679      1.519146     -0.587425
  H      -1.795815      1.736563      1.289139
  H      -1.437615      2.509872     -1.500104
  H      -0.545708      4.349010     -0.348602
  H       0.607303      1.368178     -1.759895
  H       1.395957      3.582830     -1.416569
  H       1.032545      1.436582      1.260519
  H       0.472231     -1.658867     -0.833748
  H       4.968750     -3.360018     -0.900631
  H       6.515251     -2.764594     -0.389285
  H       5.749110      1.344845      1.343309
36
Coordinates from ORCA-job amp_geom E -1530.008974430354
  P      -4.593570     -1.059836      0.158236
  O      -5.644684     -0.142458     -0.364219
  O      -4.913913     -1.936464      1.329725
  O      -4.091400     -1.954554     -1.079938
  O      -3.277596     -0.238332      0.572183
  C      -2.718390      0.705646     -0.325398
  C      -1.506237      1.327099      0.306579
  O      -0.499152      0.331105      0.465340
  C      -0.906857      2.440350     -0.553803
  O      -0.955706      3.627209      0.188394
  C       0.532896      1.943463     -0.827093
  O       1.520872      2.926803     -0.774768
  C       0.743857      0.943326      0.302795
  N       1.691999     -0.099104      0.014487
  C       1.428081     -1.310372     -0.574750
  N       2.490544     -2.057746     -0.720898
  C       3.508855     -1.300210     -0.198004
  C       4.887324     -1.529298     -0.052318
  N       5.466223     -2.658855     -0.461672
  N       5.630575     -0.579297      0.517040
  C       5.037846      0.547537      0.926694
  N       3.760911      0.876883      0.842816
  C       3.030544     -0.072511      0.268725
  H      -3.365091     -2.544442     -0.850711
  H      -2.429420      0.212902     -1.260862
  H      -3.448779      1.491224     -0.543412
  H      -1.768548      1.738573      1.287451
  H      -1.454364      2.553026     -1.495895
  H      -0.583774      4.345736     -0.331909
  H       0.565193      1.403260     -1.779453
  H       1.372279      3.571953     -1.473604
  H       1.067171      1.464085      1.211761
  H       0.431338     -1.589272     -0.877013
  H       4.914261     -3.383256     -0.891595
  H       6.458214     -2.788677     -0.338609
  H       5.690499      1.284503      1.385698
36
Coordinates from ORCA-job amp_geom E -1530.010997166049
  P      -4.581212     -1.074274      0.203239
  O      -5.629711     -0.149778     -0.313267
  O      -4.861118     -1.963612      1.359257
  O      -4.084336     -1.937476     -1.065645
  O      -3.254472     -0.252257      0.604871
  C      -2.733528      0.711666     -0.292161
  C      -1.507336      1.336089      0.309800
  O      -0.493597      0.342775      0.457785
  C      -0.917803      2.455791     -0.553882
  O      -0.936568      3.637974      0.202805
  C       0.506937      1.943910     -0.870567
  O       1.511907      2.913615     -0.883838
  C       0.746438      0.954036      0.263065
  N       1.698933     -0.087165     -0.027475
  C       1.449486     -1.272683     -0.668480
  N       2.511881     -2.023487     -0.802848
  C       3.517629     -1.290932     -0.217153
  C       4.889684     -1.536685     -0.028284
  N       5.484237     -2.653036     -0.455883
  N       5.616816     -0.608628      0.607901
  C       5.009601      0.501657      1.036251
  N       3.737067      0.849178      0.917447
  C       3.032352     -0.083545      0.276515
  H      -3.374209     -2.549486     -0.844122
  H      -2.471122      0.239500     -1.246161
  H      -3.476146      1.494685     -0.476966
  H      -1.748095      1.751160      1.295137
  H      -1.486877      2.582487     -1.481541
  H      -0.570276      4.352948     -0.327841
  H       0.487895      1.379388     -1.810462
  H       1.370805      3.505159     -1.630741
  H       1.095261      1.486605      1.157390
  H       0.458590     -1.527858     -1.010129
  H       4.953119     -3.361410     -0.934550
  H       6.469622     -2.789998     -0.297803
  H       5.650147      1.213688      1.550337
36
Coordinates from ORCA-job amp_geom E -1530.012381542419
  P      -4.571581     -1.082473      0.250141
  O      -5.609969     -0.150302     -0.271738
  O      -4.833748     -1.972691      1.408054
  O      -4.088106     -1.940445     -1.036809
  O      -3.231560     -0.258687      0.641161
  C      -2.743198      0.720010     -0.255121
  C      -1.504620      1.346099      0.320784
  O      -0.485188      0.352737      0.460023
  C      -0.925234      2.469310     -0.548430
  O      -0.876195      3.642614      0.226961
  C       0.468079      1.929286     -0.925438
  O       1.485256      2.882913     -1.028138
  C       0.749426      0.963683      0.218277
  N       1.707712     -0.069145     -0.080124
  C       1.486721     -1.211681     -0.800100
  N       2.551481     -1.960696     -0.919511
  C       3.532197     -1.269529     -0.244358
  C       4.891757     -1.535395      0.001583
  N       5.509691     -2.629985     -0.453100
  N       5.588856     -0.643115      0.725240
  C       4.964648      0.444228      1.178701
  N       3.699386      0.807844      1.013162
  C       3.028264     -0.092217      0.287919
  H      -3.420434     -2.595885     -0.806143
  H      -2.506670      0.265535     -1.224649
  H      -3.493241      1.502112     -0.411248
  H      -1.724344      1.765639      1.309433
  H      -1.525995      2.625993     -1.450885
  H      -0.496554      4.345789     -0.311585
  H       0.378682      1.335891     -1.843784
  H       1.352471      3.392932     -1.834676
  H       1.128967      1.514044      1.089133
  H       0.509604     -1.437337     -1.199856
  H       5.010428     -3.311311     -0.996400
  H       6.482883     -2.777546     -0.249787
  H       5.582127      1.121778      1.763307
36
Coordinates from ORCA-job amp_geom E -1530.013225063005
  P      -4.560587     -1.085331      0.283136
  O      -5.590449     -0.152506     -0.251809
  O      -4.820411     -1.967615      1.450252
  O      -4.080716     -1.957668     -1.002628
  O      -3.213904     -0.256703      0.671463
  C      -2.741642      0.725224     -0.227912
  C      -1.500940      1.358334      0.336325
  O      -0.473590      0.368138      0.476071
  C      -0.930492      2.481121     -0.539122
  O      -0.804453      3.638587      0.254368
  C       0.426921      1.910497     -0.975362
  O       1.448716      2.846542     -1.165101
  C       0.752828      0.977323      0.181011
  N       1.714261     -0.047210     -0.123829
  C       1.524688     -1.146212     -0.916332
  N       2.591392     -1.892182     -1.026000
  C       3.542737     -1.245387     -0.268555
  C       4.888549     -1.529646      0.024329
  N       5.527747     -2.600291     -0.456649
  N       5.552541     -0.678003      0.825766
  C       4.912692      0.386693      1.305534
  N       3.656085      0.763472      1.101261
  C       3.016832     -0.097696      0.303233
  H      -3.463663     -2.653385     -0.748508
  H      -2.515025      0.276370     -1.202738
  H      -3.495783      1.504963     -0.375656
  H      -1.713432      1.781843      1.324772
  H      -1.563464      2.674901     -1.411626
  H      -0.391950      4.323508     -0.284085
  H       0.272206      1.290168     -1.866627
  H       1.326637      3.266923     -2.023205
  H       1.159507      1.549029      1.024677
  H       0.565430     -1.342159     -1.372483
  H       5.058016     -3.253020     -1.056613
  H       6.489158     -2.759925     -0.215014
  H       5.505560      1.031303      1.949656
36
Coordinates from ORCA-job amp_geom E -1530.013957119625
  P      -4.520690     -1.105920      0.316400
  O      -5.557469     -0.187448     -0.226846
  O      -4.770044     -1.984423      1.491552
  O      -4.028762     -1.990194     -0.960964
  O      -3.181647     -0.255249      0.704376
  C      -2.726877      0.727203     -0.202815
  C      -1.496249      1.384537      0.356470
  O      -0.452472      0.408749      0.509007
  C      -0.941265      2.502333     -0.532776
  O      -0.732203      3.642998      0.268988
  C       0.377876      1.904729     -1.028775
  O       1.388638      2.829684     -1.309801
  C       0.759455      1.013196      0.142004
  N       1.718188     -0.007630     -0.169514
  C       1.558848     -1.057915     -1.033733
  N       2.621334     -1.809300     -1.132535
  C       3.539679     -1.220546     -0.291122
  C       4.866260     -1.536149      0.049717
  N       5.520642     -2.583560     -0.459263
  N       5.496494     -0.738588      0.928916
  C       4.846082      0.306005      1.436168
  N       3.603934      0.706423      1.192652
  C       2.995707     -0.099819      0.319647
  H      -3.455070     -2.712726     -0.680572
  H      -2.495816      0.276831     -1.176172
  H      -3.492445      1.494930     -0.355215
  H      -1.715885      1.814897      1.339860
  H      -1.609104      2.731368     -1.369848
  H      -0.265525      4.294021     -0.268022
  H       0.164717      1.257314     -1.887511
  H       1.277882      3.142930     -2.213682
  H       1.197182      1.612177      0.949380
  H       0.622039     -1.215111     -1.548673
  H       5.078112     -3.198314     -1.117565
  H       6.468043     -2.765416     -0.179834
  H       5.412410      0.907980      2.142100
36
Coordinates from ORCA-job amp_geom E -1530.014566103028
  P      -4.445823     -1.149669      0.347680
  O      -5.513115     -0.258217     -0.178684
  O      -4.662082     -2.044144      1.519177
  O      -3.933586     -2.019450     -0.931676
  O      -3.130302     -0.260755      0.734332
  C      -2.700810      0.727143     -0.179882
  C      -1.491319      1.424038      0.379534
  O      -0.423369      0.475307      0.553145
  C      -0.959115      2.532989     -0.529939
  O      -0.678618      3.663968      0.264385
  C       0.327137      1.917444     -1.078619
  O       1.313618      2.842080     -1.436630
  C       0.768328      1.068335      0.102746
  N       1.718847      0.044212     -0.214118
  C       1.580323     -0.966488     -1.130629
  N       2.630640     -1.734887     -1.214383
  C       3.519823     -1.203090     -0.306555
  C       4.823539     -1.559493      0.077274
  N       5.480255     -2.596085     -0.449177
  N       5.427349     -0.815967      1.017692
  C       4.775454      0.219255      1.542930
  N       3.553393      0.653573      1.262049
  C       2.968837     -0.096833      0.329018
  H      -3.373218     -2.748914     -0.642606
  H      -2.454040      0.275244     -1.148790
  H      -3.487600      1.471472     -0.340812
  H      -1.730693      1.862062      1.354210
  H      -1.660806      2.784481     -1.332107
  H      -0.147757      4.265577     -0.271829
  H       0.072390      1.249566     -1.908636
  H       1.212530      3.058587     -2.368957
  H       1.238609      1.696303      0.867626
  H       0.665843     -1.085742     -1.693931
  H       5.056378     -3.172456     -1.154069
  H       6.411610     -2.808915     -0.136556
  H       5.319353      0.779470      2.298787
36
Coordinates from ORCA-job amp_geom E -1530.015007302956
  P      -4.339964     -1.214661      0.365453
  O      -5.456083     -0.366292     -0.128920
  O      -4.503927     -2.137936      1.523045
  O      -3.797737     -2.043478     -0.924810
  O      -3.065692     -0.273062      0.752135
  C      -2.668463      0.727443     -0.164165
  C      -1.488376      1.470771      0.401705
  O      -0.394193      0.557460      0.600157
  C      -0.980039      2.571234     -0.526007
  O      -0.651671      3.700705      0.251866
  C       0.284706      1.948806     -1.114542
  O       1.245011      2.883873     -1.517837
  C       0.775155      1.131876      0.070467
  N       1.710702      0.096531     -0.250323
  C       1.572178     -0.898363     -1.186195
  N       2.603608     -1.692942     -1.253173
  C       3.478930     -1.199565     -0.311187
  C       4.760816     -1.597619      0.103781
  N       5.401958     -2.644180     -0.421915
  N       5.357388     -0.887647      1.072329
  C       4.718949      0.157920      1.596061
  N       3.518019      0.628668      1.287469
  C       2.939670     -0.086833      0.326018
  H      -3.214266     -2.757449     -0.643539
  H      -2.398241      0.278891     -1.128293
  H      -3.482771      1.440035     -0.332334
  H      -1.756259      1.912466      1.366647
  H      -1.708922      2.830708     -1.301050
  H      -0.053832      4.243175     -0.278010
  H       0.008702      1.271770     -1.928420
  H       1.154462      3.038629     -2.462973
  H       1.276688      1.782977      0.794555
  H       0.672553     -0.990629     -1.777369
  H       4.980463     -3.196144     -1.148483
  H       6.318564     -2.888625     -0.087163
  H       5.253912      0.691490      2.377019
36
Coordinates from ORCA-job amp_geom E -1530.015271515127
  P      -4.254641     -1.268699      0.354091
  O      -5.404455     -0.462151     -0.134522
  O      -4.390389     -2.206085      1.502623
  O      -3.673569     -2.063676     -0.935741
  O      -3.022967     -0.284108      0.750259
  C      -2.642613      0.725485     -0.163913
  C      -1.490183      1.503841      0.415375
  O      -0.378649      0.620112      0.639983
  C      -0.995941      2.599745     -0.521362
  O      -0.666760      3.740481      0.239139
  C       0.269984      1.983392     -1.118852
  O       1.217783      2.933109     -1.521102
  C       0.778323      1.176346      0.066130
  N       1.696120      0.125163     -0.257034
  C       1.530488     -0.883477     -1.173596
  N       2.544429     -1.701520     -1.232521
  C       3.434411     -1.211323     -0.302925
  C       4.709039     -1.631758      0.113722
  N       5.322238     -2.701522     -0.399099
  N       5.325885     -0.921623      1.069049
  C       4.711361      0.145731      1.579343
  N       3.520456      0.638676      1.267992
  C       2.922816     -0.077435      0.318573
  H      -3.052108     -2.746480     -0.659055
  H      -2.346453      0.279506     -1.121326
  H      -3.476316      1.412263     -0.344101
  H      -1.786590      1.946275      1.371325
  H      -1.734776      2.846134     -1.291495
  H      -0.031043      4.248496     -0.282298
  H      -0.000692      1.309521     -1.936294
  H       1.129935      3.085472     -2.466824
  H       1.301698      1.836131      0.766715
  H       0.627590     -0.969413     -1.760314
  H       4.882234     -3.253206     -1.115062
  H       6.234674     -2.962760     -0.065199
  H       5.260679      0.679358      2.350314
36
Coordinates from ORCA-job amp_geom E -1530.015516675573
  P      -4.175804     -1.318669      0.317819
  O      -5.333237     -0.561556     -0.231114
  O      -4.328220     -2.237450      1.477409
  O      -3.518882     -2.111262     -0.933525
  O      -2.996129     -0.288426      0.739014
  C      -2.618273      0.724495     -0.172401
  C      -1.496868      1.534140      0.428102
  O      -0.370920      0.680132      0.686886
  C      -1.008834      2.630341     -0.508491
  O      -0.686349      3.779607      0.241502
  C       0.259957      2.017470     -1.107262
  O       1.204879      2.973708     -1.505050
  C       0.777599      1.215786      0.077957
  N       1.675994      0.148105     -0.250355
  C       1.471531     -0.879338     -1.135954
  N       2.467370     -1.720418     -1.192439
  C       3.384818     -1.225515     -0.292251
  C       4.657538     -1.663950      0.113295
  N       5.237581     -2.759715     -0.383807
  N       5.307414     -0.943448      1.039757
  C       4.723565      0.149323      1.532502
  N       3.538305      0.661564      1.229939
  C       2.909649     -0.066968      0.308264
  H      -2.868327     -2.753094     -0.627225
  H      -2.289018      0.278282     -1.118644
  H      -3.465091      1.388262     -0.375960
  H      -1.826006      1.975159      1.373792
  H      -1.750458      2.865061     -1.279988
  H      -0.018795      4.260493     -0.267049
  H      -0.005267      1.346552     -1.928575
  H       1.111642      3.135521     -2.449002
  H       1.324669      1.879556      0.756714
  H       0.556747     -0.961795     -1.704782
  H       4.771559     -3.317536     -1.077724
  H       6.149804     -3.033117     -0.060512
  H       5.297857      0.688700      2.281156
36
Coordinates from ORCA-job amp_geom E -1530.015734143267
  P      -3.895417     -1.471852      0.188348
  O      -4.999286     -0.914237     -0.644064
  O      -4.177823     -2.295256      1.390729
  O      -2.938095     -2.271877     -0.838649
  O      -2.929439     -0.283176      0.694461
  C      -2.546682      0.732222     -0.211224
  C      -1.526596      1.627002      0.453481
  O      -0.369269      0.859890      0.813752
  C      -1.046202      2.729623     -0.472150
  O      -0.741167      3.893490      0.260742
  C       0.230531      2.121575     -1.065502
  O       1.177898      3.086870     -1.446853
  C       0.760806      1.327231      0.121652
  N       1.596087      0.209128     -0.220809
  C       1.273501     -0.861000     -1.010533
  N       2.214056     -1.765463     -1.067223
  C       3.216025     -1.267490     -0.263338
  C       4.484188     -1.758864      0.097382
  N       4.964408     -2.920902     -0.355565
  N       5.234194     -1.019369      0.932337
  C       4.743911      0.137644      1.378441
  N       3.575279      0.706586      1.110853
  C       2.850193     -0.047806      0.279050
  H      -2.246938     -2.756842     -0.373480
  H      -2.112297      0.285310     -1.113369
  H      -3.418906      1.328072     -0.498876
  H      -1.951881      2.055608      1.365553
  H      -1.787245      2.941784     -1.251621
  H       0.004253      4.307744     -0.199397
  H      -0.021184      1.460225     -1.897961
  H       1.065537      3.284533     -2.382713
  H       1.374921      1.989519      0.742603
  H       0.321475     -0.925522     -1.518173
  H       4.420805     -3.489252     -0.979450
  H       5.876142     -3.231016     -0.070137
  H       5.396214      0.685868      2.053701
36
Coordinates from ORCA-job amp_geom E -1530.016027642188
  P      -3.813810     -1.512336      0.134367
  O      -4.880712     -1.022968     -0.785474
  O      -4.144504     -2.313727      1.340484
  O      -2.763672     -2.300742     -0.809383
  O      -2.929041     -0.273270      0.668084
  C      -2.535605      0.738503     -0.236644
  C      -1.546562      1.652025      0.449276
  O      -0.391163      0.905080      0.855073
  C      -1.051984      2.753362     -0.471114
  O      -0.767626      3.921325      0.262571
  C       0.238426      2.145851     -1.034363
  O       1.198316      3.107773     -1.393144
  C       0.746961      1.346339      0.160335
  N       1.560663      0.210192     -0.181105
  C       1.194253     -0.878853     -0.923649
  N       2.121633     -1.796451     -0.989776
  C       3.161142     -1.286425     -0.242840
  C       4.438205     -1.780897      0.080200
  N       4.888376     -2.960899     -0.356440
  N       5.229407     -1.024254      0.860252
  C       4.770167      0.151185      1.290199
  N       3.597312      0.725254      1.053592
  C       2.830648     -0.046673      0.276348
  H      -2.069112     -2.727761     -0.295098
  H      -2.069679      0.289730     -1.122163
  H      -3.406996      1.318910     -0.555394
  H      -2.003226      2.083133      1.344787
  H      -1.777248      2.957563     -1.267256
  H      -0.015059      4.338501     -0.182834
  H       0.005370      1.486502     -1.874021
  H       1.082163      3.334443     -2.322120
  H       1.375428      1.997507      0.778125
  H       0.221327     -0.945315     -1.390119
  H       4.314312     -3.541446     -0.940235
  H       5.807839     -3.272662     -0.099334
  H       5.456051      0.711503      1.920813
36
Coordinates from ORCA-job amp_geom E -1530.016502405645
  P      -3.689017     -1.563532      0.082347
  O      -4.769065     -1.155401     -0.859438
  O      -3.975656     -2.396650      1.283920
  O      -2.561290     -2.271651     -0.850028
  O      -2.917337     -0.253128      0.649616
  C      -2.535413      0.759476     -0.258381
  C      -1.579607      1.695969      0.440243
  O      -0.432652      0.975237      0.919645
  C      -1.052088      2.782945     -0.482183
  O      -0.762040      3.942668      0.261819
  C       0.240978      2.152635     -0.998810
  O       1.221568      3.087286     -1.367809
  C       0.719939      1.366487      0.219343
  N       1.506595      0.205750     -0.107229
  C       1.096518     -0.897386     -0.807996
  N       2.011258     -1.824536     -0.894340
  C       3.089331     -1.307616     -0.208419
  C       4.377797     -1.800945      0.061577
  N       4.803518     -2.992563     -0.364554
  N       5.208844     -1.028986      0.780415
  C       4.783538      0.160615      1.202736
  N       3.602961      0.734303      1.009434
  C       2.792151     -0.048817      0.295560
  H      -1.843865     -2.646525     -0.326704
  H      -2.049485      0.317933     -1.137377
  H      -3.410156      1.321980     -0.597522
  H      -2.071612      2.146580      1.306593
  H      -1.753562      2.999957     -1.295112
  H      -0.009431      4.366334     -0.174528
  H       0.014936      1.470269     -1.822857
  H       1.106905      3.305857     -2.298766
  H       1.366531      2.003124      0.830892
  H       0.099972     -0.960103     -1.223132
  H       4.202712     -3.588500     -0.904864
  H       5.733786     -3.301839     -0.143107
  H       5.504439      0.732775      1.781020
36
Coordinates from ORCA-job amp_geom E -1530.016527817566
  P      -3.804680     -1.510065      0.097500
  O      -4.893200     -1.041704     -0.803639
  O      -4.085598     -2.351880      1.293533
  O      -2.730199     -2.248661     -0.875156
  O      -2.964580     -0.238680      0.664881
  C      -2.567907      0.769008     -0.242924
  C      -1.572159      1.672706      0.442228
  O      -0.432744      0.918934      0.889541
  C      -1.034986      2.754080     -0.481723
  O      -0.727346      3.904185      0.271365
  C       0.247556      2.112675     -1.008792
  O       1.230299      3.037907     -1.390646
  C       0.725221      1.326236      0.207880
  N       1.531565      0.177021     -0.111670
  C       1.156962     -0.924327     -0.837472
  N       2.093329     -1.828757     -0.926224
  C       3.149420     -1.299323     -0.217098
  C       4.444768     -1.767551      0.062493
  N       4.903176     -2.942625     -0.375471
  N       5.248224     -0.989378      0.804212
  C       4.791630      0.183924      1.239505
  N       3.600824      0.732995      1.038842
  C       2.816828     -0.054070      0.302440
  H      -2.029531     -2.677383     -0.370493
  H      -2.117137      0.321789     -1.137134
  H      -3.431238      1.363259     -0.558684
  H      -2.032685      2.129432      1.322635
  H      -1.738498      2.987110     -1.288279
  H      -0.000701      4.348630     -0.186579
  H       0.007722      1.425735     -1.825495
  H       1.112249      3.249837     -2.322467
  H       1.353818      1.966116      0.835120
  H       0.168854     -1.002344     -1.267566
  H       4.323872     -3.545217     -0.932654
  H       5.837822     -3.233661     -0.145738
  H       5.491050      0.764047      1.835729
36
Coordinates from ORCA-job amp_geom E -1530.016661938527
  P      -3.713109     -1.544524      0.067528
  O      -4.773834     -1.122710     -0.887478
  O      -4.019538     -2.382139      1.257158
  O      -2.567817     -2.252906     -0.841181
  O      -2.942237     -0.241428      0.655775
  C      -2.547276      0.773953     -0.244949
  C      -1.576754      1.695621      0.454892
  O      -0.427453      0.965659      0.912304
  C      -1.044242      2.779932     -0.462699
  O      -0.714181      3.921288      0.295280
  C       0.224287      2.129841     -1.014322
  O       1.202060      3.053034     -1.414588
  C       0.718665      1.352548      0.200771
  N       1.507644      0.189897     -0.115491
  C       1.116580     -0.914931     -0.827659
  N       2.042151     -1.830897     -0.912693
  C       3.107609     -1.306564     -0.214643
  C       4.398133     -1.788571      0.064511
  N       4.838474     -2.974591     -0.363805
  N       5.215060     -1.014294      0.795644
  C       4.773911      0.168820      1.221515
  N       3.589390      0.731148      1.020173
  C       2.792731     -0.052406      0.293606
  H      -1.880345     -2.652221     -0.295743
  H      -2.078201      0.334769     -1.133031
  H      -3.417032      1.354326     -0.571517
  H      -2.056831      2.140484      1.330603
  H      -1.757895      3.027193     -1.256392
  H       0.027150      4.346694     -0.158182
  H      -0.030532      1.441269     -1.824818
  H       1.074140      3.258508     -2.346603
  H       1.364617      1.994935      0.808404
  H       0.126108     -0.987550     -1.252532
  H       4.247952     -3.574977     -0.911864
  H       5.770398     -3.275499     -0.135779
  H       5.482216      0.746288      1.809805
36
Coordinates from ORCA-job amp_geom E -1530.016693369790
  P      -3.673647     -1.558492      0.052599
  O      -4.720011     -1.162798     -0.928678
  O      -3.990928     -2.394994      1.240615
  O      -2.494482     -2.249353     -0.825329
  O      -2.941384     -0.236739      0.648867
  C      -2.545052      0.778789     -0.250857
  C      -1.583066      1.705085      0.454255
  O      -0.435258      0.980124      0.923528
  C      -1.046188      2.787726     -0.463078
  O      -0.719168      3.929187      0.295853
  C       0.224815      2.135607     -1.007204
  O       1.206824      3.055722     -1.404189
  C       0.712869      1.357942      0.210607
  N       1.493444      0.189214     -0.103715
  C       1.091645     -0.917902     -0.805759
  N       2.013726     -1.837260     -0.894166
  C       3.088166     -1.311962     -0.210801
  C       4.379635     -1.796734      0.058995
  N       4.811698     -2.986871     -0.366707
  N       5.206390     -1.021105      0.777651
  C       4.773173      0.165808      1.201047
  N       3.588546      0.730737      1.008113
  C       2.782120     -0.054139      0.293468
  H      -1.811548     -2.630358     -0.261514
  H      -2.069177      0.340132     -1.135464
  H      -3.414879      1.355425     -0.583347
  H      -2.071442      2.149835      1.325341
  H      -1.755521      3.034710     -1.260823
  H       0.015620      4.362041     -0.160830
  H      -0.027227      1.446116     -1.817768
  H       1.075101      3.271349     -2.333385
  H       1.363633      1.996596      0.816672
  H       0.096242     -0.989744     -1.220243
  H       4.213987     -3.588176     -0.905575
  H       5.744655     -3.289687     -0.145857
  H       5.488688      0.744168      1.779675
36
Coordinates from ORCA-job amp_geom E -1530.016713812860
  P      -3.675421     -1.555335      0.049448
  O      -4.701643     -1.167597     -0.955573
  O      -4.016309     -2.382106      1.238214
  O      -2.478353     -2.253345     -0.797575
  O      -2.955871     -0.227184      0.648023
  C      -2.549164      0.782827     -0.253223
  C      -1.584649      1.705451      0.453081
  O      -0.439431      0.976415      0.923811
  C      -1.043924      2.787073     -0.463731
  O      -0.715602      3.926456      0.297830
  C       0.226670      2.132000     -1.005156
  O       1.211815      3.048063     -1.403130
  C       0.711173      1.353534      0.213633
  N       1.491054      0.184766     -0.100626
  C       1.092124     -0.919274     -0.808494
  N       2.016808     -1.835808     -0.900911
  C       3.090057     -1.311036     -0.215302
  C       4.382362     -1.794316      0.053248
  N       4.817227     -2.981453     -0.378229
  N       5.207253     -1.020369      0.776015
  C       4.770889      0.163366      1.205018
  N       3.585054      0.726438      1.014379
  C       2.780644     -0.056814      0.295219
  H      -1.813320     -2.636670     -0.214253
  H      -2.073269      0.338757     -1.135149
  H      -3.413917      1.364435     -0.589752
  H      -2.072690      2.150292      1.324248
  H      -1.750374      3.036858     -1.263179
  H       0.007942      4.369568     -0.166430
  H      -0.026961      1.441579     -1.814510
  H       1.077109      3.267950     -2.330910
  H       1.361694      1.990873      0.821056
  H       0.096529     -0.991646     -1.223417
  H       4.221307     -3.581209     -0.920504
  H       5.750667     -3.283178     -0.158246
  H       5.484522      0.740641      1.787077
36
Coordinates from ORCA-job amp_geom E -1530.016716654987
  P      -3.663319     -1.557283      0.045239
  O      -4.678608     -1.180661     -0.975013
  O      -4.014280     -2.381496      1.233066
  O      -2.449569     -2.250822     -0.781339
  O      -2.961926     -0.220875      0.647231
  C      -2.552138      0.788318     -0.253559
  C      -1.586588      1.709154      0.453964
  O      -0.442297      0.978787      0.925814
  C      -1.043583      2.790303     -0.461626
  O      -0.709478      3.926497      0.302316
  C       0.223373      2.130477     -1.005336
  O       1.210584      3.041793     -1.408281
  C       0.708563      1.352746      0.213673
  N       1.486997      0.182720     -0.100242
  C       1.089200     -0.919693     -0.811121
  N       2.014460     -1.835568     -0.905431
  C       3.086859     -1.312017     -0.217647
  C       4.379056     -1.795599      0.051014
  N       4.814483     -2.981606     -0.382666
  N       5.203031     -1.023154      0.776400
  C       4.765759      0.159441      1.207750
  N       3.580013      0.722711      1.017459
  C       2.776536     -0.059268      0.295709
  H      -1.794536     -2.632309     -0.185429
  H      -2.076121      0.343547     -1.135013
  H      -3.415473      1.371642     -0.590741
  H      -2.075193      2.153651      1.324959
  H      -1.749520      3.044523     -1.259987
  H       0.008638      4.373258     -0.166647
  H      -0.035378      1.439265     -1.812515
  H       1.072380      3.261645     -2.335567
  H       1.360683      1.990184      0.819172
  H       0.093796     -0.992215     -1.226041
  H       4.219150     -3.580123     -0.926945
  H       5.747708     -3.283648     -0.162270
  H       5.478742      0.735673      1.791648
36
Coordinates from ORCA-job amp_geom E -1530.016724953334
  P      -3.647318     -1.561826      0.043188
  O      -4.655807     -1.198379     -0.988838
  O      -4.002858     -2.384669      1.230691
  O      -2.418944     -2.248219     -0.767544
  O      -2.964747     -0.216642      0.646629
  C      -2.554087      0.792616     -0.253828
  C      -1.588059      1.712802      0.454349
  O      -0.444182      0.981805      0.926184
  C      -1.044247      2.793997     -0.460374
  O      -0.707382      3.928430      0.304885
  C       0.220690      2.131921     -1.005985
  O       1.209200      3.040707     -1.411191
  C       0.706426      1.353917      0.212475
  N       1.483332      0.182988     -0.101878
  C       1.085394     -0.917767     -0.815123
  N       2.009640     -1.834737     -0.909621
  C       3.081689     -1.313359     -0.219598
  C       4.372993     -1.798943      0.050114
  N       4.807379     -2.984913     -0.384436
  N       5.196843     -1.028458      0.777700
  C       4.760319      0.154140      1.209985
  N       3.575527      0.719173      1.019123
  C       2.772207     -0.061105      0.295220
  H      -1.769682     -2.625280     -0.162495
  H      -2.077600      0.348029     -1.135054
  H      -3.417206      1.376161     -0.591146
  H      -2.076906      2.156830      1.325483
  H      -1.750092      3.050235     -1.258100
  H       0.007176      4.377834     -0.166863
  H      -0.041269      1.441120     -1.812556
  H       1.068578      3.261543     -2.337876
  H       1.359827      1.991184      0.816724
  H       0.090156     -0.989424     -1.230433
  H       4.211791     -3.581755     -0.930355
  H       5.739854     -3.288581     -0.163010
  H       5.473364      0.728623      1.795553
36
Coordinates from ORCA-job amp_geom E -1530.016378078714
  P      -3.391519     -1.623176      0.021797
  O      -4.249693     -1.461167     -1.186641
  O      -3.835433     -2.423834      1.195655
  O      -1.964104     -2.182283     -0.513379
  O      -3.007685     -0.165141      0.617898
  C      -2.579160      0.845512     -0.274558
  C      -1.614857      1.758995      0.450865
  O      -0.476657      1.023015      0.927580
  C      -1.057912      2.844618     -0.446052
  O      -0.689989      3.952352      0.342391
  C       0.183268      2.157095     -1.014136
  O       1.189022      3.035220     -1.440823
  C       0.671876      1.370098      0.195440
  N       1.426511      0.186846     -0.127556
  C       1.025767     -0.888286     -0.875809
  N       1.934790     -1.821077     -0.974903
  C       3.001339     -1.334080     -0.251370
  C       4.278724     -1.850180      0.032461
  N       4.697867     -3.034541     -0.418098
  N       5.100675     -1.110629      0.793313
  C       4.675717      0.070979      1.241918
  N       3.505620      0.662779      1.043311
  C       2.704511     -0.089992      0.286700
  H      -1.422773     -2.488553      0.224263
  H      -2.088430      0.404686     -1.148755
  H      -3.437834      1.429989     -0.620974
  H      -2.113779      2.192466      1.322003
  H      -1.759256      3.129526     -1.237289
  H      -0.021651      4.440340     -0.156425
  H      -0.116491      1.475901     -1.816642
  H       1.019772      3.275693     -2.357764
  H       1.342613      2.001111      0.786476
  H       0.033641     -0.944588     -1.299178
  H       4.099166     -3.605181     -0.989064
  H       5.618980     -3.362740     -0.183270
  H       5.389366      0.618227      1.852617
36
Coordinates from ORCA-job amp_geom E -1530.016735990155
  P      -3.589659     -1.576812      0.045345
  O      -4.559929     -1.277641     -1.043516
  O      -3.970745     -2.385771      1.234712
  O      -2.297676     -2.236095     -0.685406
  O      -2.991422     -0.191745      0.646009
  C      -2.567916      0.811308     -0.256254
  C      -1.593656      1.723794      0.452280
  O      -0.452547      0.985000      0.918263
  C      -1.045744      2.806224     -0.457984
  O      -0.698173      3.931798      0.315201
  C       0.211315      2.136595     -1.012302
  O       1.204792      3.036332     -1.424585
  C       0.698008      1.354675      0.202362
  N       1.472058      0.183436     -0.115697
  C       1.079679     -0.905564     -0.849419
  N       2.001606     -1.825007     -0.944917
  C       3.066732     -1.316844     -0.234292
  C       4.353009     -1.811021      0.044738
  N       4.787925     -2.992956     -0.399732
  N       5.170301     -1.053154      0.792600
  C       4.732575      0.125481      1.234882
  N       3.552182      0.697452      1.037716
  C       2.755422     -0.070907      0.293798
  H      -1.680347     -2.594786     -0.037296
  H      -2.093771      0.361776     -1.135876
  H      -3.425548      1.401822     -0.595214
  H      -2.078411      2.166238      1.326640
  H      -1.751201      3.072485     -1.252694
  H      -0.003189      4.397582     -0.169138
  H      -0.063271      1.448883     -1.817546
  H       1.054868      3.263039     -2.348347
  H       1.353528      1.990195      0.806061
  H       0.087891     -0.971658     -1.273498
  H       4.196024     -3.579588     -0.960793
  H       5.716206     -3.303796     -0.170348
  H       5.441083      0.689226      1.836247
36
Coordinates from ORCA-job amp_geom E -1530.016760667751
  P      -3.572534     -1.583096      0.043280
  O      -4.542151     -1.292201     -1.048584
  O      -3.951145     -2.394100      1.231990
  O      -2.274026     -2.232766     -0.684222
  O      -2.985751     -0.193978      0.644545
  C      -2.566897      0.811874     -0.256612
  C      -1.595417      1.726795      0.452530
  O      -0.453511      0.990194      0.919821
  C      -1.048725      2.809541     -0.457872
  O      -0.702531      3.936342      0.313997
  C       0.209201      2.141026     -1.011970
  O       1.202272      3.042256     -1.422183
  C       0.696479      1.358430      0.202235
  N       1.468989      0.185977     -0.116656
  C       1.072998     -0.904031     -0.846960
  N       1.992326     -1.826185     -0.941282
  C       3.059402     -1.319109     -0.232872
  C       4.344745     -1.815912      0.045807
  N       4.776070     -2.999917     -0.396418
  N       5.164846     -1.058316      0.790848
  C       4.730622      0.122556      1.230655
  N       3.551568      0.697237      1.033375
  C       2.752012     -0.070991      0.292310
  H      -1.652103     -2.581398     -0.034979
  H      -2.090816      0.364900     -1.136450
  H      -3.427050      1.399016     -0.595133
  H      -2.081952      2.169026      1.326013
  H      -1.754628      3.074073     -1.252698
  H      -0.001595      4.397063     -0.166728
  H      -0.063926      1.454437     -1.818653
  H       1.053675      3.269026     -2.346181
  H       1.353428      1.993574      0.804818
  H       0.081116     -0.968282     -1.270716
  H       4.181856     -3.586276     -0.955300
  H       5.703818     -3.312639     -0.167572
  H       5.441335      0.685854      1.829817
36
Coordinates from ORCA-job amp_geom E -1530.016781408486
  P      -3.518900     -1.600771      0.041784
  O      -4.471576     -1.345995     -1.074145
  O      -3.902762     -2.410536      1.229578
  O      -2.188989     -2.223347     -0.652052
  O      -2.980490     -0.192751      0.642033
  C      -2.568851      0.817202     -0.257891
  C      -1.600427      1.735335      0.451568
  O      -0.457453      1.000713      0.918699
  C      -1.055800      2.819228     -0.458535
  O      -0.710849      3.946830      0.312525
  C       0.202893      2.152847     -1.013834
  O       1.195537      3.056466     -1.420356
  C       0.691190      1.367163      0.198105
  N       1.459790      0.192949     -0.124401
  C       1.058312     -0.894345     -0.855834
  N       1.971138     -1.823165     -0.947504
  C       3.039663     -1.323669     -0.235867
  C       4.320783     -1.829522      0.046060
  N       4.744778     -3.016508     -0.395047
  N       5.144108     -1.077724      0.793394
  C       4.716950      0.106182      1.232057
  N       3.542510      0.689221      1.031773
  C       2.739720     -0.073414      0.288454
  H      -1.570028     -2.546125      0.013235
  H      -2.090552      0.374464     -1.138551
  H      -3.433008      1.399223     -0.595053
  H      -2.088212      2.176713      1.324813
  H      -1.762708      3.082262     -1.252920
  H      -0.001229      4.400459     -0.162395
  H      -0.069127      1.469382     -1.823502
  H       1.049496      3.283238     -2.344777
  H       1.351201      2.000133      0.799606
  H       0.067646     -0.951697     -1.283176
  H       4.147516     -3.598598     -0.955206
  H       5.669629     -3.336046     -0.163882
  H       5.430106      0.664202      1.833245
36
Coordinates from ORCA-job amp_geom E -1530.016797996328
  P      -3.531229     -1.597250      0.045184
  O      -4.491023     -1.334796     -1.062404
  O      -3.909206     -2.408364      1.233924
  O      -2.209818     -2.224185     -0.661486
  O      -2.980842     -0.193192      0.645372
  C      -2.569581      0.816008     -0.255554
  C      -1.598812      1.733033      0.451716
  O      -0.455704      0.997055      0.916561
  C      -1.054739      2.816481     -0.459708
  O      -0.709521      3.944646      0.310631
  C       0.204104      2.150763     -1.015150
  O       1.195527      3.055480     -1.422324
  C       0.692854      1.365678      0.197045
  N       1.463122      0.192766     -0.125234
  C       1.063518     -0.894337     -0.858168
  N       1.977699     -1.821711     -0.949726
  C       3.044807     -1.321974     -0.236138
  C       4.325972     -1.826719      0.047134
  N       4.752161     -3.012725     -0.394887
  N       5.147446     -1.074972      0.796553
  C       4.718517      0.107818      1.236240
  N       3.543640      0.689614      1.034733
  C       2.742622     -0.072557      0.289278
  H      -1.588121     -2.553925     -0.002333
  H      -2.094407      0.372670     -1.137670
  H      -3.433449      1.399646     -0.590660
  H      -2.083978      2.175344      1.325910
  H      -1.762467      3.079464     -1.253498
  H       0.000680      4.397466     -0.164237
  H      -0.067336      1.466277     -1.824058
  H       1.050776      3.279857     -2.347506
  H       1.351651      1.998826      0.799718
  H       0.073332     -0.951739     -1.287155
  H       4.156730     -3.595145     -0.956568
  H       5.677071     -3.331356     -0.162717
  H       5.430002      0.666054      1.839181
36
Coordinates from ORCA-job amp_geom E -1530.016797671020
  P      -3.526410     -1.599268      0.050718
  O      -4.485294     -1.344793     -1.059004
  O      -3.901460     -2.409662      1.240818
  O      -2.200646     -2.220755     -0.653538
  O      -2.983577     -0.190974      0.649095
  C      -2.573251      0.817458     -0.253223
  C      -1.598723      1.732727      0.450794
  O      -0.455419      0.993995      0.910747
  C      -1.056063      2.816242     -0.462022
  O      -0.711540      3.945440      0.307367
  C       0.203593      2.152794     -1.018249
  O       1.193227      3.060342     -1.423696
  C       0.692929      1.366203      0.192809
  N       1.464586      0.195029     -0.131462
  C       1.066485     -0.889674     -0.869028
  N       1.980211     -1.817467     -0.959407
  C       3.044914     -1.321306     -0.239766
  C       4.323941     -1.828575      0.048019
  N       4.750834     -3.013875     -0.395736
  N       5.142984     -1.080333      0.803572
  C       4.713715      0.101484      1.245248
  N       3.540419      0.685180      1.039855
  C       2.741736     -0.072990      0.288171
  H      -1.579627     -2.549072      0.006829
  H      -2.102550      0.373799     -1.137562
  H      -3.437154      1.402966     -0.584977
  H      -2.079410      2.175876      1.326998
  H      -1.765212      3.078631     -1.254882
  H       0.001007      4.396207     -0.166058
  H      -0.066260      1.468792     -1.827936
  H       1.051041      3.283118     -2.349632
  H       1.350569      1.998338      0.797879
  H       0.077829     -0.944225     -1.302387
  H       4.157565     -3.594274     -0.961677
  H       5.674179     -3.334430     -0.160057
  H       5.422833      0.657049      1.853379
36
Coordinates from ORCA-job amp_geom E -1530.016796064476
  P      -3.524389     -1.600472      0.052693
  O      -4.480040     -1.352256     -1.060972
  O      -3.900976     -2.408816      1.243631
  O      -2.194204     -2.219420     -0.645711
  O      -2.987851     -0.188970      0.649560
  C      -2.575701      0.818318     -0.253306
  C      -1.599024      1.731952      0.449746
  O      -0.455995      0.991214      0.907132
  C      -1.056814      2.815911     -0.463053
  O      -0.713890      3.945895      0.305998
  C       0.203948      2.154262     -1.019063
  O       1.192912      3.063811     -1.421761
  C       0.692771      1.365981      0.191171
  N       1.465413      0.195909     -0.134661
  C       1.067634     -0.887958     -0.873691
  N       1.980939     -1.816214     -0.963217
  C       3.044964     -1.321273     -0.241776
  C       4.323085     -1.829660      0.047780
  N       4.749960     -3.014932     -0.396306
  N       5.141445     -1.082725      0.805392
  C       4.712253      0.098901      1.247546
  N       3.539645      0.683474      1.040670
  C       2.741635     -0.073236      0.286880
  H      -1.574339     -2.544498      0.017358
  H      -2.106866      0.373785     -1.138134
  H      -3.438704      1.405654     -0.584249
  H      -2.077552      2.175270      1.327040
  H      -1.766262      3.077583     -1.255919
  H       0.000451      4.395473     -0.165945
  H      -0.063960      1.471213     -1.830135
  H       1.052260      3.287562     -2.347697
  H       1.349365      1.997275      0.798290
  H       0.079475     -0.941347     -1.308290
  H       4.157333     -3.594721     -0.963477
  H       5.672553     -3.336422     -0.159072
  H       5.420524      0.653478      1.857549
36
Coordinates from ORCA-job amp_geom E -1530.016808963277
  P      -3.521758     -1.601658      0.053971
  O      -4.476801     -1.356905     -1.060898
  O      -3.897859     -2.409342      1.245491
  O      -2.189487     -2.218363     -0.642470
  O      -2.988904     -0.188299      0.649894
  C      -2.576587      0.818708     -0.253203
  C      -1.599182      1.731880      0.449330
  O      -0.456082      0.990566      0.905660
  C      -1.057489      2.816148     -0.463451
  O      -0.714704      3.946406      0.305284
  C       0.203499      2.155203     -1.019772
  O       1.192057      3.065618     -1.421664
  C       0.692583      1.366347      0.190046
  N       1.465587      0.196767     -0.136633
  C       1.067877     -0.886593     -0.876461
  N       1.980892     -1.815138     -0.965758
  C       3.044371     -1.321254     -0.242793
  C       4.321824     -1.830562      0.047999
  N       4.748631     -3.015751     -0.396410
  N       5.139737     -1.084599      0.807082
  C       4.710713      0.096988      1.249451
  N       3.538729      0.682428      1.041427
  C       2.741145     -0.073349      0.286243
  H      -1.569062     -2.540643      0.021436
  H      -2.108514      0.374020     -1.138327
  H      -3.439486      1.406571     -0.583532
  H      -2.076992      2.175145      1.327045
  H      -1.767322      3.077604     -1.256045
  H       0.001597      4.394123     -0.165528
  H      -0.063800      1.472581     -1.831380
  H       1.052156      3.289181     -2.347766
  H       1.348980      1.997417      0.797604
  H       0.080097     -0.939055     -1.312032
  H       4.156394     -3.595007     -0.964503
  H       5.670642     -3.337998     -0.158002
  H       5.418522      0.650816      1.860666
