126
Coordinates from ORCA-job flower_ring_geom E -11934.235918968103
  Si          3.55627956984921     33.84474042952003      7.80505690016451
  Si          3.55599493787031     30.76674086618087      7.80505551131585
  O           2.14731821116266     34.47986992937260      8.39200954750390
  O           2.14691603941176     30.13187181311271      8.39200765696604
  O           3.71011738599946     32.30572613766952      8.39506157640514
  O           3.55533562556149     33.84674103670351      6.14905686799665
  O           3.55505052715474     30.76474201363706      6.14905547729509
  Si          6.21956831669146     26.15149440060893      7.80514223760452
  Si          8.88342640078574     24.61424780522041      7.80523031418321
  O           4.81048957548554     25.51662516697470      8.39209458588669
  O           7.47546534242960     25.24937768331937      8.39218363462672
  O           9.03826570387856     23.07523312374386      8.39523421892645
  O           6.21962357505208     26.14949573837663      6.14914223691134
  O           8.88348234107602     24.61624915682533      6.14923031676101
  Si          6.21985270696428     29.22949428296469      7.80514427522295
  Si          6.22042170921233     35.38149390031400      7.80514739412732
  Si          8.88427941707139     33.84424771416597      7.80523636063185
  Si          8.88399474719873     30.76624784545450      7.80523472306227
  O           4.81089170154222     29.86462434970363      8.39209728636703
  O           4.81134317911456     34.74662406167829      8.39209963172476
  O           7.47631845614849     34.47937755602104      8.39218934325342
  O           7.47591634339730     30.13137774860300      8.39218704828047
  O           6.37369072739006     27.69047971462907      8.39514850373992
  O           9.03911727656057     32.30523313391920      8.39524081566213
  O           6.21990854520462     29.23149527970919      6.14914427736845
  O           6.22047734903064     35.37949457855387      6.14914739424308
  O           8.88433523749310     33.84624849454583      6.14923636251534
  O           8.88405019927114     30.76424881407772      6.14923472282115
  Si          6.22070630397131     38.45949359338622      7.80514846212219
  Si          8.88484854288630     39.99624746549265      7.80523851809121
  O           4.81174479108734     39.09462258678956      8.39210119545851
  O           7.47677001274948     39.36137739628101      8.39219101071062
  O           6.37454415347036     36.92047931166065      8.39515323500797
  O           9.03997215289908     41.53523283577960      8.39524413654920
  O           6.22076218361575     38.46149390999170      6.14914846344741
  O           8.88490421022754     39.99424787521203      6.14923851853211
  Si         11.54856816080422     26.15100154917627      7.80532101179265
  Si         14.21342617340738     24.61375533993064      7.80540927982395
  O          10.13948989512941     25.51613128613241      8.39227327360103
  O          12.80446513815200     25.24888505287886      8.39236248881191
  O          14.36726547624224     23.07474079190021      8.39541321554397
  O          11.54862351805233     26.14900281274722      6.14932101119232
  O          14.21248214548674     24.61575678411074      6.14940924871511
  Si         11.54885246845899     29.22900147585002      7.80532321594384
  Si         11.54942133649140     35.38100136970223      7.80532645687252
  Si         14.21427897695261     33.84375507043494      7.80541497842674
  Si         14.21399428543405     30.76575518228933      7.80541341118209
  O          10.13989155351202     29.86413135709498      8.39227638296885
  O          10.14034301185250     34.74613137298521      8.39227896729561
  O          12.80531816703271     34.47888503904359      8.39236817713861
  O          12.80491604409258     30.13088505694839      8.39236592065138
  O          11.70269054107890     27.68998686667553      8.39532732659787
  O          14.36811692571191     32.30474058687914      8.39541940127658
  O          11.54890818534995     29.23100256322044      6.14932321819475
  O          11.54947663653340     35.37900201755197      6.14932645701357
  O          14.21333449280955     33.84575590196416      6.14941494683770
  O          14.21304946839384     30.76375620337085      6.14941337754559
  Si         11.54970613087416     38.45900119822405      7.80532752821697
  Si         14.21484818650477     39.99575477207924      7.80541713208786
  O          10.14074527213335     39.09413122304753      8.39228053968854
  O          12.80576985324842     39.36088491950687      8.39236985370474
  O          11.70354398496634     36.91998683458409      8.39533220737305
  O          14.36897174124580     41.53474026575743      8.39542260771882
  O          11.54976177392770     38.46100169029216      6.14932752974616
  O          14.21390355424841     39.99375519899435      6.14941709906329
  Si         16.87756749855155     26.15050899442465      7.80549955564375
  O          15.46848949130626     25.51563890152131      8.39245220929412
  O          18.13346393241037     25.24839175617752      8.39254083518578
  O          16.87762240772650     26.14850994770960      6.14949955540301
  Si         16.87785191765821     29.22850890834638      7.80550148305301
  Si         16.87842081525820     35.38050879955515      7.80550448567186
  Si         19.54227832849914     33.84326260789163      7.80559239137998
  Si         19.54199367737117     30.76526236735209      7.80559092844401
  O          15.46889114248514     29.86363880831925      8.39245486503062
  O          15.46934264112373     34.74563883125279      8.39245729788275
  O          18.13431770434181     34.47839245703150      8.39254599942251
  O          18.13391560494956     30.13039238249581      8.39254392262288
  O          17.03169004405954     27.68949434600732      8.39550568655026
  O          19.69711642249377     32.30424787405016      8.39559683337832
  O          16.87790733540909     29.23050992077894      6.14950148520332
  O          16.87847579008529     35.37850940083866      6.14950448585827
  O          19.54233334945960     33.84526352125864      6.14959239339734
  O          19.54204832887957     30.76326302127579      6.14959092855615
  Si         16.87870556596743     38.45850876716421      7.80550556142220
  O          15.46974492991814     39.09363868632324      8.39245896399792
  O          18.13476884535832     39.36039324951530      8.39254762533821
  O          17.03254355919988     36.91949434055856      8.39551018417391
  O          16.87876072606624     38.46050942812378      6.14950556313924
  O          20.79788994442764     29.86314483825184      8.39263215474827
  O          20.79834144225465     34.74514724138192      8.39263447268627
  H           4.07465744659243     24.98677196321925      8.03659114865765
  H           1.41040899052425     29.60201489549166      8.03674925697485
  H           1.41040902549410     35.00798503177288      8.03674926638418
  H           4.07465745898773     39.62322805979431      8.03659115996192
  H           8.94818075412114     22.17325469853240      8.03830169539268
  H           8.94818078471190     42.43674532883108      8.03830167797714
  H          14.27776161365058     22.17320383615819      8.03828218642255
  H          14.27776165254223     42.43679618200991      8.03828219096526
  H          18.96055663466794     24.87622782610576      8.03640577545117
  H          18.96055659370773     39.73377216951953      8.03640577806140
  H          21.62471731022934     29.49142000868884      8.03658341135325
  H          21.62471731477058     35.11857999987613      8.03658341239795
  H          13.47334787779305     34.33969201132491      5.77053783764183
  H          10.74926000032449     34.99046400131843      5.77023529505414
  H           8.81167363769875     32.96116255899447      5.76697193974141
  H           9.62381148132748     30.27003703547103      5.77033687281657
  H          12.34866383886496     29.62017120097089      5.76981615999959
  H          14.28693862521026     31.64894264172812      5.76767434594461
  H          13.43741577162703     39.55939035502863      5.77013492841418
  H          10.76326415907726     38.88025396731360      5.77340162048943
  H           8.09035806243576     39.59302507217270      5.77060172210970
  H           6.19940742273249     37.57311450473237      5.76752419881198
  H           5.46285517655470     34.90842776222416      5.77483038484135
  H           3.48672851249527     32.96060584822784      5.76784725953338
  H           4.32175130006032     30.31441601568185      5.76859359000592
  H           6.24999848564629     28.34167364954056      5.77128025143585
  H           6.96656290300000     25.66521392863096      5.77060589010239
  H           9.66450007330081     25.04268777184775      5.77010940497554
  H          12.33716317516718     25.73204016940186      5.77469616332823
  H          15.01298324278634     25.00404868895465      5.77012241301679
  H          16.88935710653549     27.03674439645871      5.76727881103124
  H          17.63691822928705     29.69822849922870      5.77413515522424
  H          19.59665705537549     31.65062236508071      5.76867471821436
  H          18.77974025085614     34.30373618901540      5.77043529061934
  H          16.84541693174635     36.26893052255044      5.77289655897107
  H          16.13911423226808     38.95545677146863      5.77076934255189
