162
Coordinates from ORCA-job amp_frame12_dry_r2scan E -13470.339299790630
  Si          3.43822831114648     33.85701968084936      7.83818101260843
  Si          3.47120243170092     30.75322641513445      7.83670314803835
  O           2.22247030561807     34.74618550193600      8.48848679882316
  O           2.27534942200063     29.79940478238426      8.42304248137189
  O           3.33442871671034     32.28439613628711      8.34919951127659
  O           3.27994415858215     33.81960027681821      6.19730110573830
  O           3.47059905108035     30.80832224861740      6.18781339620856
  Si          6.13339268426739     26.17273551423696      7.84487139634170
  Si          8.76655833768693     24.54546276318607      7.86842473547088
  O           4.71778324529928     25.60174848956563      8.41849397667318
  O           7.41819575969611     25.30982454790970      8.38213341347098
  O           8.67414428595290     23.01527542084552      8.43301786937759
  O           6.17888794067360     26.14720288695163      6.19528935109224
  O           8.75507494286216     24.60330802911993      6.22101102951023
  Si          6.14511102608916     29.24906488144155      7.72261452004541
  Si          6.17934807345537     35.51671460098236      8.23016589931558
  Si          8.97543629428786     33.92876275566043      7.64221681750103
  Si          8.90589726608410     30.82683263777769      7.63719543144831
  O           4.88357841680876     30.07370765665823      8.32947815669797
  O           4.83326110183059     34.50348567928711      8.27868041252322
  O           7.63710252279163     34.76399169113993      7.83459724374072
  O           7.52230057359856     30.06022803495917      8.02885119496727
  O           6.25171725406537     27.72862262991428      8.32556174450829
  O           8.86723564458619     32.36331379174878      8.16349131842817
  O           5.86972786566302     29.12155161055278      6.10293489861183
  O           5.82714464797326     35.99499925910405      6.58619391141856
  O           9.35597284462430     33.80235371969247      6.02474043692342
  O           9.10069523230331     30.88237805909803      6.00507590086320
  Si          6.27467320798601     38.67272362012424      7.92955711900477
  Si          9.01523628063149     40.06774099067635      7.85062688498672
  O           4.98934174875958     39.60012279290663      8.36421087045245
  O           7.60028744637099     39.52765996692866      8.44771736516050
  O           6.32721741439674     37.19811040843966      8.61278862601524
  O           9.38386083260563     41.60573646992240      8.27396234899893
  O           6.43342483093438     38.52870256346397      6.29980718697128
  O           8.97096955173454     39.88126782539523      6.21256289170180
  Si         11.45404619738631     26.05370664066607      7.79785158438479
  Si         14.12978758518583     24.54021557914569      7.85611035057548
  O          10.10928846718201     25.33354919947604      8.38487986745142
  O          12.81930119549295     25.36699852190437      8.37314803948620
  O          13.91023736795293     23.00553841839641      8.36945995586252
  O          11.39566362352777     25.78746808790800      6.17165043247913
  O          14.16180346035295     24.63402070306470      6.20981110579878
  Si         11.51300814798287     29.22521517331874      7.74356556800237
  Si         11.68925599093166     35.37889191375347      7.72055759293214
  Si         14.28270074302432     33.76604287481484      7.78458871124562
  Si         14.18868244115371     30.70409166547613      7.77430772506596
  O          10.16685649024095     29.98088393077946      8.26719152990470
  O          10.31036070275096     34.70039527257998      8.23937494786412
  O          13.02638572617596     34.64492947736631      8.34477262695304
  O          12.87506586605461     29.91097890987931      8.33548672510482
  O          11.43890933646903     27.64314493012088      8.13931650547609
  O          14.31098546823094     32.22845617587522      8.35088697691069
  O          11.54439727373231     29.38222960112672      6.10413128200975
  O          11.78049133628994     35.16124229523005      6.08851109007562
  O          14.11422439393870     33.62970571811940      6.15067023379056
  O          14.00489274428700     30.80468717539934      6.13936613235070
  Si         11.68000598091810     38.56296799511694      7.79472345527917
  Si         14.38031005927279     40.04870007317268      7.86339777850334
  O          10.30639498529333     39.19988581280143      8.39045586143278
  O          13.02604038142319     39.29743582022656      8.38847450648209
  O          11.76187190614432     36.96431584209228      8.09768871102184
  O          14.54314447723586     41.58027486938360      8.40801148737964
  O          11.73378581710186     38.86159207654939      6.17398021214665
  O          14.39836381806706     39.95535011158569      6.21710276987931
  Si         16.85767817452010     25.98680722078091      7.88887633573718
  O          15.50778689600987     25.22342526948948      8.41140294516016
  O          18.11383621093565     25.10610724831350      8.44647387813883
  O          16.78631081175358     26.00288348045245      6.24133170765526
  Si         16.91290045092352     29.06700260172240      7.81090685827281
  Si         17.04931594452170     35.32799298372144      7.80922376223511
  Si         19.68329547002621     33.74262646277341      7.84866997749894
  Si         19.56401626598652     30.65188607089687      7.81425077249156
  O          15.52126909211010     29.83833659450632      8.13055001088114
  O          15.69931774992890     34.49301696871043      8.13981604996258
  O          18.35675332868844     34.53021082634407      8.39948994564806
  O          18.17685864583569     29.96214294462492      8.32141383682399
  O          16.88515312934554     27.54204471634176      8.40070050661063
  O          19.68747201513030     32.18874656117990      8.37201320222860
  O          17.09886247389552     28.84754768168330      6.18185461050192
  O          17.32084763839072     35.41045890469077      6.18381750359081
  O          19.59609175777843     33.68686322794036      6.20528201534879
  O          19.54230812484418     30.71617472444256      6.17059859569477
  Si         16.99755626261750     38.39968794135689      7.84153852996159
  O          15.72380165328090     39.26279576288383      8.38474873250999
  O          18.44638549590928     38.97025976090074      8.33747120951135
  O          16.94872437605612     36.85318576138029      8.37923053731885
  O          16.89265729726793     38.34701167361315      6.19576050810382
  O          20.74367801961296     29.68020892462345      8.38512558167366
  O          21.08780325361986     34.38652220177799      8.37904390824987
  H           4.07465745320079     24.98677199035935      8.03659114055825
  H           1.41040896121035     29.60201497066252      8.03674925550090
  H           1.41040918814334     35.00798488602756      8.03674927966927
  H           4.07465742906889     39.62322797895273      8.03659115892791
  H           8.94818084234486     22.17325470930665      8.03830168514889
  H           8.94818086802966     42.43674529270626      8.03830167876660
  H          14.27776160069024     22.17320394393505      8.03828218980606
  H          14.27776173266738     42.43679615870560      8.03828219180217
  H          18.96055650675103     24.87622774176331      8.03640578990644
  H          18.96055655962840     39.73377232830031      8.03640577097318
  H          21.62471723579700     29.49141995040059      8.03658341551239
  H          21.62471723137271     35.11858006746581      8.03658341151506
  H          13.35554334757328     34.15632668871868      5.82423309416126
  H          10.96574384391116     34.72071702928682      5.76315146810400
  H           9.22169552968665     32.90879400735488      5.67150593820616
  H           9.86033742617271     30.35661101569701      5.69986825995510
  H          12.35458606727333     29.82572904790595      5.79126144933314
  H          14.04999417563159     31.72831272363997      5.82486895972836
  H          13.54483067853955     39.65183765413040      5.85684838834003
  H          10.86931385440558     39.11472257977220      5.80677990888761
  H           8.16688045129455     39.39728124027564      5.93423990352707
  H           6.24340411259962     37.57132667143516      6.09653867789439
  H           5.35844236545439     35.31594088773241      6.09038626914424
  H           3.34872357003692     32.92405921727573      5.83560032028707
  H           4.15062701459354     30.23964956278069      5.79238294152001
  H           6.02545519960240     28.23274390190311      5.74942598406814
  H           6.94957908284659     25.66878786350794      5.84902187953685
  H           9.58937854896915     24.94330604582472      5.85344092828768
  H          12.24515185723439     25.52312091262621      5.78658003233266
  H          14.96768870919550     25.06358455943631      5.87628585852834
  H          16.92418466417569     26.89588439170823      5.87673153521068
  H          17.71726024599580     29.46366490293163      5.76430035930006
  H          19.56303181552394     31.62651825620337      5.83068763198301
  H          18.88953851655575     34.25710522121673      5.85073863762954
  H          17.12070131214130     36.27893961619834      5.79940265242073
  H          16.11483669124869     38.82419658691075      5.85860816847994
  P           7.48366861090057     35.34826146112313     11.00585792706470
  O           7.18070167192818     35.09200306196796     12.41892359756649
  O           6.37253929715629     35.17535610429989      9.95936365438115
  O           8.12222078859871     36.79574185458018     10.77563544045548
  O           8.60470186610323     34.31340448439393     10.46132544656916
  C           9.76995037180821     34.04500623350014     11.23144715369402
  C          10.03082209259775     32.53911725735286     11.18008924727612
  O          11.36643824445828     32.28940556984871     10.67555286198244
  C           9.93729431121142     31.81664369455043     12.52497284252395
  O           9.48677611297689     30.46717388658278     12.39429302866325
  C          11.40224055911353     31.69788315053571     12.93475295166457
  O          11.67131039945200     30.73306516722436     13.91021994763774
  C          12.04840096870919     31.43120204796307     11.56237493666898
  N          13.45386198569431     31.73246029031173     11.48913634894302
  C          14.04686212140530     32.97612908274621     11.47067563110819
  N          15.35442308471386     32.93272373631900     11.38383176351760
  C          15.64138741785149     31.58485472483142     11.34159794555814
  C          16.84240216384250     30.86958205663857     11.23653842177547
  N          18.04920336787365     31.48628771283694     11.21228659304937
  N          16.79583289037653     29.52908539166959     11.19046181044105
  C          15.59887065003417     28.93026671014494     11.26099736212260
  N          14.39389082968942     29.48601782468615     11.37233715745782
  C          14.47603629686795     30.81705245587016     11.40192831818536
  H           7.71149446969925     37.21082137291256      9.99413557237774
  H          10.61947180540819     34.56885006325322     10.78510015668620
  H           9.62340004481113     34.39530665186974     12.25905973752515
  H           9.31438642201697     32.10900944082184     10.47668508205379
  H           9.32024272334355     32.36575505134575     13.24345284540845
  H           8.56435093823828     30.48064917788301     12.11486470490168
  H          11.76520180117472     32.66214474690698     13.30778541149267
  H          11.11047165424029     29.97331946613489     13.69456950815833
  H          11.94482890257202     30.37166548221094     11.29400693745855
  H          13.44907424095401     33.87542658660629     11.48743481315139
  H          18.06043879092296     32.46515066452483     10.97361320236837
  H          18.82860513879612     30.92619437967098     10.90706015136688
  H          15.61945993671077     27.84489000242046     11.20857676444426
