162
Coordinates from ORCA-job amp_frame12_dry_r2scan E -13470.268941116945
  Si      3.502474     33.902691      7.785578
  Si      3.461371     30.794058      7.801322
  O       2.289420     34.798589      8.396750
  O       2.173917     30.039431      8.453147
  O       3.469786     32.353217      8.315987
  O       3.510044     33.900086      6.147271
  O       3.426744     30.844639      6.165873
  Si      6.146244     26.135651      7.792969
  Si      8.826370     24.545090      7.792301
  O       4.802609     25.487033      8.443168
  O       7.489498     25.348904      8.304257
  O       8.767692     23.046937      8.430534
  O       6.116016     26.137279      6.155531
  O       8.789336     24.539587      6.156578
  Si      6.122545     29.225083      7.681083
  Si      6.165425     35.451011      7.668184
  Si      8.895850     33.855907      7.563270
  Si      8.874522     30.773629      7.596728
  O       4.846856     30.051370      8.285985
  O       4.895509     34.629348      8.279147
  O       7.557745     34.669658      8.010377
  O       7.495298     30.033936      8.043903
  O       6.207803     27.707451      8.277148
  O       8.831461     32.322938      8.129436
  O       5.895153     29.163329      6.061989
  O       5.972334     35.629409      6.054869
  O       9.041746     33.819266      5.935156
  O       9.001223     30.844774      5.968825
  Si      6.191582     38.540852      7.790490
  Si      8.908065     40.068532      7.792266
  O       4.892159     39.276213      8.439470
  O       7.540728     39.320956      8.303226
  O       6.282516     36.966642      8.287504
  O       9.048847     41.555511      8.436847
  O       6.206566     38.580600      6.156838
  O       8.921225     40.091007      6.154438
  Si     11.515392     26.074572      7.700420
  Si     14.196378     24.539547      7.794638
  O      10.167309     25.359503      8.289477
  O      12.873362     25.384351      8.288632
  O      14.028398     23.039456      8.404120
  O      11.463533     25.876973      6.077031
  O      14.201600     24.546455      6.156705
  Si     11.524070     29.231298      7.650221
  Si     11.580714     35.369417      7.599366
  Si     14.228205     33.817188      7.649366
  Si     14.191300     30.747060      7.656044
  O      10.167571     29.970245      8.203281
  O      10.211883     34.647885      8.131212
  O      12.918522     34.634755      8.197866
  O      12.873337     29.955805      8.227109
  O      11.489075     27.662806      8.089559
  O      14.257528     32.282027      8.217983
  O      11.502702     29.375251      6.019991
  O      11.655218     35.222284      5.971019
  O      14.132838     33.701355      6.019129
  O      14.029071     30.790565      6.026699
  Si     11.582982     38.527692      7.676512
  Si     14.268406     40.061787      7.798783
  O      10.227585     39.213310      8.277207
  O      12.939458     39.218700      8.275151
  O      11.600394     36.934990      8.042535
  O      14.210263     41.555139      8.446104
  O      11.629563     38.752473      6.057093
  O      14.350522     40.061019      6.163532
  Si     16.904722     26.062303      7.812503
  O      15.554320     25.284432      8.329572
  O      18.207105     25.326498      8.457121
  O      16.873460     26.012660      6.176260
  Si     16.919091     29.151925      7.706851
  Si     16.961698     35.394891      7.709746
  Si     19.628635     33.832435      7.795583
  Si     19.593834     30.714125      7.786902
  O      15.532773     29.931245      8.078037
  O      15.598295     34.578364      8.093354
  O      18.253557     34.583812      8.301883
  O      18.203045     29.985415      8.270158
  O      16.854017     27.629823      8.302031
  O      19.606784     32.270828      8.298782
  O      17.065016     28.988916      6.082814
  O      17.166961     35.448566      6.086852
  O      19.645599     33.813287      6.160009
  O      19.610506     30.685874      6.149534
  Si     16.946469     38.483531      7.793676
  O      15.622477     39.294187      8.321531
  O      18.329146     39.090024      8.401788
  O      16.877056     36.917436      8.295443
  O      16.936263     38.473961      6.155818
  O      20.828295     29.876805      8.440536
  O      20.955715     34.531464      8.433246
  H       4.074658     24.986772      8.036591
  H       1.410409     29.602015      8.036749
  H       1.410409     35.007985      8.036749
  H       4.074657     39.623228      8.036591
  H       8.948181     22.173255      8.038302
  H       8.948181     42.436745      8.038302
  H      14.277762     22.173204      8.038282
  H      14.277762     42.436796      8.038282
  H      18.960557     24.876228      8.036406
  H      18.960557     39.733772      8.036406
  H      21.624717     29.491420      8.036583
  H      21.624717     35.118580      8.036583
  H      13.382711     34.178659      5.630590
  H      10.873500     34.812282      5.570829
  H       9.018211     32.929921      5.551235
  H       9.777095     30.383248      5.612326
  H      12.287482     29.815824      5.655273
  H      14.059550     31.685806      5.653371
  H      13.536261     39.791391      5.716286
  H      10.815424     39.107442      5.673493
  H       8.161632     39.664792      5.735323
  H       6.070764     37.722332      5.729521
  H       5.264872     35.093966      5.667723
  H       3.505197     33.019462      5.746600
  H       4.093711     30.292078      5.733477
  H       6.010475     28.288782      5.665487
  H       6.855251     25.678510      5.734556
  H       9.592297     24.879116      5.735955
  H      12.276987     25.537034      5.679564
  H      14.965306     24.989742      5.761090
  H      17.007725     26.871680      5.749847
  H      17.763956     29.523137      5.681769
  H      19.639080     31.554288      5.726722
  H      18.944452     34.338362      5.747266
  H      17.045382     36.320905      5.687095
  H      16.175751     38.922222      5.759150
  P       8.074664     36.009043     11.825339
  O       8.859273     36.545212     12.970724
  O       6.586257     35.979458     11.837659
  O       8.600442     36.802468     10.514177
  O       8.525461     34.474569     11.531975
  C       9.901582     34.155495     11.465602
  C      10.006110     32.664869     11.211960
  O      11.305815     32.376096     10.675347
  C       9.850528     31.811552     12.460812
  O       9.174535     30.586389     12.244954
  C      11.304030     31.550237     12.858168
  O      11.483199     30.434492     13.674239
  C      11.969548     31.441387     11.482711
  N      13.376857     31.739659     11.464892
  C      13.960846     32.977156     11.518997
  N      15.266511     32.932980     11.491826
  C      15.562975     31.590578     11.421338
  C      16.773970     30.879231     11.375150
  N      17.969405     31.479708     11.411249
  N      16.717387     29.540291     11.319307
  C      15.525672     28.943521     11.306121
  N      14.322755     29.499513     11.350594
  C      14.399196     30.830194     11.404300
  H       7.975305     36.730414      9.781488
  H      10.379363     34.684227     10.637460
  H      10.409528     34.433368     12.395174
  H       9.253638     32.385225     10.471428
  H       9.299684     32.336414     13.241635
  H       9.345997     30.267104     11.351586
  H      11.711128     32.423596     13.375010
  H      10.817781     29.787089     13.398798
  H      11.869025     30.418800     11.098411
  H      13.362831     33.875391     11.560080
  H      18.035445     32.478473     11.318248
  H      18.798017     30.928345     11.266844
  H      15.548104     27.858540     11.249783
162
Coordinates from ORCA-job amp_frame12_dry_r2scan E -13470.278244656956
  Si      3.502877     33.903653      7.828310
  Si      3.460445     30.796037      7.837308
  O       2.277017     34.800948      8.412965
  O       2.163414     30.034750      8.465328
  O       3.459293     32.352253      8.352409
  O       3.519635     33.891363      6.185779
  O       3.442233     30.845332      6.198022
  Si      6.146226     26.134793      7.827278
  Si      8.824501     24.545413      7.829612
  O       4.793779     25.480871      8.455278
  O       7.483920     25.341337      8.339255
  O       8.762471     23.035593      8.442094
  O       6.129070     26.137773      6.186307
  O       8.798577     24.558331      6.190773
  Si      6.119031     29.224083      7.728748
  Si      6.162133     35.455622      7.739965
  Si      8.891993     33.858874      7.634232
  Si      8.873763     30.773440      7.654901
  O       4.839927     30.048227      8.326515
  O       4.886807     34.630232      8.332400
  O       7.553649     34.671250      8.075439
  O       7.491496     30.031907      8.091532
  O       6.203443     27.702740      8.316472
  O       8.826821     32.320325      8.186938
  O       5.894264     29.157540      6.106121
  O       5.969948     35.630991      6.121349
  O       9.041346     33.814073      6.002241
  O       9.016590     30.835600      6.024680
  Si      6.194225     38.542864      7.845915
  Si      8.908530     40.068314      7.846658
  O       4.882392     39.289648      8.458406
  O       7.537255     39.332636      8.355320
  O       6.278029     36.973520      8.348610
  O       9.049972     41.570988      8.456639
  O       6.223948     38.564817      6.207613
  O       8.920404     40.071832      6.204178
  Si     11.513356     26.073267      7.760236
  Si     14.194958     24.540092      7.834858
  O      10.163700     25.351959      8.337969
  O      12.872481     25.376556      8.337392
  O      14.027665     23.028240      8.418078
  O      11.465067     25.881160      6.132915
  O      14.202738     24.563392      6.193997
  Si     11.525713     29.231461      7.727830
  Si     11.578794     35.371628      7.681374
  Si     14.227028     33.819273      7.729047
  Si     14.192283     30.748642      7.745314
  O      10.162819     29.967560      8.269438
  O      10.208822     34.647994      8.202541
  O      12.920323     34.638800      8.275706
  O      12.872671     29.954792      8.309217
  O      11.486725     27.658957      8.155109
  O      14.261445     32.284633      8.300595
  O      11.520211     29.380397      6.094989
  O      11.648869     35.219047      6.049207
  O      14.116753     33.700225      6.096553
  O      14.033831     30.799631      6.112550
  Si     11.582856     38.530364      7.750322
  Si     14.269181     40.060053      7.844920
  O      10.228311     39.222491      8.338863
  O      12.944310     39.225660      8.335312
  O      11.601199     36.938770      8.115127
  O      14.217743     41.567444      8.462610
  O      11.628492     38.752746      6.126485
  O      14.340547     40.038131      6.205939
  Si     16.901333     26.063255      7.856986
  O      15.556577     25.275040      8.370866
  O      18.213535     25.317737      8.471918
  O      16.857215     26.033945      6.217455
  Si     16.918405     29.150666      7.779940
  Si     16.964330     35.396414      7.765110
  Si     19.628619     33.831263      7.831773
  Si     19.592547     30.714350      7.827263
  O      15.535404     29.929577      8.157978
  O      15.603072     34.582440      8.152243
  O      18.262084     34.585889      8.347848
  O      18.210532     29.983913      8.325064
  O      16.857975     27.623446      8.361341
  O      19.615966     32.270714      8.337187
  O      17.056894     28.993342      6.151261
  O      17.168177     35.451338      6.138757
  O      19.625606     33.807465      6.193490
  O      19.594120     30.692928      6.186638
  Si     16.946601     38.484132      7.832523
  O      15.630542     39.302466      8.362506
  O      18.339892     39.094880      8.414960
  O      16.884297     36.922227      8.341245
  O      16.921464     38.469734      6.191676
  O      20.839657     29.874214      8.455587
  O      20.967522     34.532762      8.444403
  H       4.074658     24.986772      8.036591
  H       1.410409     29.602015      8.036749
  H       1.410409     35.007985      8.036749
  H       4.074657     39.623228      8.036591
  H       8.948181     22.173255      8.038302
  H       8.948181     42.436745      8.038302
  H      14.277762     22.173204      8.038282
  H      14.277762     42.436796      8.038282
  H      18.960557     24.876228      8.036406
  H      18.960557     39.733772      8.036406
  H      21.624717     29.491420      8.036583
  H      21.624717     35.118580      8.036583
  H      13.371684     34.195749      5.719031
  H      10.852977     34.827026      5.657946
  H       8.996615     32.921529      5.627288
  H       9.786844     30.354113      5.681796
  H      12.319709     29.806238      5.743507
  H      14.086512     31.697964      5.747269
  H      13.521345     39.757864      5.772609
  H      10.810438     39.104142      5.748270
  H       8.151371     39.651211      5.796617
  H       6.093670     37.698867      5.794503
  H       5.263449     35.091995      5.739628
  H       3.505241     33.007016      5.794402
  H       4.117595     30.294014      5.776398
  H       6.016718     28.282064      5.714801
  H       6.867297     25.668513      5.774438
  H       9.605515     24.905685      5.782556
  H      12.282646     25.547553      5.738694
  H      14.974630     25.001532      5.807427
  H      16.986191     26.901097      5.804567
  H      17.750630     29.534640      5.751153
  H      19.629554     31.565053      5.770686
  H      18.915790     34.331456      5.791551
  H      17.040635     36.324763      5.743106
  H      16.160643     38.927294      5.804621
  P       8.038869     35.967098     11.891697
  O       8.824041     36.454625     13.057287
  O       6.551643     35.935624     11.857861
  O       8.599793     36.775679     10.593631
  O       8.498342     34.430902     11.559439
  C       9.874808     34.133680     11.512496
  C      10.001690     32.645211     11.238640
  O      11.312347     32.376808     10.688630
  C       9.862069     31.764899     12.473159
  O       9.216635     30.519018     12.228093
  C      11.324840     31.519404     12.868078
  O      11.523774     30.396760     13.676728
  C      11.993068     31.438164     11.484077
  N      13.398191     31.764728     11.471076
  C      13.957236     33.017681     11.570560
  N      15.267654     33.006816     11.549725
  C      15.592211     31.674693     11.415254
  C      16.819857     30.999126     11.331330
  N      18.002379     31.639897     11.396064
  N      16.806387     29.662845     11.207027
  C      15.626165     29.033616     11.168598
  N      14.403411     29.551888     11.244869
  C      14.445041     30.881204     11.365860
  H       7.974707     36.716427      9.860542
  H      10.360385     34.679498     10.697086
  H      10.367500     34.409590     12.455956
  H       9.249314     32.363285     10.500177
  H       9.293139     32.261754     13.259996
  H       9.395628     30.237016     11.322105
  H      11.721000     32.393944     13.394621
  H      10.857549     29.749213     13.399267
  H      11.915491     30.414394     11.086421
  H      13.337182     33.899011     11.646027
  H      18.029758     32.643539     11.345845
  H      18.846620     31.121776     11.224969
  H      15.680153     27.953346     11.061508
162
Coordinates from ORCA-job amp_frame12_dry_r2scan E -13470.284627939205
  Si      3.504794     33.907474      7.857546
  Si      3.459898     30.800074      7.863564
  O       2.269444     34.806002      8.422690
  O       2.155249     30.032799      8.474341
  O       3.454358     32.352921      8.372881
  O       3.509993     33.882354      6.207500
  O       3.445980     30.840201      6.217706
  Si      6.146524     26.133965      7.852445
  Si      8.822898     24.545661      7.854319
  O       4.786931     25.476690      8.464351
  O       7.481361     25.336554      8.360117
  O       8.759312     23.027524      8.450044
  O       6.133823     26.128162      6.205530
  O       8.801887     24.562395      6.210216
  Si      6.114568     29.223013      7.757304
  Si      6.158038     35.464143      7.775735
  Si      8.886551     33.864116      7.654319
  Si      8.871302     30.774529      7.676866
  O       4.835241     30.047141      8.348478
  O       4.881030     34.633999      8.355022
  O       7.551021     34.676741      8.089581
  O       7.487715     30.030971      8.108724
  O       6.200639     27.698252      8.338080
  O       8.823311     32.320343      8.197605
  O       5.884084     29.143924      6.130148
  O       5.950983     35.635648      6.149678
  O       9.036840     33.801546      6.015302
  O       9.021491     30.821434      6.041606
  Si      6.195436     38.548409      7.870891
  Si      8.908643     40.069782      7.872462
  O       4.877908     39.302307      8.465085
  O       7.536356     39.341387      8.371146
  O       6.277811     36.984676      8.366628
  O       9.054108     41.580821      8.465402
  O       6.222216     38.564259      6.224322
  O       8.911084     40.077143      6.222005
  Si     11.512326     26.070405      7.787927
  Si     14.194834     24.540843      7.855410
  O      10.161661     25.347471      8.360750
  O      12.874013     25.372355      8.356279
  O      14.027038     23.021573      8.424973
  O      11.466972     25.866931      6.156295
  O      14.208479     24.563162      6.209163
  Si     11.526479     29.231030      7.753637
  Si     11.577387     35.375052      7.699572
  Si     14.228047     33.823586      7.751947
  Si     14.193651     30.750870      7.763325
  O      10.161405     29.966170      8.291600
  O      10.207032     34.652009      8.209893
  O      12.922519     34.643936      8.289603
  O      12.875548     29.953916      8.324670
  O      11.486281     27.655544      8.174279
  O      14.266063     32.285982      8.315577
  O      11.525419     29.378990      6.115720
  O      11.642801     35.211302      6.061017
  O      14.113888     33.707410      6.113586
  O      14.029837     30.811366      6.125529
  Si     11.582119     38.535872      7.774952
  Si     14.269722     40.058964      7.868896
  O      10.229010     39.228513      8.354393
  O      12.948239     39.229819      8.354879
  O      11.601978     36.943374      8.122046
  O      14.222472     41.575016      8.470182
  O      11.627977     38.776145      6.146368
  O      14.340614     40.035257      6.223886
  Si     16.900223     26.064008      7.872353
  O      15.558975     25.271710      8.384501
  O      18.217718     25.314421      8.474606
  O      16.855307     26.034371      6.227408
  Si     16.923146     29.149744      7.793750
  Si     16.968588     35.398863      7.789504
  Si     19.629980     33.831765      7.846233
  Si     19.595565     30.716467      7.834469
  O      15.540988     29.929454      8.161245
  O      15.608308     34.586275      8.163502
  O      18.269561     34.585519      8.364842
  O      18.218263     29.986178      8.326084
  O      16.861563     27.621104      8.370798
  O      19.622474     32.270756      8.345146
  O      17.076935     28.985636      6.160758
  O      17.185181     35.465217      6.159356
  O      19.623459     33.812366      6.203081
  O      19.608533     30.704052      6.188238
  Si     16.946694     38.485064      7.855451
  O      15.635294     39.306751      8.381346
  O      18.348305     39.096803      8.422870
  O      16.889376     36.925850      8.359871
  O      16.919126     38.478313      6.209012
  O      20.844703     29.872063      8.457158
  O      20.976416     34.531635      8.448200
  H       4.074658     24.986772      8.036591
  H       1.410409     29.602015      8.036749
  H       1.410409     35.007985      8.036749
  H       4.074657     39.623228      8.036591
  H       8.948181     22.173255      8.038302
  H       8.948181     42.436745      8.038302
  H      14.277762     22.173204      8.038282
  H      14.277762     42.436796      8.038282
  H      18.960557     24.876228      8.036406
  H      18.960556     39.733772      8.036406
  H      21.624717     29.491420      8.036583
  H      21.624717     35.118580      8.036583
  H      13.368005     34.213904      5.749000
  H      10.835404     34.824420      5.686032
  H       8.981358     32.902216      5.658334
  H       9.791667     30.329548      5.712643
  H      12.333259     29.800975      5.774868
  H      14.088484     31.716054      5.773643
  H      13.516130     39.749439      5.801058
  H      10.802914     39.128510      5.782040
  H       8.130212     39.660836      5.829779
  H       6.091232     37.689830      5.826389
  H       5.241363     35.090087      5.783368
  H       3.487731     32.991650      5.830503
  H       4.126616     30.285552      5.807534
  H       6.012076     28.264456      5.749598
  H       6.873326     25.650140      5.804777
  H       9.612902     24.914055      5.811372
  H      12.290100     25.535489      5.770846
  H      14.988059     24.998148      5.831958
  H      16.983013     26.907262      5.822541
  H      17.773613     29.531898      5.770818
  H      19.653562     31.582596      5.784636
  H      18.909026     34.340053      5.811131
  H      17.054022     36.343462      5.774751
  H      16.156278     38.944029      5.833071
  P       8.025397     35.989559     11.888577
  O       8.823332     36.426786     13.062764
  O       6.542426     35.966437     11.798595
  O       8.628508     36.791222     10.586712
  O       8.486074     34.438924     11.528152
  C       9.859541     34.162462     11.502986
  C       9.986562     32.671465     11.243157
  O      11.308360     32.366718     10.697993
  C       9.830712     31.817668     12.492762
  O       9.187888     30.554825     12.260512
  C      11.288194     31.571186     12.912902
  O      11.468243     30.470431     13.762743
  C      11.959959     31.430379     11.530356
  N      13.377514     31.707895     11.505940
  C      13.990209     32.946271     11.531214
  N      15.303945     32.882600     11.502913
  C      15.569215     31.529343     11.466801
  C      16.764666     30.798808     11.436013
  N      17.975821     31.407722     11.453610
  N      16.707645     29.456791     11.413394
  C      15.497508     28.873472     11.420506
  N      14.291839     29.443376     11.445705
  C      14.389199     30.775748     11.468068
  H       7.994111     36.729435      9.862624
  H      10.355185     34.710731     10.693160
  H      10.339036     34.447292     12.454792
  H       9.233890     32.386191     10.506388
  H       9.244765     32.331157     13.256033
  H       9.382874     30.273955     11.355901
  H      11.697507     32.457226     13.411914
  H      10.785855     29.831339     13.501216
  H      11.861173     30.391888     11.170448
  H      13.404160     33.853927     11.541290
  H      18.025317     32.402388     11.317522
  H      18.799369     30.847994     11.320171
  H      15.508929     27.786931     11.388951
162
Coordinates from ORCA-job amp_frame12_dry_r2scan E -13470.287756025629
  Si      3.508718     33.908677      7.869015
  Si      3.461785     30.802575      7.870077
  O       2.270251     34.807418      8.427726
  O       2.156481     30.031604      8.477880
  O       3.454580     32.351579      8.376142
  O       3.504384     33.876946      6.213851
  O       3.441395     30.838917      6.219796
  Si      6.148099     26.134605      7.857190
  Si      8.821720     24.547563      7.860584
  O       4.785918     25.479408      8.466865
  O       7.481167     25.336440      8.362810
  O       8.755529     23.027373      8.452609
  O       6.136721     26.115980      6.206204
  O       8.801186     24.561378      6.212731
  Si      6.111610     29.221775      7.748983
  Si      6.156978     35.468679      7.787271
  Si      8.885662     33.866995      7.647089
  Si      8.871494     30.774284      7.654594
  O       4.837124     30.046599      8.342896
  O       4.880993     34.632439      8.357442
  O       7.551205     34.677549      8.077137
  O       7.487319     30.028758      8.081998
  O       6.202580     27.697690      8.331344
  O       8.822061     32.315846      8.172832
  O       5.862222     29.127251      6.121392
  O       5.932639     35.647276      6.157862
  O       9.045438     33.803513      6.003851
  O       9.030336     30.820366      6.017083
  Si      6.199641     38.549659      7.886731
  Si      8.911410     40.066480      7.890518
  O       4.880661     39.309543      8.470783
  O       7.538443     39.343701      8.381784
  O       6.280222     36.987874      8.370407
  O       9.061503     41.582166      8.473157
  O       6.226444     38.567986      6.234348
  O       8.908159     40.073905      6.234321
  Si     11.511098     26.067587      7.785627
  Si     14.193471     24.542130      7.862405
  O      10.160708     25.347577      8.360299
  O      12.873311     25.372003      8.354255
  O      14.020402     23.020433      8.426463
  O      11.467357     25.842057      6.152928
  O      14.217125     24.563170      6.212431
  Si     11.527301     29.230696      7.740843
  Si     11.578805     35.373770      7.699201
  Si     14.228181     33.821768      7.744630
  Si     14.194382     30.749556      7.756073
  O      10.159372     29.962245      8.272672
  O      10.208228     34.649138      8.198356
  O      12.927031     34.643867      8.281677
  O      12.875922     29.951755      8.310868
  O      11.485282     27.653568      8.157107
  O      14.270970     32.283930      8.304696
  O      11.529834     29.382184      6.099811
  O      11.648332     35.203074      6.056524
  O      14.104865     33.698587      6.103300
  O      14.027170     30.812261      6.114834
  Si     11.583437     38.536509      7.786908
  Si     14.270009     40.054394      7.882894
  O      10.232053     39.228211      8.362427
  O      12.952412     39.227152      8.365539
  O      11.605219     36.942531      8.114450
  O      14.228171     41.574899      8.475829
  O      11.631162     38.798756      6.156510
  O      14.339268     40.029733      6.233425
  Si     16.898041     26.061565      7.883159
  O      15.558622     25.267264      8.390986
  O      18.217953     25.308927      8.478103
  O      16.853486     26.031606      6.234284
  Si     16.924277     29.143671      7.798028
  Si     16.972204     35.398789      7.786943
  Si     19.628721     33.828883      7.852674
  Si     19.592532     30.716215      7.842072
  O      15.542130     29.925218      8.148714
  O      15.611786     34.585953      8.142152
  O      18.271080     34.583489      8.365173
  O      18.218298     29.984551      8.325426
  O      16.860503     27.616495      8.375799
  O      19.622226     32.269290      8.351266
  O      17.097784     28.967942      6.163611
  O      17.211651     35.478774      6.156399
  O      19.624497     33.807783      6.206164
  O      19.611996     30.710340      6.192292
  Si     16.945443     38.482624      7.863769
  O      15.638839     39.306461      8.389458
  O      18.352813     39.090277      8.425109
  O      16.890270     36.924164      8.358471
  O      16.914330     38.485103      6.213423
  O      20.843369     29.870052      8.461137
  O      20.979261     34.526475      8.450602
  H       4.074657     24.986772      8.036591
  H       1.410409     29.602015      8.036749
  H       1.410409     35.007985      8.036749
  H       4.074657     39.623228      8.036591
  H       8.948181     22.173255      8.038302
  H       8.948181     42.436745      8.038302
  H      14.277762     22.173204      8.038282
  H      14.277762     42.436796      8.038282
  H      18.960557     24.876228      8.036406
  H      18.960557     39.733772      8.036406
  H      21.624717     29.491420      8.036583
  H      21.624717     35.118580      8.036583
  H      13.352697     34.205312      5.749204
  H      10.835522     34.816925      5.690107
  H       8.986342     32.900898      5.653438
  H       9.805621     30.328169      5.697430
  H      12.340088     29.809677      5.768644
  H      14.086052     31.721342      5.771302
  H      13.510571     39.734662      5.822551
  H      10.798104     39.148943      5.804361
  H       8.118285     39.657882      5.856418
  H       6.097015     37.686710      5.846779
  H       5.220576     35.094566      5.802489
  H       3.479251     32.980140      5.847946
  H       4.127868     30.285109      5.815570
  H       5.994819     28.242350      5.751843
  H       6.878963     25.630524      5.817190
  H       9.614793     24.917507      5.820861
  H      12.297242     25.512782      5.777451
  H      15.005210     24.995124      5.847128
  H      16.979046     26.909828      5.838099
  H      17.794134     29.522160      5.782311
  H      19.661020     31.594713      5.800381
  H      18.906817     34.337684      5.820935
  H      17.074636     36.362130      5.782519
  H      16.147532     38.956793      5.850294
  P       7.997684     35.945099     11.860826
  O       8.775615     36.341776     13.059554
  O       6.522270     35.931408     11.704119
  O       8.649788     36.761697     10.578960
  O       8.468393     34.387255     11.472005
  C       9.844393     34.130836     11.476636
  C       9.994067     32.645839     11.196705
  O      11.322475     32.369366     10.643117
  C       9.860186     31.770421     12.430248
  O       9.259048     30.487590     12.170438
  C      11.319336     31.550524     12.849845
  O      11.524341     30.441238     13.683181
  C      11.994911     31.443097     11.466784
  N      13.401999     31.768586     11.449253
  C      13.968700     33.025014     11.531013
  N      15.283255     33.011074     11.503273
  C      15.596758     31.674172     11.389280
  C      16.816470     30.991781     11.307819
  N      18.002998     31.647232     11.363323
  N      16.814792     29.654219     11.195021
  C      15.626151     29.028041     11.171319
  N      14.399850     29.547539     11.247131
  C      14.446629     30.877788     11.353990
  H       8.007855     36.712595      9.859965
  H      10.349834     34.698925     10.684933
  H      10.302864     34.409538     12.438803
  H       9.243427     32.359434     10.457882
  H       9.251508     32.250493     13.196393
  H       9.461477     30.246111     11.256731
  H      11.708931     32.437069     13.361475
  H      10.852925     29.795741     13.409249
  H      11.931513     30.407057     11.097108
  H      13.348185     33.907285     11.587803
  H      18.003506     32.649005     11.281179
  H      18.845092     31.128605     11.185932
  H      15.678238     27.947224     11.073086
162
Coordinates from ORCA-job amp_frame12_dry_r2scan E -13470.289419148819
  Si      3.512483     33.911147      7.886530
  Si      3.462450     30.805769      7.888487
  O       2.269919     34.811020      8.434310
  O       2.152603     30.033597      8.485546
  O       3.450786     32.353786      8.392842
  O       3.519949     33.872970      6.230412
  O       3.453382     30.843950      6.237121
  Si      6.148793     26.137743      7.876260
  Si      8.819398     24.549759      7.880597
  O       4.782292     25.480502      8.474285
  O       7.477512     25.334006      8.383246
  O       8.748058     23.024316      8.458669
  O       6.150948     26.126286      6.224240
  O       8.803447     24.578503      6.231989
  Si      6.109755     29.223572      7.774596
  Si      6.159457     35.474319      7.813687
  Si      8.889966     33.869272      7.682612
  Si      8.872284     30.775805      7.689381
  O       4.834200     30.046837      8.365578
  O       4.882129     34.634737      8.376554
  O       7.553805     34.682264      8.098247
  O       7.485859     30.028549      8.105788
  O       6.201665     27.698239      8.353739
  O       8.820149     32.316543      8.204197
  O       5.855805     29.126876      6.147143
  O       5.933027     35.655121      6.183241
  O       9.065486     33.802574      6.040068
  O       9.043617     30.824627      6.053258
  Si      6.205096     38.555446      7.902573
  Si      8.919192     40.064952      7.909127
  O       4.886162     39.323763      8.474908
  O       7.541347     39.351884      8.397627
  O       6.282381     36.995384      8.387787
  O       9.073251     41.585160      8.479179
  O       6.243429     38.567768      6.248890
  O       8.921004     40.055003      6.251444
  Si     11.507769     26.067484      7.815922
  Si     14.189619     24.544180      7.883052
  O      10.158296     25.344388      8.387240
  O      12.871214     25.370918      8.380273
  O      14.013346     23.017236      8.432362
  O      11.462602     25.838544      6.183004
  O      14.212730     24.583824      6.232577
  Si     11.524225     29.232419      7.781905
  Si     11.585712     35.369481      7.738869
  Si     14.230130     33.815881      7.786624
  Si     14.190983     30.747093      7.798920
  O      10.155086     29.959682      8.313373
  O      10.214008     34.646419      8.233817
  O      12.934111     34.643815      8.323822
  O      12.874281     29.948316      8.353688
  O      11.480846     27.652432      8.187378
  O      14.276100     32.279817      8.348713
  O      11.526696     29.395055      6.141357
  O      11.663653     35.184676      6.097031
  O      14.095565     33.681357      6.146283
  O      14.011277     30.815112      6.158674
  Si     11.590304     38.535301      7.817733
  Si     14.274807     40.051011      7.905684
  O      10.238010     39.229206      8.386450
  O      12.959322     39.226442      8.395401
  O      11.613731     36.941332      8.141203
  O      14.238640     41.577142      8.484858
  O      11.644247     38.803977      6.187330
  O      14.338047     40.010247      6.255139
  Si     16.894158     26.058747      7.906738
  O      15.558474     25.259498      8.413936
  O      18.216931     25.300807      8.488029
  O      16.839245     26.039474      6.256998
  Si     16.921771     29.138355      7.829496
  Si     16.976133     35.395380      7.816983
  Si     19.628898     33.824410      7.872795
  Si     19.588531     30.714277      7.861646
  O      15.540454     29.919666      8.178561
  O      15.617102     34.581378      8.169213
  O      18.276880     34.582059      8.393005
  O      18.217617     29.981606      8.348550
  O      16.859943     27.611001      8.405314
  O      19.626460     32.265990      8.372814
  O      17.095230     28.955707      6.194743
  O      17.221964     35.476909      6.186554
  O      19.608773     33.798968      6.225701
  O      19.594568     30.716120      6.211151
  Si     16.946718     38.477454      7.884046
  O      15.647011     39.309706      8.411271
  O      18.360722     39.084263      8.430506
  O      16.894242     36.921947      8.384648
  O      16.900308     38.469404      6.233148
  O      20.843985     29.866275      8.469071
  O      20.987954     34.518538      8.455941
  H       4.074658     24.986772      8.036591
  H       1.410409     29.602015      8.036749
  H       1.410409     35.007985      8.036749
  H       4.074657     39.623228      8.036591
  H       8.948181     22.173255      8.038302
  H       8.948181     42.436745      8.038302
  H      14.277762     22.173204      8.038282
  H      14.277762     42.436796      8.038282
  H      18.960557     24.876228      8.036406
  H      18.960556     39.733772      8.036406
  H      21.624717     29.491420      8.036583
  H      21.624717     35.118580      8.036583
  H      13.343003     34.192396      5.797278
  H      10.845711     34.805616      5.732701
  H       8.995358     32.899221      5.692122
  H       9.819562     30.327664      5.740751
  H      12.339761     29.822328      5.815993
  H      14.074785     31.726498      5.820782
  H      13.507312     39.700082      5.857801
  H      10.805496     39.143449      5.836453
  H       8.127809     39.635625      5.882651
  H       6.117408     37.681184      5.870964
  H       5.226569     35.092736      5.829977
  H       3.498635     32.971934      5.872864
  H       4.147572     30.292243      5.841945
  H       6.000560     28.242201      5.779946
  H       6.899287     25.641510      5.844526
  H       9.619991     24.940822      5.850734
  H      12.299027     25.522816      5.809038
  H      15.004963     25.017560      5.876945
  H      16.962399     26.923201      5.871349
  H      17.780478     29.522772      5.811711
  H      19.641329     31.605143      5.828365
  H      18.887365     34.332550      5.851261
  H      17.068522     36.358979      5.814331
  H      16.126747     38.938806      5.879754
  P       7.998854     35.951411     11.844327
  O       8.755494     36.345669     13.055971
  O       6.527623     35.947419     11.656318
  O       8.674295     36.767350     10.571438
  O       8.467329     34.386748     11.458657
  C       9.845229     34.124782     11.482706
  C       9.993371     32.638983     11.202949
  O      11.319029     32.357153     10.648875
  C       9.862381     31.764290     12.435391
  O       9.292233     30.469066     12.171234
  C      11.319291     31.570355     12.860864
  O      11.531671     30.478872     13.712522
  C      11.990098     31.439639     11.480366
  N      13.399633     31.751470     11.455526
  C      13.976993     33.001396     11.506304
  N      15.289513     32.973265     11.475679
  C      15.591850     31.632194     11.398066
  C      16.805105     30.934741     11.333059
  N      17.996995     31.575889     11.370355
  N      16.786655     29.594916     11.257131
  C      15.593035     28.981644     11.254213
  N      14.374702     29.517152     11.314710
  C      14.434704     30.849056     11.384534
  H       8.022698     36.721486      9.860820
  H      10.359967     34.695220     10.699745
  H      10.292647     34.400833     12.449158
  H       9.241533     32.355964     10.463691
  H       9.237255     32.230974     13.196696
  H       9.488515     30.241566     11.252978
  H      11.700288     32.470170     13.354493
  H      10.861202     29.827048     13.450639
  H      11.915695     30.400265     11.125130
  H      13.364730     33.890620     11.538606
  H      18.006542     32.573875     11.248788
  H      18.830520     31.041940     11.196854
  H      15.632561     27.898009     11.184077
162
Coordinates from ORCA-job amp_frame12_dry_r2scan E -13470.290951702285
  Si      3.514847     33.915299      7.884681
  Si      3.460395     30.809904      7.890929
  O       2.273050     34.816791      8.431542
  O       2.149826     30.038234      8.487037
  O       3.446082     32.358163      8.392460
  O       3.530941     33.870486      6.228763
  O       3.456348     30.849604      6.239297
  Si      6.147943     26.141842      7.879723
  Si      8.814348     24.550405      7.884397
  O       4.778886     25.486452      8.474405
  O       7.472415     25.332240      8.388977
  O       8.736967     23.023225      8.457209
  O       6.163270     26.135289      6.227535
  O       8.798446     24.589164      6.235664
  Si      6.105048     29.226193      7.774677
  Si      6.161275     35.484213      7.809990
  Si      8.896188     33.874925      7.683491
  Si      8.870925     30.779688      7.686281
  O       4.831363     30.049053      8.368302
  O       4.886156     34.638156      8.369912
  O       7.557372     34.690744      8.081281
  O       7.483904     30.029317      8.094033
  O       6.202035     27.701816      8.355872
  O       8.816371     32.320071      8.199008
  O       5.834786     29.123881      6.150418
  O       5.925900     35.673755      6.181225
  O       9.093349     33.810128      6.043198
  O       9.052206     30.836051      6.052946
  Si      6.211900     38.568064      7.896862
  Si      8.932288     40.065021      7.907979
  O       4.898628     39.346253      8.467847
  O       7.547486     39.363859      8.393950
  O       6.285792     37.006514      8.377195
  O       9.095956     41.585691      8.474276
  O       6.260329     38.581132      6.242795
  O       8.939131     40.037461      6.249915
  Si     11.501984     26.065369      7.816869
  Si     14.183628     24.544967      7.884894
  O      10.154984     25.342027      8.392336
  O      12.867475     25.373528      8.382887
  O      13.998926     23.016225      8.427013
  O      11.452579     25.819530      6.186590
  O      14.208540     24.602601      6.234862
  Si     11.516980     29.233934      7.778129
  Si     11.596918     35.363769      7.744258
  Si     14.234418     33.806461      7.787901
  Si     14.186082     30.741148      7.791661
  O      10.148651     29.957565      8.314381
  O      10.223904     34.642849      8.236454
  O      12.945756     34.641732      8.330524
  O      12.871278     29.942467      8.348758
  O      11.473076     27.652201      8.176830
  O      14.283711     32.270574      8.347477
  O      11.513987     29.407403      6.139016
  O      11.684477     35.164252      6.104398
  O      14.086521     33.663876      6.149542
  O      13.989707     30.816240      6.154035
  Si     11.602995     38.534997      7.823572
  Si     14.284694     40.048885      7.913268
  O      10.248709     39.227855      8.388664
  O      12.970621     39.223346      8.407525
  O      11.628363     36.938884      8.134185
  O      14.256728     41.577067      8.487322
  O      11.667070     38.820526      6.195950
  O      14.340510     39.995704      6.262279
  Si     16.890354     26.050105      7.912202
  O      15.557118     25.248349      8.419684
  O      18.211867     25.289236      8.491636
  O      16.829605     26.033661      6.262157
  Si     16.919844     29.127371      7.825999
  Si     16.984374     35.389664      7.820582
  Si     19.632725     33.817021      7.876250
  Si     19.585064     30.709666      7.861124
  O      15.536371     29.909907      8.159532
  O      15.624795     34.571617      8.158175
  O      18.283896     34.578121      8.400852
  O      18.212812     29.976755      8.342827
  O      16.856700     27.603317      8.409147
  O      19.630802     32.259420      8.377583
  O      17.104943     28.926031      6.194291
  O      17.248705     35.477725      6.193249
  O      19.601078     33.787388      6.229218
  O      19.583574     30.722311      6.210905
  Si     16.951069     38.469842      7.887124
  O      15.659918     39.312970      8.417875
  O      18.371987     39.069451      8.424538
  O      16.897861     36.915332      8.389964
  O      16.887110     38.453226      6.236623
  O      20.839174     29.858905      8.467641
  O      20.999172     34.503152      8.452182
  H       4.074657     24.986772      8.036591
  H       1.410409     29.602015      8.036749
  H       1.410409     35.007985      8.036749
  H       4.074657     39.623228      8.036591
  H       8.948181     22.173255      8.038302
  H       8.948181     42.436745      8.038302
  H      14.277762     22.173204      8.038282
  H      14.277762     42.436796      8.038282
  H      18.960557     24.876228      8.036406
  H      18.960557     39.733772      8.036406
  H      21.624717     29.491420      8.036583
  H      21.624717     35.118580      8.036583
  H      13.330491     34.177796      5.808149
  H      10.862540     34.790463      5.741212
  H       9.016107     32.907768      5.693501
  H       9.833385     30.342089      5.745660
  H      12.327332     29.839478      5.817099
  H      14.049989     31.732019      5.823576
  H      13.503253     39.678402      5.880708
  H      10.822545     39.148973      5.845837
  H       8.139482     39.618454      5.891819
  H       6.126526     37.691646      5.872084
  H       5.227507     35.099333      5.829891
  H       3.511009     32.964601      5.881384
  H       4.150948     30.291540      5.851784
  H       5.993818     28.239679      5.786189
  H       6.919186     25.651243      5.859630
  H       9.621224     24.948888      5.862946
  H      12.296636     25.519868      5.814751
  H      15.006969     25.037169      5.891301
  H      16.958808     26.921177      5.884122
  H      17.776592     29.508269      5.808764
  H      19.628968     31.617796      5.840783
  H      18.883106     34.334139      5.864374
  H      17.076725     36.358458      5.823791
  H      16.106981     38.923847      5.896297
  P       7.997489     35.942222     11.775571
  O       8.708194     36.342293     13.011488
  O       6.532583     35.940414     11.541599
  O       8.703090     36.762801     10.522097
  O       8.472359     34.374645     11.402726
  C       9.852596     34.108805     11.460429
  C      10.004125     32.623717     11.177917
  O      11.325215     32.345106     10.621699
  C       9.881630     31.745907     12.408122
  O       9.343518     30.439996     12.139450
  C      11.338487     31.579749     12.837685
  O      11.564426     30.497495     13.695364
  C      12.007946     31.444520     11.459636
  N      13.414800     31.763061     11.429486
  C      13.986808     33.013019     11.463958
  N      15.297365     32.988316     11.416846
  C      15.605645     31.647862     11.355740
  C      16.821259     30.951513     11.282343
  N      18.011483     31.589173     11.299543
  N      16.797705     29.610817     11.216020
  C      15.607394     28.995333     11.234895
  N      14.392641     29.531426     11.306038
  C      14.451007     30.864179     11.362153
  H       8.038380     36.726343      9.822593
  H      10.380950     34.685271     10.692280
  H      10.276847     34.380478     12.437255
  H       9.250538     32.346811     10.437652
  H       9.242640     32.195568     13.168746
  H       9.517021     30.227350     11.213301
  H      11.704084     32.490007     13.323797
  H      10.909253     29.831548     13.429996
  H      11.937404     30.402240     11.114443
  H      13.371786     33.900793     11.488265
  H      18.019542     32.584047     11.151201
  H      18.837917     31.051926     11.101654
  H      15.645637     27.910900     11.166692
162
Coordinates from ORCA-job amp_frame12_dry_r2scan E -13470.292006741010
  Si      3.516186     33.920204      7.872337
  Si      3.456716     30.814469      7.885054
  O       2.277803     34.823731      8.423473
  O       2.146963     30.044716      8.485013
  O       3.441143     32.364038      8.384022
  O       3.537236     33.870086      6.217462
  O       3.455248     30.854847      6.233893
  Si      6.145793     26.146485      7.874935
  Si      8.807616     24.549882      7.879895
  O       4.775029     25.495028      8.470146
  O       7.466106     25.330884      8.387486
  O       8.724028     23.022536      8.451319
  O       6.171358     26.144148      6.223268
  O       8.790609     24.596522      6.231595
  Si      6.099705     29.229666      7.766130
  Si      6.162098     35.495251      7.792230
  Si      8.901897     33.881424      7.671975
  Si      8.868729     30.784588      7.673708
  O       4.827998     30.052913      8.363526
  O       4.890836     34.642723      8.352325
  O       7.560354     34.700715      8.050861
  O       7.481560     30.031226      8.074028
  O       6.202255     27.706874      8.350774
  O       8.810801     32.325976      8.184781
  O       5.815190     29.123479      6.145263
  O       5.918492     35.692093      6.165805
  O       9.118087     33.817260      6.034371
  O       9.058296     30.845774      6.043374
  Si      6.219065     38.583465      7.878145
  Si      8.947454     40.065993      7.893596
  O       4.914201     39.372431      8.453024
  O       7.555269     39.377194      8.378777
  O       6.288716     37.019456      8.353271
  O       9.124058     41.584722      8.461118
  O       6.275254     38.598215      6.224574
  O       8.958813     40.023960      6.236281
  Si     11.495058     26.062865      7.808376
  Si     14.176735     24.545019      7.876986
  O      10.150556     25.339113      8.389047
  O      12.862984     25.377166      8.377084
  O      13.982213     23.015910      8.415185
  O      11.441371     25.803744      6.180835
  O      14.202668     24.618700      6.228108
  Si     11.508942     29.235145      7.765136
  Si     11.608045     35.358293      7.737670
  Si     14.239140     33.796503      7.780827
  Si     14.181173     30.734345      7.774574
  O      10.141634     29.957127      8.306876
  O      10.233309     34.640733      8.229227
  O      12.956827     34.639541      8.328616
  O      12.868083     29.935361      8.335418
  O      11.464066     27.651937      8.157659
  O      14.290832     32.260208      8.338251
  O      11.503436     29.417834      6.127896
  O      11.701401     35.146091      6.100136
  O      14.080258     33.649816      6.144660
  O      13.970795     30.818471      6.140160
  Si     11.617675     38.534875      7.816236
  Si     14.297069     40.048103      7.910309
  O      10.260911     39.225356      8.379038
  O      12.983303     39.220333      8.408693
  O      11.643584     36.936581      8.115551
  O      14.278296     41.575895      8.484902
  O      11.690908     38.833075      6.191417
  O      14.346039     39.986679      6.259672
  Si     16.886916     26.039873      7.908201
  O      15.554984     25.236698      8.416620
  O      18.204676     25.275968      8.491319
  O      16.823156     26.024550      6.258395
  Si     16.918580     29.116031      7.812652
  Si     16.992784     35.382506      7.817485
  Si     19.638237     33.809257      7.870645
  Si     19.582714     30.704226      7.849398
  O      15.532298     29.899671      8.130584
  O      15.632413     34.560353      8.142127
  O      18.291696     34.572889      8.401746
  O      18.207895     29.972331      8.327619
  O      16.853723     27.595077      8.403868
  O      19.635946     32.251958      8.373000
  O      17.112716     28.897900      6.184282
  O      17.270966     35.474815      6.193037
  O      19.596102     33.776111      6.224315
  O      19.575558     30.725953      6.200157
  Si     16.956988     38.460950      7.881098
  O      15.674302     39.315803      8.415547
  O      18.384362     39.051566      8.411934
  O      16.901048     36.907264      8.388938
  O      16.877138     38.434563      6.231767
  O      20.832128     29.850251      8.460494
  O      21.011158     34.485569      8.442901
  H       4.074658     24.986772      8.036591
  H       1.410409     29.602015      8.036749
  H       1.410409     35.007985      8.036749
  H       4.074657     39.623228      8.036591
  H       8.948181     22.173255      8.038302
  H       8.948181     42.436745      8.038302
  H      14.277762     22.173204      8.038282
  H      14.277762     42.436796      8.038282
  H      18.960557     24.876228      8.036406
  H      18.960556     39.733772      8.036406
  H      21.624717     29.491420      8.036583
  H      21.624717     35.118580      8.036583
  H      13.320828     34.165790      5.810286
  H      10.877088     34.774423      5.738376
  H       9.032704     32.916804      5.681673
  H       9.841213     30.350610      5.740168
  H      12.318724     29.850602      5.809370
  H      14.030431     31.738126      5.817277
  H      13.500007     39.674020      5.890175
  H      10.842875     39.150946      5.838754
  H       8.153127     39.608817      5.885276
  H       6.129331     37.708565      5.857585
  H       5.230257     35.105967      5.813955
  H       3.515191     32.961059      5.877534
  H       4.143495     30.284772      5.851163
  H       5.988618     28.241613      5.781123
  H       6.932096     25.659509      5.864393
  H       9.621533     24.944593      5.864030
  H      12.290721     25.518918      5.808464
  H      15.006852     25.051637      5.893801
  H      16.965480     26.913016      5.884899
  H      17.768863     29.493980      5.793172
  H      19.617572     31.626414      5.840025
  H      18.883689     34.336033      5.866277
  H      17.082230     36.352470      5.823351
  H      16.092832     38.906800      5.901130
  P       7.989125     35.930826     11.694119
  O       8.647678     36.341295     12.954715
  O       6.530882     35.919288     11.414449
  O       8.720344     36.755943     10.460635
  O       8.479536     34.366881     11.341367
  C       9.859912     34.101314     11.437906
  C      10.015432     32.615952     11.157206
  O      11.332809     32.334009     10.600893
  C       9.892945     31.741511     12.389882
  O       9.367145     30.431654     12.124313
  C      11.350632     31.587994     12.824878
  O      11.581865     30.511308     13.687783
  C      12.022115     31.447562     11.448930
  N      13.427193     31.768350     11.413099
  C      14.002832     33.017057     11.418775
  N      15.313104     32.987314     11.365406
  C      15.617227     31.644059     11.325552
  C      16.829896     30.940433     11.251784
  N      18.024490     31.567462     11.250191
  N      16.794642     29.598945     11.204747
  C      15.602788     28.988708     11.240330
  N      14.392895     29.532799     11.314771
  C      14.459336     30.865972     11.351315
  H       8.044482     36.730772      9.770558
  H      10.404731     34.681282     10.684767
  H      10.254032     34.371779     12.427565
  H       9.260739     32.345039     10.416179
  H       9.249432     32.188316     13.148710
  H       9.510990     30.225215     11.191909
  H      11.707394     32.503758     13.307341
  H      10.945591     29.831784     13.411544
  H      11.954167     30.401683     11.114432
  H      13.391354     33.907636     11.430066
  H      18.039192     32.557322     11.069467
  H      18.838455     31.020154     11.027347
  H      15.634592     27.902996     11.190846
162
Coordinates from ORCA-job amp_frame12_dry_r2scan E -13470.292865458008
  Si      3.517316     33.925450      7.858549
  Si      3.452580     30.819730      7.877312
  O       2.282907     34.831698      8.414178
  O       2.144128     30.051622      8.482099
  O       3.435819     32.370551      8.374855
  O       3.540280     33.870718      6.204654
  O       3.452201     30.860982      6.226728
  Si      6.142883     26.151825      7.867240
  Si      8.799525     24.549386      7.872943
  O       4.769946     25.506332      8.463724
  O       7.458592     25.329880      8.384116
  O       8.709961     23.022012      8.443506
  O       6.175961     26.151794      6.216087
  O       8.780598     24.603575      6.225136
  Si      6.093966     29.233710      7.754709
  Si      6.161250     35.507034      7.773944
  Si      8.905812     33.888699      7.658850
  Si      8.866068     30.790389      7.656867
  O       4.824801     30.058247      8.356777
  O       4.894799     34.647906      8.334709
  O       7.561949     34.711357      8.018363
  O       7.479144     30.033755      8.050568
  O       6.202305     27.712890      8.343643
  O       8.803573     32.332580      8.168626
  O       5.796784     29.123842      6.136746
  O       5.909641     35.709696      6.149442
  O       9.138144     33.824864      6.023216
  O       9.062601     30.855015      6.028924
  Si      6.227233     38.599986      7.857204
  Si      8.963746     40.066933      7.876292
  O       4.931389     39.402565      8.434042
  O       7.564067     39.391909      8.362276
  O       6.290342     37.033905      8.327886
  O       9.157073     41.583947      8.443266
  O       6.291134     38.614453      6.204186
  O       8.978210     40.011728      6.220016
  Si     11.487301     26.060157      7.797709
  Si     14.168796     24.545002      7.865827
  O      10.144891     25.336058      8.383523
  O      12.857687     25.381222      8.369478
  O      13.963226     23.015552      8.399564
  O      11.430597     25.790789      6.172239
  O      14.195706     24.632816      6.218168
  Si     11.501264     29.236087      7.749883
  Si     11.616806     35.353817      7.730636
  Si     14.243118     33.787722      7.772355
  Si     14.176951     30.727730      7.756813
  O      10.134686     29.958279      8.295897
  O      10.240301     34.640085      8.223035
  O      12.966222     34.637600      8.326301
  O      12.864948     29.928125      8.321127
  O      11.454543     27.651555      8.136757
  O      14.297070     32.250462      8.328173
  O      11.496408     29.425465      6.114092
  O      11.710386     35.132393      6.094576
  O      14.074465     33.640713      6.137817
  O      13.957225     30.821051      6.125046
  Si     11.632893     38.535127      7.807339
  Si     14.310826     40.047513      7.903903
  O      10.273829     39.222684      8.368339
  O      12.997053     39.217997      8.407585
  O      11.657854     36.934919      8.096720
  O      14.303165     41.574395      8.480133
  O      11.712622     38.841584      6.184242
  O      14.353539     39.979377      6.253899
  Si     16.882905     26.029067      7.901792
  O      15.551857     25.224534      8.411234
  O      18.195993     25.260771      8.489434
  O      16.816825     26.014928      6.252334
  Si     16.917677     29.104634      7.799383
  Si     17.000758     35.374761      7.812625
  Si     19.643877     33.800973      7.862174
  Si     19.580337     30.698334      7.834675
  O      15.528626     29.889603      8.101590
  O      15.639474     34.549331      8.125797
  O      18.299617     34.566859      8.400696
  O      18.202970     29.968316      8.312111
  O      16.850724     27.586120      8.397660
  O      19.641210     32.243925      8.366447
  O      17.119426     28.872820      6.173691
  O      17.288528     35.469559      6.190053
  O      19.591484     33.763754      6.216725
  O      19.569416     30.728089      6.186569
  Si     16.963497     38.451133      7.871132
  O      15.689899     39.318215      8.410101
  O      18.398230     39.031166      8.394429
  O      16.903773     36.898610      8.386061
  O      16.869036     38.415179      6.223088
  O      20.823212     29.839405      8.451092
  O      21.023257     34.467126      8.430818
  H       4.074657     24.986772      8.036591
  H       1.410409     29.602015      8.036749
  H       1.410409     35.007985      8.036749
  H       4.074657     39.623228      8.036591
  H       8.948181     22.173255      8.038302
  H       8.948181     42.436745      8.038302
  H      14.277762     22.173204      8.038282
  H      14.277762     42.436796      8.038282
  H      18.960557     24.876228      8.036406
  H      18.960557     39.733772      8.036406
  H      21.624717     29.491420      8.036583
  H      21.624717     35.118580      8.036583
  H      13.310945     34.157438      5.810697
  H      10.884887     34.758346      5.736415
  H       9.046199     32.926719      5.666882
  H       9.846670     30.359101      5.728696
  H      12.311917     29.861826      5.799440
  H      14.015671     31.744268      5.809508
  H      13.500507     39.671881      5.893312
  H      10.862735     39.149911      5.827473
  H       8.167555     39.601644      5.873509
  H       6.135688     37.725383      5.839373
  H       5.231814     35.113518      5.795478
  H       3.514608     32.960025      5.869472
  H       4.133688     30.281028      5.846067
  H       5.983220     28.245377      5.770877
  H       6.938996     25.665425      5.863474
  H       9.617497     24.940802      5.859949
  H      12.283392     25.519120      5.797803
  H      15.004620     25.062787      5.890351
  H      16.968523     26.903589      5.881493
  H      17.760222     29.480247      5.775418
  H      19.608676     31.632146      5.834074
  H      18.883255     34.332628      5.862980
  H      17.087035     36.343537      5.818111
  H      16.083065     38.889893      5.898895
  P       7.957107     35.896016     11.612522
  O       8.549582     36.313142     12.903350
  O       6.510094     35.861933     11.272218
  O       8.717423     36.734376     10.408011
  O       8.481074     34.344464     11.278659
  C       9.859844     34.089262     11.423499
  C      10.029097     32.605014     11.139141
  O      11.346934     32.327083     10.584742
  C       9.904162     31.727312     12.369405
  O       9.390541     30.414658     12.098154
  C      11.362319     31.583214     12.813147
  O      11.597935     30.506322     13.675011
  C      12.042761     31.450829     11.440139
  N      13.444121     31.785051     11.407781
  C      14.015468     33.037192     11.409826
  N      15.325977     33.013054     11.342126
  C      15.634860     31.669855     11.301754
  C      16.848542     30.970034     11.212716
  N      18.043880     31.598415     11.199958
  N      16.815956     29.628597     11.164139
  C      15.626924     29.013477     11.212606
  N      14.415458     29.553827     11.299588
  C      14.479640     30.887031     11.338507
  H       8.034673     36.727387      9.723504
  H      10.425838     34.676393     10.691589
  H      10.212511     34.357789     12.429538
  H       9.276092     32.339383     10.395001
  H       9.255686     32.169567     13.126774
  H       9.506819     30.222210     11.159087
  H      11.708010     32.500086     13.301553
  H      10.985704     29.813143     13.379465
  H      11.986888     30.403270     11.107877
  H      13.401604     33.925998     11.425705
  H      18.054642     32.585331     11.001381
  H      18.847210     31.051672     10.938176
  H      15.661662     27.928429     11.155365
162
Coordinates from ORCA-job amp_frame12_dry_r2scan E -13470.293746633790
  Si      3.519210     33.931351      7.850079
  Si      3.448569     30.826207      7.873203
  O       2.287635     34.841480      8.406273
  O       2.140431     30.058986      8.480276
  O       3.429908     32.377882      8.371341
  O       3.543741     33.871953      6.197097
  O       3.450278     30.868888      6.223274
  Si      6.139448     26.158338      7.861372
  Si      8.790128     24.549511      7.868186
  O       4.762604     25.520649      8.456652
  O       7.449541     25.328972      8.383782
  O       8.694385     23.021053      8.435114
  O       6.179003     26.160271      6.210767
  O       8.769792     24.613233      6.220982
  Si      6.088310     29.238704      7.748498
  Si      6.159376     35.519802      7.766177
  Si      8.908215     33.896434      7.655582
  Si      8.863860     30.796913      7.647658
  O       4.821532     30.065009      8.355075
  O       4.897671     34.654344      8.326460
  O       7.562843     34.722905      7.994638
  O       7.476999     30.036833      8.033842
  O       6.201870     27.719629      8.341223
  O       8.795210     32.339450      8.162202
  O       5.782079     29.126789      6.132359
  O       5.901640     35.725480      6.142538
  O       9.154332     33.831822      6.021030
  O       9.067926     30.863221      6.021533
  Si      6.236821     38.617842      7.837878
  Si      8.981301     40.067647      7.859100
  O       4.950353     39.439444      8.410327
  O       7.573625     39.409501      8.348042
  O       6.290696     37.051525      8.308823
  O       9.196732     41.584262      8.419988
  O       6.309893     38.626242      6.185484
  O       8.997578     39.998047      6.204287
  Si     11.478739     26.057859      7.793412
  Si     14.159911     24.545495      7.856565
  O      10.137881     25.332282      8.382439
  O      12.851491     25.384683      8.367171
  O      13.942237     23.014526      8.381722
  O      11.420144     25.784980      6.168643
  O      14.187345     24.647703      6.210303
  Si     11.494901     29.237183      7.746806
  Si     11.623185     35.350061      7.733724
  Si     14.246025     33.780196      7.776860
  Si     14.173405     30.721963      7.755928
  O      10.128382     29.961346      8.294630
  O      10.245059     34.640710      8.229047
  O      12.973455     34.636589      8.336153
  O      12.862030     29.920928      8.322665
  O      11.444620     27.650975      8.126113
  O      14.301819     32.242387      8.334204
  O      11.495531     29.431956      6.112051
  O      11.712705     35.121085      6.098546
  O      14.068833     33.633811      6.143509
  O      13.948717     30.824368      6.126040
  Si     11.648431     38.535430      7.803020
  Si     14.325768     40.046669      7.897936
  O      10.287038     39.220132      8.361589
  O      13.011485     39.217256      8.409337
  O      11.671130     36.934041      8.086331
  O      14.332269     41.573171      8.473991
  O      11.732510     38.843453      6.180101
  O      14.362406     39.971342      6.248932
  Si     16.878217     26.018607      7.898871
  O      15.547822     25.212051      8.409031
  O      18.186230     25.242180      8.487635
  O      16.809140     26.009601      6.249957
  Si     16.916664     29.094040      7.797573
  Si     17.007909     35.366114      7.814516
  Si     19.649199     33.791906      7.855948
  Si     19.577547     30.691964      7.822852
  O      15.525515     29.880021      8.088140
  O      15.646108     34.538715      8.121640
  O      18.308295     34.560205      8.404704
  O      18.198688     29.965054      8.305252
  O      16.848962     27.576315      8.399587
  O      19.647517     32.235242      8.363715
  O      17.120317     28.853840      6.172865
  O      17.297704     35.459305      6.191992
  O      19.584079     33.749865      6.211674
  O      19.561495     30.729092      6.176133
  Si     16.970279     38.440048      7.861903
  O      15.706628     39.320171      8.406000
  O      18.414063     39.008812      8.373301
  O      16.906882     36.889792      8.388309
  O      16.861332     38.392851      6.215414
  O      20.813038     29.825019      8.441262
  O      21.036125     34.448190      8.417429
  H       4.074657     24.986772      8.036591
  H       1.410409     29.602015      8.036749
  H       1.410409     35.007985      8.036749
  H       4.074657     39.623228      8.036591
  H       8.948181     22.173255      8.038302
  H       8.948181     42.436745      8.038302
  H      14.277762     22.173204      8.038282
  H      14.277762     42.436796      8.038282
  H      18.960557     24.876228      8.036406
  H      18.960557     39.733772      8.036406
  H      21.624717     29.491420      8.036583
  H      21.624717     35.118580      8.036583
  H      13.300687     34.149228      5.822469
  H      10.887490     34.738954      5.746256
  H       9.057779     32.935963      5.660996
  H       9.852192     30.365920      5.723803
  H      12.311037     29.872480      5.802214
  H      14.005173     31.750555      5.816920
  H      13.505117     39.667162      5.893738
  H      10.882864     39.144505      5.817156
  H       8.183462     39.592899      5.859619
  H       6.146961     37.737749      5.822775
  H       5.233703     35.121594      5.784579
  H       3.513939     32.960916      5.863811
  H       4.125861     30.282185      5.842366
  H       5.978480     28.252468      5.762473
  H       6.942466     25.671938      5.861407
  H       9.610260     24.941925      5.855958
  H      12.274141     25.523774      5.790015
  H      14.999941     25.073594      5.886015
  H      16.967506     26.898281      5.881225
  H      17.746261     29.469564      5.765065
  H      19.598294     31.635406      5.828548
  H      18.878154     34.323561      5.860324
  H      17.088321     36.329140      5.815088
  H      16.076362     38.870935      5.893706
  P       7.906604     35.838138     11.531346
  O       8.419078     36.255447     12.856257
  O       6.477735     35.770804     11.116249
  O       8.696235     36.702025     10.366366
  O       8.481489     34.308610     11.213585
  C       9.855201     34.070865     11.417653
  C      10.045083     32.588684     11.126584
  O      11.366198     32.316232     10.576416
  C       9.913861     31.703644     12.350860
  O       9.414274     30.388267     12.067912
  C      11.371218     31.567684     12.806277
  O      11.609070     30.491254     13.668904
  C      12.062152     31.442327     11.436882
  N      13.461776     31.782709     11.409599
  C      14.035915     33.035426     11.400446
  N      15.347366     33.009382     11.332457
  C      15.653273     31.664607     11.296255
  C      16.863847     30.962095     11.206282
  N      18.064100     31.588126     11.189823
  N      16.830695     29.620516     11.163367
  C      15.640132     29.007291     11.213473
  N      14.427954     29.549854     11.302395
  C      14.496368     30.882705     11.337865
  H       8.009621     36.720655      9.685429
  H      10.448700     34.667491     10.715088
  H      10.154517     34.336003     12.442127
  H       9.296049     32.329064     10.377191
  H       9.258883     32.140841     13.105605
  H       9.504903     30.216902     11.122088
  H      11.707105     32.484867     13.301004
  H      11.022631     29.784758     13.353634
  H      12.014010     30.394650     11.103439
  H      13.424811     33.926046     11.414794
  H      18.074312     32.569742     10.964032
  H      18.854134     31.037069     10.896513
  H      15.674197     27.922020     11.166886
162
Coordinates from ORCA-job amp_frame12_dry_r2scan E -13470.294787999153
  Si      3.522184     33.937353      7.851094
  Si      3.445480     30.833460      7.874002
  O       2.291226     34.852611      8.401940
  O       2.136576     30.065555      8.479987
  O       3.424166     32.384795      8.375822
  O       3.547894     33.873779      6.198609
  O       3.448727     30.878310      6.224557
  Si      6.135920     26.165545      7.857271
  Si      8.780197     24.550561      7.864766
  O       4.753042     25.538169      8.448758
  O       7.440052     25.328600      8.385559
  O       8.678912     23.020265      8.426221
  O       6.179806     26.167414      6.207089
  O       8.758155     24.623202      6.218044
  Si      6.083234     29.243976      7.745690
  Si      6.156595     35.532447      7.775741
  Si      8.908920     33.904314      7.661958
  Si      8.862494     30.803663      7.640813
  O       4.819393     30.072477      8.357479
  O       4.898655     34.661071      8.332788
  O       7.563505     34.734161      7.982659
  O       7.475935     30.039819      8.020121
  O       6.201615     27.726510      8.342023
  O       8.787864     32.344756      8.162096
  O       5.769838     29.130471      6.130456
  O       5.893443     35.739017      6.151549
  O       9.165484     33.839628      6.026956
  O       9.072695     30.871554      6.015503
  Si      6.247598     38.635406      7.822738
  Si      8.998674     40.067656      7.843727
  O       4.970210     39.482296      8.381188
  O       7.583126     39.429406      8.337892
  O       6.289894     37.072000      8.300741
  O       9.242004     41.585949      8.390388
  O       6.331612     38.630066      6.170931
  O       9.014526     39.982235      6.190643
  Si     11.470193     26.055580      7.790640
  Si     14.150589     24.546423      7.847749
  O      10.130467     25.328685      8.382338
  O      12.844819     25.387584      8.366446
  O      13.920267     23.013248      8.361538
  O      11.410808     25.782334      6.165627
  O      14.178777     24.659949      6.202711
  Si     11.490443     29.237775      7.745309
  Si     11.626025     35.347364      7.744009
  Si     14.247272     33.775425      7.783757
  Si     14.170846     30.717666      7.757742
  O      10.124699     29.965965      8.294405
  O      10.247591     34.641903      8.245720
  O      12.978180     34.635468      8.350855
  O      12.859989     29.914971      8.326614
  O      11.435355     27.650268      8.117984
  O      14.304514     32.236456      8.342515
  O      11.497960     29.434466      6.110731
  O      11.705697     35.114547      6.108603
  O      14.061939     33.634086      6.150635
  O      13.945453     30.828581      6.128505
  Si     11.662673     38.535755      7.803145
  Si     14.340307     40.045181      7.892551
  O      10.299136     39.217491      8.359502
  O      13.024996     39.218507      8.413095
  O      11.682750     36.933850      8.083404
  O      14.364823     41.572085      8.465990
  O      11.748616     38.840369      6.179029
  O      14.370728     39.963263      6.244680
  Si     16.872965     26.008912      7.895746
  O      15.542594     25.201194      8.407103
  O      18.175136     25.221495      8.484258
  O      16.802276     26.005221      6.247431
  Si     16.915735     29.084527      7.797468
  Si     17.013936     35.357674      7.816588
  Si     19.653356     33.782327      7.850766
  Si     19.574131     30.685485      7.813157
  O      15.522832     29.871356      8.077794
  O      15.651838     34.529232      8.120530
  O      18.316253     34.553583      8.408807
  O      18.193700     29.962758      8.301495
  O      16.847804     27.566876      8.401755
  O      19.652936     32.226257      8.363751
  O      17.120591     28.839915      6.172522
  O      17.301125     35.447683      6.192821
  O      19.576291     33.735349      6.207668
  O      19.556180     30.730198      6.167929
  Si     16.976464     38.428626      7.852451
  O      15.722639     39.320384      8.402556
  O      18.430692     38.985525      8.348242
  O      16.909888     36.881096      8.391141
  O      16.854686     38.372025      6.207486
  O      20.800310     29.805656      8.430182
  O      21.048045     34.429949      8.402775
  H       4.074658     24.986772      8.036591
  H       1.410409     29.602015      8.036749
  H       1.410409     35.007985      8.036749
  H       4.074657     39.623228      8.036591
  H       8.948181     22.173255      8.038302
  H       8.948181     42.436745      8.038302
  H      14.277762     22.173204      8.038282
  H      14.277762     42.436796      8.038282
  H      18.960557     24.876228      8.036406
  H      18.960557     39.733772      8.036406
  H      21.624717     29.491420      8.036583
  H      21.624717     35.118580      8.036583
  H      13.290188     34.148975      5.835492
  H      10.879815     34.723567      5.764795
  H       9.066375     32.945875      5.663107
  H       9.855859     30.372395      5.718533
  H      12.313468     29.878023      5.804502
  H      13.999512     31.757083      5.824507
  H      13.512595     39.658652      5.891220
  H      10.900456     39.135871      5.808948
  H       8.199855     39.577998      5.846071
  H       6.165581     37.740659      5.812100
  H       5.234176     35.129815      5.788375
  H       3.515390     32.963615      5.864136
  H       4.120484     30.289534      5.840552
  H       5.971259     28.259951      5.755358
  H       6.942905     25.678457      5.857898
  H       9.598922     24.947426      5.850253
  H      12.264078     25.527553      5.781813
  H      14.992716     25.083064      5.878664
  H      16.961720     26.893864      5.878842
  H      17.735047     29.459932      5.755245
  H      19.590832     31.637763      5.823104
  H      18.870401     34.309037      5.856125
  H      17.089196     36.314006      5.809919
  H      16.072295     38.853165      5.884824
  P       7.835367     35.745080     11.445956
  O       8.249922     36.145582     12.810064
  O       6.436712     35.638628     10.936724
  O       8.654359     36.656265     10.339908
  O       8.480463     34.249319     11.134953
  C       9.842863     34.034885     11.416449
  C      10.066166     32.557815     11.112331
  O      11.396145     32.304062     10.572379
  C       9.928295     31.653914     12.321900
  O       9.453681     30.334801     12.012381
  C      11.382263     31.529976     12.794856
  O      11.624669     30.449804     13.652513
  C      12.089954     31.425181     11.431874
  N      13.487078     31.777142     11.420388
  C      14.057491     33.032806     11.418924
  N      15.369533     33.012734     11.347880
  C      15.679997     31.669226     11.301927
  C      16.890785     30.972134     11.202419
  N      18.092617     31.604896     11.188322
  N      16.867026     29.630608     11.152114
  C      15.678508     29.012146     11.203995
  N      14.462022     29.548753     11.298005
  C      14.526097     30.881079     11.342260
  H       7.967396     36.709806      9.660919
  H      10.471785     34.646445     10.757529
  H      10.071981     34.291802     12.461049
  H       9.325965     32.305567     10.352602
  H       9.259729     32.075982     13.073404
  H       9.524084     30.197673     11.059306
  H      11.702507     32.445314     13.303322
  H      11.070063     29.729756     13.311829
  H      12.054927     30.381043     11.086345
  H      13.444110     33.921590     11.440253
  H      18.092676     32.582549     10.943080
  H      18.871877     31.057274     10.859454
  H      15.717554     27.927814     11.146557
162
Coordinates from ORCA-job amp_frame12_dry_r2scan E -13470.296254314022
  Si      3.526366     33.943096      7.864831
  Si      3.443860     30.841010      7.880707
  O       2.292874     34.864813      8.402831
  O       2.132731     30.070693      8.481371
  O       3.418810     32.390291      8.390156
  O       3.554080     33.876890      6.212343
  O       3.448116     30.888384      6.231580
  Si      6.132551     26.173204      7.855907
  Si      8.770406     24.552872      7.864091
  O       4.740659     25.559411      8.439724
  O       7.430631     25.328982      8.390496
  O       8.663816     23.019614      8.416996
  O       6.178891     26.172378      6.206154
  O       8.747843     24.633958      6.217752
  Si      6.079630     29.249269      7.747523
  Si      6.153820     35.543807      7.814025
  Si      8.909092     33.911877      7.683296
  Si      8.863533     30.809675      7.639930
  O       4.818988     30.080072      8.364762
  O       4.896306     34.666926      8.360413
  O       7.565274     34.743801      7.989679
  O       7.476848     30.042215      8.011694
  O       6.201794     27.733065      8.347078
  O       8.784152     32.347006      8.171663
  O       5.762212     29.135001      6.132056
  O       5.887279     35.750145      6.187272
  O       9.173510     33.849331      6.046138
  O       9.080548     30.879083      6.014655
  Si      6.259368     38.651596      7.814907
  Si      9.014497     40.066851      7.832166
  O       4.990129     39.531414      8.344610
  O       7.591298     39.452635      8.334684
  O       6.288188     37.096277      8.311428
  O       9.292331     41.589693      8.352425
  O       6.357800     38.620474      6.164226
  O       9.027702     39.961783      6.181446
  Si     11.462465     26.053490      7.793028
  Si     14.141693     24.548089      7.842640
  O      10.123131     25.325120      8.385465
  O      12.837873     25.388688      8.370752
  O      13.898678     23.011500      8.340458
  O      11.403797     25.785245      6.166583
  O      14.171292     24.670042      6.198691
  Si     11.489553     29.237732      7.752440
  Si     11.626012     35.345969      7.767875
  Si     14.246819     33.773728      7.803217
  Si     14.169758     30.715714      7.773640
  O      10.124703     29.971604      8.300268
  O      10.248900     34.643084      8.278935
  O      12.980017     34.634605      8.378857
  O      12.859080     29.910758      8.342718
  O      11.427698     27.649155      8.118216
  O      14.304461     32.233601      8.364610
  O      11.506610     29.433996      6.117364
  O      11.694058     35.113031      6.131534
  O      14.054708     33.639038      6.169605
  O      13.948259     30.834255      6.143673
  Si     11.674147     38.536125      7.811822
  Si     14.353011     40.042804      7.890728
  O      10.308434     39.215327      8.365784
  O      13.035710     39.223128      8.422159
  O      11.692320     36.934789      8.094351
  O      14.400856     41.571719      8.456399
  O      11.759917     38.830737      6.185121
  O      14.376526     39.953455      6.244307
  Si     16.867451     26.001501      7.895921
  O      15.536240     25.193714      8.408805
  O      18.162815     25.197982      8.479922
  O      16.796217     26.006090      6.248400
  Si     16.915018     29.077515      7.806150
  Si     17.018285     35.349815      7.825392
  Si     19.655757     33.772573      7.850700
  Si     19.570157     30.679357      7.810087
  O      15.520992     29.864214      8.081243
  O      15.656730     34.521264      8.132136
  O      18.323641     34.547608      8.418020
  O      18.188769     29.962234      8.307084
  O      16.848753     27.558545      8.409419
  O      19.657893     32.217443      8.370930
  O      17.117337     28.834308      6.179191
  O      17.295701     35.433738      6.198843
  O      19.566010     33.720911      6.208837
  O      19.551467     30.732208      6.166547
  Si     16.981201     38.417278      7.847361
  O      15.736026     39.318094      8.403713
  O      18.447198     38.963453      8.321650
  O      16.913695     36.873383      8.400324
  O      16.848129     38.351983      6.204015
  O      20.785583     29.779998      8.418459
  O      21.058973     34.413435      8.388349
  H       4.074658     24.986772      8.036591
  H       1.410409     29.602015      8.036749
  H       1.410409     35.007985      8.036749
  H       4.074657     39.623228      8.036591
  H       8.948181     22.173255      8.038302
  H       8.948181     42.436745      8.038302
  H      14.277762     22.173204      8.038282
  H      14.277762     42.436796      8.038282
  H      18.960557     24.876228      8.036406
  H      18.960557     39.733772      8.036406
  H      21.624717     29.491420      8.036583
  H      21.624717     35.118580      8.036583
  H      13.277134     34.148228      5.858988
  H      10.868391     34.710118      5.797174
  H       9.075906     32.957241      5.678231
  H       9.861918     30.378177      5.717478
  H      12.320534     29.882448      5.814379
  H      13.995686     31.764182      5.843104
  H      13.520640     39.645718      5.888902
  H      10.914354     39.121806      5.806550
  H       8.215946     39.552697      5.835693
  H       6.192584     37.727437      5.813852
  H       5.235516     35.138288      5.816777
  H       3.521026     32.969058      5.872770
  H       4.117815     30.301762      5.841650
  H       5.962948     28.267516      5.750829
  H       6.941331     25.684840      5.854076
  H       9.586396     24.956604      5.844859
  H      12.254328     25.532002      5.776749
  H      14.984394     25.091446      5.871655
  H      16.954133     26.894571      5.879198
  H      17.723938     29.454680      5.752472
  H      19.582010     31.640023      5.822042
  H      18.858369     34.290637      5.855130
  H      17.086319     36.297067      5.808749
  H      16.068926     38.834038      5.876616
  P       7.736808     35.605748     11.344950
  O       8.019128     35.955375     12.756049
  O       6.391463     35.458118     10.708518
  O       8.584251     36.600627     10.337489
  O       8.479507     34.163208     11.027721
  C       9.818048     33.975002     11.415813
  C      10.090823     32.506978     11.095916
  O      11.435694     32.286395     10.575961
  C       9.944247     31.572832     12.281214
  O       9.506261     30.250555     11.929483
  C      11.390957     31.464240     12.779016
  O      11.638838     30.377057     13.627111
  C      12.120706     31.390733     11.426183
  N      13.516491     31.749637     11.438867
  C      14.084291     33.006683     11.447717
  N      15.396912     32.991007     11.382947
  C      15.710929     31.649141     11.327883
  C      16.921565     30.956061     11.227639
  N      18.125779     31.595608     11.224414
  N      16.907003     29.614669     11.168943
  C      15.719161     28.992912     11.211055
  N      14.498771     29.524793     11.303355
  C      14.558946     30.856215     11.357304
  H       7.901725     36.699740      9.659537
  H      10.493218     34.606558     10.822730
  H       9.950919     34.217089     12.480128
  H       9.366590     32.265118     10.318973
  H       9.253960     31.968905     13.027411
  H       9.561032     30.160310     10.969708
  H      11.690104     32.375893     13.306910
  H      11.121995     29.644300     13.256147
  H      12.097251     30.354785     11.057059
  H      13.469021     33.893967     11.472468
  H      18.115308     32.568783     10.959093
  H      18.896624     31.050697     10.869895
  H      15.762656     27.909066     11.151647
162
Coordinates from ORCA-job amp_frame12_dry_r2scan E -13470.297952863793
  Si      3.529693     33.946326      7.893302
  Si      3.445119     30.845482      7.893817
  O       2.289563     34.872262      8.413054
  O       2.131026     30.070536      8.484902
  O       3.415603     32.390922      8.413156
  O       3.562882     33.883087      6.240012
  O       3.449752     30.895051      6.244655
  Si      6.130599     26.178354      7.860604
  Si      8.765284     24.556247      7.868161
  O       4.729777     25.575972      8.434390
  O       7.425981     25.331066      8.398322
  O       8.656928     23.019842      8.412543
  O       6.175257     26.172620      6.211165
  O       8.743443     24.640267      6.221887
  Si      6.079962     29.252785      7.757544
  Si      6.153275     35.548558      7.894431
  Si      8.909002     33.915890      7.721429
  Si      8.866656     30.812392      7.650090
  O       4.821093     30.084630      8.377249
  O       4.887183     34.667994      8.414287
  O       7.569845     34.746714      8.034994
  O       7.479944     30.043268      8.018439
  O       6.202071     27.736322      8.357530
  O       8.790362     32.343974      8.193677
  O       5.766201     29.139664      6.140211
  O       5.891185     35.755936      6.262856
  O       9.167556     33.859136      6.079637
  O       9.085443     30.883278      6.023438
  Si      6.267533     38.658691      7.831824
  Si      9.021147     40.065449      7.836580
  O       5.000482     39.566900      8.321097
  O       7.594556     39.471167      8.351464
  O       6.287037     37.117922      8.361294
  O       9.327928     41.594603      8.324044
  O       6.379439     38.591996      6.183290
  O       9.026812     39.945020      6.188027
  Si     11.459298     26.052782      7.800179
  Si     14.137108     24.549807      7.845080
  O      10.119260     25.324084      8.391031
  O      12.833353     25.386800      8.378986
  O      13.887651     23.010212      8.329651
  O      11.403177     25.793528      6.171717
  O      14.168149     24.670044      6.201277
  Si     11.493423     29.236605      7.764062
  Si     11.623564     35.347196      7.793858
  Si     14.245486     33.777016      7.820428
  Si     14.171082     30.717555      7.791831
  O      10.130520     29.975925      8.310380
  O      10.251732     34.644086      8.319546
  O      12.979149     34.633832      8.403040
  O      12.860249     29.912002      8.360702
  O      11.425814     27.648302      8.128018
  O      14.300520     32.236185      8.384280
  O      11.515853     29.428151      6.127669
  O      11.678493     35.119958      6.155905
  O      14.051607     33.650693      6.185447
  O      13.957712     30.837472      6.159489
  Si     11.676622     38.536301      7.826776
  Si     14.357488     40.040068      7.894404
  O      10.310588     39.214132      8.382915
  O      13.037798     39.229827      8.432343
  O      11.696435     36.936678      8.116755
  O      14.424594     41.571852      8.450419
  O      11.757877     38.818897      6.197456
  O      14.376719     39.947847      6.249112
  Si     16.863993     26.000463      7.898515
  O      15.530569     25.195861      8.413688
  O      18.154427     25.182553      8.476019
  O      16.794743     26.010413      6.251735
  Si     16.914621     29.076754      7.816066
  Si     17.019201     35.346128      7.832898
  Si     19.655032     33.766327      7.856099
  Si     19.567074     30.675800      7.816652
  O      15.520606     29.861963      8.094592
  O      15.659273     34.518205      8.147629
  O      18.326461     34.544803      8.425011
  O      18.185094     29.963590      8.319198
  O      16.851346     27.556056      8.415821
  O      19.658363     32.212374      8.383052
  O      17.112941     28.841655      6.186254
  O      17.283918     35.424887      6.203584
  O      19.560779     33.712952      6.214670
  O      19.552880     30.733421      6.174176
  Si     16.982217     38.410986      7.849502
  O      15.738723     39.311079      8.409960
  O      18.455460     38.952726      8.307009
  O      16.917084     36.869409      8.409424
  O      16.847551     38.345551      6.206713
  O      20.773992     29.756395      8.411001
  O      21.062723     34.406759      8.381836
  H       4.074658     24.986772      8.036591
  H       1.410409     29.602015      8.036749
  H       1.410409     35.007985      8.036749
  H       4.074657     39.623228      8.036591
  H       8.948181     22.173255      8.038302
  H       8.948181     42.436745      8.038302
  H      14.277762     22.173204      8.038282
  H      14.277762     42.436796      8.038282
  H      18.960556     24.876228      8.036406
  H      18.960557     39.733772      8.036406
  H      21.624717     29.491420      8.036583
  H      21.624717     35.118580      8.036583
  H      13.272603     34.157117      5.875229
  H      10.850846     34.712029      5.829242
  H       9.073329     32.967659      5.709140
  H       9.863458     30.380035      5.723275
  H      12.327791     29.878582      5.823651
  H      14.000864     31.766291      5.856854
  H      13.526764     39.634467      5.886927
  H      10.914547     39.108830      5.813722
  H       8.221174     39.525352      5.841187
  H       6.220068     37.692082      5.847196
  H       5.242658     35.146361      5.883563
  H       3.533476     32.979008      5.891087
  H       4.121515     30.316426      5.847801
  H       5.959228     28.272729      5.754673
  H       6.937296     25.689733      5.852882
  H       9.576791     24.967019      5.842757
  H      12.249808     25.534565      5.777896
  H      14.976858     25.093192      5.867522
  H      16.945549     26.898480      5.879698
  H      17.721529     29.456953      5.755723
  H      19.578514     31.639812      5.826078
  H      18.850017     34.274754      5.856108
  H      17.083332     36.287964      5.809017
  H      16.071071     38.825493      5.871705
  P       7.682220     35.501118     11.291104
  O       7.876725     35.773778     12.733074
  O       6.379292     35.344782     10.568162
  O       8.528206     36.586146     10.378863
  O       8.496399     34.108253     10.937686
  C       9.805425     33.920769     11.415375
  C      10.113475     32.459077     11.088595
  O      11.471794     32.272134     10.591850
  C       9.959000     31.497627     12.250878
  O       9.549912     30.175949     11.859576
  C      11.397159     31.396985     12.769047
  O      11.647337     30.300924     13.605137
  C      12.144560     31.353430     11.426057
  N      13.540601     31.712633     11.462948
  C      14.104127     32.970058     11.485920
  N      15.416530     32.959390     11.430270
  C      15.735834     31.620398     11.364229
  C      16.948241     30.932577     11.264295
  N      18.151778     31.580113     11.273873
  N      16.942651     29.591660     11.195952
  C      15.756523     28.965786     11.228540
  N      14.533111     29.492060     11.316499
  C      14.586641     30.822664     11.380589
  H       7.848303     36.715220      9.703459
  H      10.522105     34.562297     10.883105
  H       9.860933     34.147947     12.488853
  H       9.406016     32.225384     10.294919
  H       9.249099     31.868881     12.991650
  H       9.600685     30.125026     10.896440
  H      11.680540     32.303391     13.314784
  H      11.155364     29.563215     13.211492
  H      12.126207     30.327895     11.029950
  H      13.485145     33.854617     11.512562
  H      18.132188     32.552639     11.004921
  H      18.925346     31.039636     10.917265
  H      15.804546     27.882630     11.161302
162
Coordinates from ORCA-job amp_frame12_dry_r2scan E -13470.300693625422
  Si      3.531899     33.948621      7.931067
  Si      3.448829     30.847551      7.910178
  O       2.282121     34.875855      8.430557
  O       2.131613     30.066209      8.489189
  O       3.414255     32.387759      8.438977
  O       3.574653     33.894009      6.276203
  O       3.453490     30.897521      6.260418
  Si      6.129546     26.181648      7.871844
  Si      8.764166     24.560764      7.877790
  O       4.719552     25.588923      8.433182
  O       7.425524     25.335140      8.409225
  O       8.656273     23.020664      8.412672
  O       6.170796     26.168124      6.222610
  O       8.745285     24.643395      6.231179
  Si      6.083280     29.255112      7.773803
  Si      6.157695     35.548508      8.022309
  Si      8.911644     33.917078      7.772727
  Si      8.870429     30.811885      7.669739
  O       4.824955     30.086784      8.391892
  O       4.870590     34.663765      8.488599
  O       7.581006     34.743493      8.115793
  O       7.483715     30.043568      8.037815
  O       6.202147     27.736988      8.371868
  O       8.807292     32.336419      8.222924
  O       5.778906     29.143016      6.153768
  O       5.907248     35.763044      6.383189
  O       9.155396     33.869923      6.124730
  O       9.088158     30.883205      6.040925
  Si      6.274085     38.659746      7.877033
  Si      9.021989     40.063896      7.860094
  O       5.003687     39.591657      8.313843
  O       7.595293     39.487484      8.392003
  O       6.289513     37.141111      8.455089
  O       9.353312     41.600866      8.307682
  O       6.399941     38.548895      6.232368
  O       9.014926     39.930193      6.213372
  Si     11.459588     26.053600      7.813259
  Si     14.135770     24.551805      7.856582
  O      10.118261     25.325226      8.400070
  O      12.830665     25.382512      8.391851
  O      13.884629     23.009199      8.329420
  O      11.407595     25.804241      6.182919
  O      14.169458     24.663307      6.212067
  Si     11.500218     29.234635      7.780952
  Si     11.623285     35.350207      7.817001
  Si     14.245219     33.782178      7.834061
  Si     14.173588     30.721472      7.813041
  O      10.139797     29.978404      8.324533
  O      10.260683     34.644636      8.361521
  O      12.978928     34.632467      8.419519
  O      12.862031     29.917897      8.381191
  O      11.427685     27.647800      8.147798
  O      14.293820     32.242059      8.401263
  O      11.523569     29.419218      6.142759
  O      11.668663     35.130921      6.177597
  O      14.053894     33.660465      6.197515
  O      13.969122     30.836032      6.177166
  Si     11.672904     38.535994      7.847613
  Si     14.355922     40.036809      7.905105
  O      10.308885     39.213442      8.412128
  O      13.034052     39.237428      8.443914
  O      11.699155     36.938815      8.146688
  O      14.438784     41.572638      8.449665
  O      11.746860     38.810538      6.216933
  O      14.372146     39.946026      6.260300
  Si     16.861733     26.004624      7.905999
  O      15.524983     25.206190      8.423402
  O      18.149052     25.173198      8.473814
  O      16.796477     26.018160      6.259690
  Si     16.913527     29.080484      7.828580
  Si     17.018224     35.345377      7.838549
  Si     19.652036     33.762244      7.867778
  Si     19.563883     30.673587      7.834936
  O      15.520447     29.862380      8.118417
  O      15.661462     34.517717      8.164229
  O      18.326179     34.544851      8.429681
  O      18.181701     29.965547      8.338951
  O      16.854774     27.558137      8.422920
  O      19.654566     32.210035      8.401175
  O      17.108152     28.856879      6.196113
  O      17.272017     35.422015      6.207600
  O      19.560204     33.709399      6.225762
  O      19.557884     30.733836      6.192711
  Si     16.980560     38.408307      7.859220
  O      15.732991     39.299149      8.421493
  O      18.457250     38.950783      8.304490
  O      16.920354     36.867824      8.417571
  O      16.851560     38.350931      6.215940
  O      20.765165     29.733393      8.408785
  O      21.061239     34.407559      8.383068
  H       4.074657     24.986772      8.036591
  H       1.410409     29.602015      8.036749
  H       1.410409     35.007985      8.036749
  H       4.074657     39.623228      8.036591
  H       8.948181     22.173255      8.038302
  H       8.948181     42.436745      8.038302
  H      14.277762     22.173204      8.038282
  H      14.277762     42.436796      8.038282
  H      18.960557     24.876228      8.036406
  H      18.960557     39.733772      8.036406
  H      21.624717     29.491420      8.036583
  H      21.624717     35.118580      8.036583
  H      13.273996     34.161606      5.884144
  H      10.837827     34.722991      5.856768
  H       9.065542     32.977978      5.753532
  H       9.862747     30.377542      5.737447
  H      12.333206     29.869718      5.834833
  H      14.007949     31.761538      5.867708
  H      13.529636     39.625848      5.890018
  H      10.903607     39.100647      5.832998
  H       8.217603     39.493378      5.868869
  H       6.250274     37.637789      5.919732
  H       5.261112     35.157120      5.992767
  H       3.553389     32.993974      5.916167
  H       4.130256     30.329373      5.858149
  H       5.960744     28.273980      5.767496
  H       6.933729     25.691975      5.858061
  H       9.572965     24.977264      5.847363
  H      12.251006     25.535532      5.788546
  H      14.972392     25.090491      5.871064
  H      16.939086     26.905920      5.885017
  H      17.725696     29.464972      5.767695
  H      19.577521     31.638250      5.839528
  H      18.846604     34.263139      5.861881
  H      17.082174     36.287590      5.812946
  H      16.075765     38.826264      5.874018
  P       7.687669     35.459070     11.288272
  O       7.842187     35.633071     12.748333
  O       6.402997     35.330970     10.523572
  O       8.504031     36.638173     10.465193
  O       8.540533     34.107693     10.860063
  C       9.817516     33.888032     11.410819
  C      10.135968     32.424673     11.094858
  O      11.502843     32.262550     10.620493
  C       9.975171     31.449933     12.244837
  O       9.581572     30.129714     11.829046
  C      11.405479     31.350432     12.774260
  O      11.653814     30.249347     13.603105
  C      12.161273     31.321650     11.437919
  N      13.560250     31.670108     11.490703
  C      14.122245     32.924930     11.518647
  N      15.433291     32.914089     11.471169
  C      15.754532     31.577116     11.404510
  C      16.968304     30.889392     11.310500
  N      18.169709     31.539081     11.327948
  N      16.963144     29.548863     11.239639
  C      15.777322     28.923477     11.265697
  N      14.555440     29.449768     11.347155
  C      14.605765     30.780069     11.412500
  H       7.819739     36.773487      9.793999
  H      10.574421     34.522577     10.928724
  H       9.817528     34.108028     12.485590
  H       9.443601     32.191886     10.287307
  H       9.250688     31.804483     12.980011
  H       9.633150     30.101474     10.864656
  H      11.682953     32.254195     13.327720
  H      11.169429     29.511766     13.200440
  H      12.136213     30.304968     11.021454
  H      13.500997     33.808031     11.539867
  H      18.146699     32.512779     11.064084
  H      18.953125     30.998590     10.994216
  H      15.824944     27.840056     11.198610
162
Coordinates from ORCA-job amp_frame12_dry_r2scan E -13470.305509510375
  Si      3.533600     33.950479      7.958910
  Si      3.453299     30.848226      7.915581
  O       2.276041     34.879003      8.446088
  O       2.135422     30.061060      8.489173
  O       3.414441     32.382221      8.452195
  O       3.581231     33.904848      6.302514
  O       3.452243     30.897013      6.265011
  Si      6.128901     26.184455      7.874047
  Si      8.763498     24.564860      7.879267
  O       4.708361     25.606631      8.426143
  O       7.426248     25.339657      8.410719
  O       8.653167     23.022519      8.407812
  O       6.168953     26.156866      6.225277
  O       8.747463     24.643138      6.232088
  Si      6.087004     29.256193      7.768838
  Si      6.169059     35.545281      8.155032
  Si      8.922508     33.919496      7.793406
  Si      8.876315     30.809099      7.657439
  O       4.832303     30.087941      8.388379
  O       4.854419     34.653542      8.549848
  O       7.600509     34.736201      8.164210
  O       7.489265     30.042641      8.025536
  O       6.205977     27.738060      8.369315
  O       8.830561     32.326825      8.212833
  O       5.779408     29.137458      6.149690
  O       5.916500     35.776458      6.507217
  O       9.169060     33.884352      6.141371
  O       9.097044     30.879431      6.028020
  Si      6.284808     38.661528      7.907919
  Si      9.026506     40.062684      7.870465
  O       5.012743     39.619347      8.291259
  O       7.598935     39.507337      8.419353
  O       6.302007     37.168002      8.538429
  O       9.385450     41.606723      8.276296
  O       6.426761     38.506683      6.269064
  O       9.006962     39.909303      6.226215
  Si     11.460299     26.052916      7.811142
  Si     14.134592     24.553737      7.861468
  O      10.118649     25.326734      8.396751
  O      12.828640     25.379809      8.392543
  O      13.877400     23.008882      8.322910
  O      11.411889     25.800270      6.181588
  O      14.175319     24.658818      6.216334
  Si     11.508031     29.231395      7.771888
  Si     11.631284     35.352747      7.817292
  Si     14.248272     33.783769      7.830752
  Si     14.176304     30.723675      7.811818
  O      10.150036     29.978940      8.309737
  O      10.277933     34.643753      8.375314
  O      12.984024     34.629872      8.416132
  O      12.863801     29.922463      8.376659
  O      11.429010     27.646952      8.144573
  O      14.289306     32.244103      8.398141
  O      11.533620     29.409953      6.132556
  O      11.680428     35.136095      6.178139
  O      14.060248     33.662318      6.193454
  O      13.977042     30.835253      6.173196
  Si     11.672408     38.536399      7.853223
  Si     14.356723     40.034070      7.909866
  O      10.309961     39.212218      8.427848
  O      13.032543     39.244126      8.444008
  O      11.708206     36.940946      8.155314
  O      14.459981     41.573161      8.444190
  O      11.743976     38.815769      6.224339
  O      14.368693     39.945657      6.265188
  Si     16.859168     26.006676      7.908172
  O      15.518988     25.215595      8.426768
  O      18.139738     25.158538      8.468172
  O      16.800235     26.022121      6.262028
  Si     16.912960     29.081668      7.826756
  Si     17.019976     35.343908      7.835435
  Si     19.650168     33.756649      7.876298
  Si     19.560187     30.670546      7.849956
  O      15.519642     29.859726      8.121103
  O      15.666824     34.513584      8.164858
  O      18.327495     34.545281      8.427633
  O      18.176092     29.967058      8.348772
  O      16.857472     27.559489      8.419222
  O      19.651262     32.206633      8.416336
  O      17.113858     28.860226      6.194850
  O      17.274942     35.423993      6.205885
  O      19.560370     33.703470      6.233304
  O      19.564278     30.738260      6.207956
  Si     16.979547     38.404470      7.863775
  O      15.729002     39.287142      8.426523
  O      18.460723     38.945419      8.296318
  O      16.923561     36.865085      8.417630
  O      16.852428     38.354924      6.220245
  O      20.753297     29.704792      8.401208
  O      21.062441     34.404159      8.380114
  H       4.074657     24.986772      8.036591
  H       1.410409     29.602015      8.036749
  H       1.410409     35.007985      8.036749
  H       4.074657     39.623228      8.036591
  H       8.948181     22.173255      8.038302
  H       8.948181     42.436745      8.038302
  H      14.277762     22.173204      8.038282
  H      14.277762     42.436796      8.038282
  H      18.960557     24.876228      8.036406
  H      18.960557     39.733772      8.036406
  H      21.624717     29.491420      8.036583
  H      21.624717     35.118580      8.036583
  H      13.280713     34.161239      5.877468
  H      10.844532     34.733667      5.860980
  H       9.081586     32.992075      5.769659
  H       9.869967     30.370744      5.725533
  H      12.343371     29.859326      5.823743
  H      14.014282     31.758768      5.859883
  H      13.529475     39.620644      5.892837
  H      10.896730     39.101364      5.843457
  H       8.216306     39.450441      5.892218
  H       6.284779     37.579708      5.992124
  H       5.278135     35.167519      6.107859
  H       3.568794     33.006855      5.936137
  H       4.131709     30.333999      5.859790
  H       5.954420     28.264594      5.767810
  H       6.936085     25.686623      5.861288
  H       9.573557     24.979837      5.847178
  H      12.256124     25.526455      5.791175
  H      14.975572     25.090618      5.874591
  H      16.940005     26.910718      5.888235
  H      17.736902     29.466987      5.771299
  H      19.575737     31.643576      5.855837
  H      18.846408     34.255760      5.868115
  H      17.088054     36.293058      5.815799
  H      16.073198     38.825258      5.878336
  P       7.664219     35.394151     11.152115
  O       7.668781     35.428227     12.626387
  O       6.452552     35.302025     10.262911
  O       8.455200     36.696197     10.507999
  O       8.604296     34.110056     10.675499
  C       9.819836     33.854471     11.353880
  C      10.160151     32.388130     11.067820
  O      11.537325     32.254490     10.627923
  C       9.991730     31.407931     12.211969
  O       9.623286     30.085721     11.778397
  C      11.411487     31.319233     12.760854
  O      11.657369     30.218150     13.587392
  C      12.181602     31.300335     11.435595
  N      13.582682     31.636666     11.504538
  C      14.144203     32.887941     11.526094
  N      15.453188     32.874102     11.481854
  C      15.774830     31.537534     11.426049
  C      16.989838     30.845188     11.337013
  N      18.188568     31.488771     11.350300
  N      16.974641     29.504843     11.273080
  C      15.789038     28.882733     11.303100
  N      14.573465     29.414508     11.378959
  C      14.624844     30.745230     11.435611
  H       7.765501     36.837901      9.841244
  H      10.628414     34.477909     10.952705
  H       9.718051     34.071032     12.422302
  H       9.488963     32.152846     10.241635
  H       9.245934     31.742605     12.935668
  H       9.663738     30.070739     10.812978
  H      11.674831     32.225329     13.317764
  H      11.189573     29.476487     13.173158
  H      12.149584     30.290058     11.005811
  H      13.521463     33.770238     11.534357
  H      18.164951     32.461230     11.083782
  H      18.975912     30.942652     11.037280
  H      15.831524     27.798382     11.240483
162
Coordinates from ORCA-job amp_frame12_dry_r2scan E -13470.308132740640
  Si      3.526902     33.949687      7.947817
  Si      3.457565     30.841081      7.887358
  O       2.269430     34.869326      8.456556
  O       2.148723     30.051047      8.477377
  O       3.421664     32.370509      8.420851
  O       3.569776     33.918442      6.291513
  O       3.438198     30.887860      6.236470
  Si      6.129104     26.180088      7.855727
  Si      8.771480     24.564293      7.859393
  O       4.709240     25.609480      8.421671
  O       7.437307     25.346571      8.381266
  O       8.661734     23.027570      8.403522
  O       6.164770     26.131015      6.208146
  O       8.755837     24.618641      6.211614
  Si      6.092561     29.252557      7.716807
  Si      6.200749     35.530497      8.253983
  Si      8.948247     33.916470      7.718666
  Si      8.878211     30.798035      7.583106
  O       4.843112     30.082215      8.337189
  O       4.842346     34.630740      8.551484
  O       7.637341     34.716583      8.136992
  O       7.492488     30.039848      7.964842
  O       6.212660     27.735716      8.323112
  O       8.862668     32.315352      8.114540
  O       5.767035     29.117810      6.106017
  O       5.918437     35.797132      6.600501
  O       9.217121     33.890034      6.070534
  O       9.096569     30.861464      5.956158
  Si      6.292897     38.661563      7.924688
  Si      9.033609     40.066348      7.872213
  O       5.012153     39.614333      8.305009
  O       7.611153     39.508422      8.433301
  O       6.335654     37.185238      8.597500
  O       9.388476     41.610787      8.281758
  O       6.430483     38.503477      6.289008
  O       9.002924     39.917960      6.227516
  Si     11.466806     26.054713      7.772153
  Si     14.140458     24.552169      7.853864
  O      10.126178     25.334269      8.359322
  O      12.832957     25.380889      8.358949
  O      13.883398     23.011560      8.328839
  O      11.420282     25.775447      6.150071
  O      14.192747     24.642230      6.207523
  Si     11.512874     29.226763      7.702425
  Si     11.659837     35.351950      7.728910
  Si     14.262260     33.773313      7.760158
  Si     14.179622     30.718503      7.745623
  O      10.157202     29.974225      8.229140
  O      10.309845     34.641092      8.281130
  O      12.999690     34.619667      8.324841
  O      12.863144     29.926697      8.302280
  O      11.432589     27.648697      8.098608
  O      14.288024     32.237095      8.322499
  O      11.531950     29.399116      6.064363
  O      11.746618     35.129837      6.095694
  O      14.096282     33.634289      6.124744
  O      13.979677     30.814491      6.106600
  Si     11.674728     38.532729      7.808455
  Si     14.357291     40.035978      7.897937
  O      10.318372     39.207763      8.405572
  O      13.033035     39.238944      8.400147
  O      11.725206     36.936293      8.102150
  O      14.454647     41.572495      8.446929
  O      11.749193     38.849077      6.191357
  O      14.375420     39.972389      6.251084
  Si     16.861731     26.009993      7.896925
  O      15.517179     25.229146      8.410037
  O      18.137840     25.162926      8.463505
  O      16.817595     26.011668      6.249882
  Si     16.911493     29.083451      7.787772
  Si     17.023495     35.344018      7.794682
  Si     19.651958     33.756174      7.871663
  Si     19.559384     30.667671      7.861604
  O      15.517148     29.855591      8.086388
  O      15.674123     34.505893      8.117315
  O      18.324569     34.547959      8.391091
  O      18.170372     29.964096      8.334693
  O      16.854933     27.565803      8.384288
  O      19.642505     32.208208      8.410843
  O      17.133745     28.850707      6.165102
  O      17.308152     35.440603      6.175649
  O      19.586040     33.704951      6.225852
  O      19.580024     30.734463      6.217681
  Si     16.981415     38.407347      7.852905
  O      15.721252     39.275162      8.406838
  O      18.453481     38.953059      8.305313
  O      16.923860     36.863953      8.378403
  O      16.866643     38.377040      6.208068
  O      20.753469     29.694925      8.407057
  O      21.056562     34.411377      8.386939
  H       4.074657     24.986772      8.036591
  H       1.410409     29.602015      8.036749
  H       1.410409     35.007985      8.036749
  H       4.074657     39.623228      8.036591
  H       8.948181     22.173255      8.038302
  H       8.948181     42.436745      8.038302
  H      14.277762     22.173204      8.038282
  H      14.277762     42.436796      8.038282
  H      18.960557     24.876228      8.036406
  H      18.960556     39.733772      8.036406
  H      21.624717     29.491420      8.036583
  H      21.624717     35.118580      8.036583
  H      13.326057     34.138168      5.795482
  H      10.907809     34.744114      5.768509
  H       9.126402     32.995456      5.704973
  H       9.871290     30.349975      5.660182
  H      12.344412     29.843738      5.754520
  H      14.024224     31.734774      5.785492
  H      13.531635     39.651915      5.883373
  H      10.890494     39.134187      5.830731
  H       8.208953     39.445679      5.914304
  H       6.288401     37.559691      6.052699
  H       5.280955     35.182919      6.207336
  H       3.563993     33.016256      5.932390
  H       4.119902     30.321316      5.836881
  H       5.941484     28.234455      5.744571
  H       6.939303     25.660458      5.857427
  H       9.588369     24.953752      5.835474
  H      12.273837     25.498702      5.778909
  H      14.997027     25.078560      5.877590
  H      16.962699     26.902193      5.881279
  H      17.767343     29.463850      5.763604
  H      19.589065     31.642990      5.871735
  H      18.876016     34.266553      5.864923
  H      17.114514     36.319377      5.806764
  H      16.078181     38.846579      5.881526
  P       7.680777     35.441451     11.023684
  O       7.551366     35.371316     12.483494
  O       6.497283     35.406113     10.079204
  O       8.441988     36.819933     10.528334
  O       8.643250     34.178996     10.498471
  C       9.831626     33.880172     11.244471
  C      10.150612     32.400892     11.018913
  O      11.524986     32.262926     10.603247
  C       9.976962     31.464580     12.198877
  O       9.597116     30.136090     11.808287
  C      11.394357     31.386028     12.751727
  O      11.629191     30.303197     13.598301
  C      12.166907     31.332133     11.429934
  N      13.569162     31.652850     11.486157
  C      14.136615     32.897584     11.475110
  N      15.442790     32.868502     11.422596
  C      15.755417     31.526789     11.401516
  C      16.970948     30.814472     11.320619
  N      18.163694     31.425074     11.305677
  N      16.912970     29.474758     11.285530
  C      15.724846     28.867285     11.337805
  N      14.529576     29.421742     11.410005
  C      14.597887     30.754531     11.435548
  H       7.756513     36.928257      9.844534
  H      10.657156     34.485154     10.861309
  H       9.699056     34.113702     12.303463
  H       9.492670     32.133199     10.185329
  H       9.225294     31.808564     12.912718
  H       9.636304     30.059031     10.846137
  H      11.655526     32.308779     13.281843
  H      11.146416     29.559404     13.205571
  H      12.116235     30.311551     11.026938
  H      13.517577     33.782589     11.459329
  H      18.163855     32.399838     11.054792
  H      18.954778     30.861848     11.042903
  H      15.746526     27.780153     11.293432
162
Coordinates from ORCA-job amp_frame12_dry_r2scan E -13470.311574991885
  Si      3.519044     33.951170      7.912188
  Si      3.451976     30.839644      7.862673
  O       2.271677     34.866364      8.445450
  O       2.150567     30.054214      8.469089
  O       3.419535     32.372644      8.388780
  O       3.563049     33.923071      6.260121
  O       3.431137     30.887571      6.214265
  Si      6.125129     26.181552      7.837163
  Si      8.767401     24.558449      7.840982
  O       4.711282     25.609054      8.416948
  O       7.433795     25.345382      8.359659
  O       8.658218     23.027339      8.398285
  O       6.163849     26.140136      6.191274
  O       8.749145     24.609511      6.195091
  Si      6.093859     29.256575      7.694776
  Si      6.206924     35.539721      8.211670
  Si      8.959487     33.922250      7.677787
  Si      8.877126     30.802482      7.570482
  O       4.840751     30.083751      8.312554
  O       4.843341     34.632500      8.502317
  O       7.644712     34.724450      8.082582
  O       7.491629     30.044974      7.953661
  O       6.212923     27.739424      8.300255
  O       8.863185     32.325942      8.092294
  O       5.769447     29.126728      6.087496
  O       5.914017     35.817603      6.560847
  O       9.249772     33.887998      6.039104
  O       9.091556     30.868897      5.947772
  Si      6.293638     38.677113      7.887241
  Si      9.044751     40.071910      7.837517
  O       5.013986     39.617168      8.299890
  O       7.620582     39.512252      8.397444
  O       6.336509     37.195722      8.560945
  O       9.387992     41.609787      8.276329
  O       6.427647     38.533655      6.253542
  O       9.021283     39.921625      6.194653
  Si     11.461671     26.055909      7.753050
  Si     14.136667     24.547805      7.835561
  O      10.122148     25.333488      8.340168
  O      12.829599     25.381621      8.337577
  O      13.882628     23.011757      8.325598
  O      11.410933     25.776466      6.134328
  O      14.183818     24.644112      6.190833
  Si     11.504170     29.225928      7.684676
  Si     11.677375     35.350105      7.696584
  Si     14.272344     33.759128      7.733611
  Si     14.177361     30.706332      7.718590
  O      10.152451     29.975406      8.215035
  O      10.320927     34.647115      8.243721
  O      13.012691     34.614114      8.293824
  O      12.859510     29.919623      8.278264
  O      11.425562     27.649016      8.086008
  O      14.293707     32.223889      8.294652
  O      11.517351     29.400893      6.050396
  O      11.773254     35.120043      6.069056
  O      14.110442     33.611381      6.102657
  O      13.970846     30.797534      6.084313
  Si     11.687472     38.531792      7.772845
  Si     14.369727     40.042603      7.874432
  O      10.327981     39.205530      8.368399
  O      13.042574     39.239424      8.369048
  O      11.740795     36.934957      8.075934
  O      14.459082     41.572617      8.441612
  O      11.765185     38.848452      6.160113
  O      14.390945     39.985627      6.228224
  Si     16.862276     26.000102      7.880654
  O      15.515169     25.223210      8.390496
  O      18.135517     25.161005      8.458952
  O      16.819207     25.996739      6.234427
  Si     16.908152     29.075950      7.765632
  Si     17.030271     35.336102      7.771013
  Si     19.663085     33.751708      7.850940
  Si     19.560053     30.660244      7.842362
  O      15.512933     29.845650      8.071361
  O      15.681255     34.494527      8.096714
  O      18.330802     34.542255      8.366618
  O      18.167552     29.958192      8.313403
  O      16.853666     27.559167      8.365142
  O      19.647888     32.202875      8.385467
  O      17.125831     28.838413      6.147968
  O      17.320605     35.431242      6.156475
  O      19.603154     33.697633      6.206046
  O      19.573172     30.721783      6.198482
  Si     16.989941     38.404140      7.828530
  O      15.729615     39.275506      8.380429
  O      18.454420     38.951019      8.299809
  O      16.927942     36.858223      8.350169
  O      16.873474     38.368480      6.185253
  O      20.754294     29.696494      8.403675
  O      21.061333     34.406598      8.381885
  H       4.074658     24.986772      8.036591
  H       1.410409     29.602015      8.036749
  H       1.410409     35.007985      8.036749
  H       4.074657     39.623228      8.036591
  H       8.948181     22.173255      8.038302
  H       8.948181     42.436745      8.038302
  H      14.277762     22.173204      8.038282
  H      14.277762     42.436796      8.038282
  H      18.960557     24.876228      8.036406
  H      18.960557     39.733772      8.036406
  H      21.624717     29.491420      8.036583
  H      21.624717     35.118580      8.036583
  H      13.342350     34.116520      5.769826
  H      10.937322     34.736819      5.736079
  H       9.157391     32.994715      5.674167
  H       9.866021     30.359041      5.649876
  H      12.329210     29.844582      5.738363
  H      14.018022     31.717482      5.761486
  H      13.542333     39.668173      5.866951
  H      10.904176     39.130106      5.801867
  H       8.225162     39.446626      5.888572
  H       6.283470     37.587682      6.022743
  H       5.279093     35.201800      6.169897
  H       3.558330     33.019039      5.907558
  H       4.112214     30.316129      5.820265
  H       5.948468     28.243322      5.729044
  H       6.941331     25.670024      5.846423
  H       9.585161     24.943343      5.824731
  H      12.266288     25.502275      5.766037
  H      14.989673     25.082066      5.866347
  H      16.966059     26.887962      5.868200
  H      17.757931     29.455001      5.749691
  H      19.580198     31.631194      5.854699
  H      18.893826     34.262221      5.847914
  H      17.123822     36.310607      5.791154
  H      16.082685     38.839765      5.866303
  P       7.716550     35.437370     11.108675
  O       7.638578     35.430264     12.573156
  O       6.461530     35.304980     10.265261
  O       8.433669     36.801933     10.542069
  O       8.649530     34.168170     10.582634
  C       9.873147     33.881852     11.274856
  C      10.169915     32.405655     11.033528
  O      11.533071     32.255620     10.597184
  C      10.006758     31.478323     12.224588
  O       9.601265     30.156627     11.854821
  C      11.435372     31.392504     12.756408
  O      11.673321     30.311555     13.602768
  C      12.191210     31.332391     11.422843
  N      13.592005     31.652377     11.463384
  C      14.169482     32.895995     11.447084
  N      15.476695     32.856057     11.393638
  C      15.778138     31.509044     11.376566
  C      16.991206     30.786490     11.301021
  N      18.186627     31.378609     11.284437
  N      16.913252     29.447989     11.273556
  C      15.721473     28.848831     11.324831
  N      14.531420     29.414384     11.393199
  C      14.613885     30.747614     11.412375
  H       7.761609     36.914587      9.839287
  H      10.673569     34.492293     10.847831
  H       9.782932     34.110435     12.340639
  H       9.499243     32.134288     10.207082
  H       9.275794     31.833324     12.954098
  H       9.618896     30.050810     10.895499
  H      11.704531     32.316877     13.279821
  H      11.181372     29.568990     13.218870
  H      12.133252     30.307603     11.028877
  H      13.558866     33.786848     11.434103
  H      18.211488     32.354791     11.042378
  H      18.974094     30.807220     11.029545
  H      15.734904     27.761493     11.289772
162
Coordinates from ORCA-job amp_frame12_dry_r2scan E -13470.316809606549
  Si      3.517335     33.947943      7.944700
  Si      3.448741     30.838984      7.881846
  O       2.262448     34.863394      8.462220
  O       2.146718     30.047431      8.478057
  O       3.408315     32.369595      8.419640
  O       3.568741     33.925477      6.292951
  O       3.435805     30.891841      6.233825
  Si      6.123972     26.184602      7.842551
  Si      8.761032     24.557424      7.851863
  O       4.705031     25.617262      8.412784
  O       7.425480     25.340733      8.373682
  O       8.649376     23.022915      8.398096
  O       6.163748     26.151674      6.195992
  O       8.746929     24.623883      6.206188
  Si      6.094838     29.259721      7.721273
  Si      6.194434     35.544927      8.270417
  Si      8.953273     33.928405      7.716183
  Si      8.883637     30.805893      7.607817
  O       4.838203     30.085591      8.340448
  O       4.834067     34.630857      8.553891
  O       7.634420     34.726971      8.102382
  O       7.495290     30.047442      7.984593
  O       6.213483     27.740990      8.322899
  O       8.860040     32.331941      8.135050
  O       5.784175     29.139555      6.108562
  O       5.902288     35.832083      6.616778
  O       9.238167     33.890508      6.074132
  O       9.104333     30.863525      5.983460
  Si      6.294130     38.678484      7.898809
  Si      9.039286     40.071167      7.836445
  O       5.014729     39.635156      8.279036
  O       7.612075     39.533059      8.405667
  O       6.328507     37.209892      8.593428
  O       9.404520     41.611675      8.249481
  O       6.444985     38.491819      6.270480
  O       9.014789     39.896217      6.196811
  Si     11.457496     26.052835      7.785095
  Si     14.133440     24.547573      7.843612
  O      10.115340     25.326179      8.365631
  O      12.825258     25.374913      8.364498
  O      13.879656     23.008104      8.322605
  O      11.408806     25.800815      6.160049
  O      14.171550     24.653090      6.199312
  Si     11.507397     29.224196      7.742657
  Si     11.668685     35.359194      7.756608
  Si     14.269976     33.766507      7.796140
  Si     14.178327     30.709433      7.786626
  O      10.151872     29.976466      8.267628
  O      10.310903     34.657277      8.305199
  O      13.009662     34.626378      8.362416
  O      12.860859     29.916807      8.347412
  O      11.424261     27.644083      8.132314
  O      14.293923     32.229694      8.365425
  O      11.537246     29.395806      6.107475
  O      11.746007     35.140526      6.125288
  O      14.101249     33.630161      6.163720
  O      13.983279     30.807803      6.151652
  Si     11.683086     38.539233      7.804700
  Si     14.370460     40.044617      7.879673
  O      10.320331     39.210577      8.391896
  O      13.039642     39.253070      8.394678
  O      11.735543     36.945462      8.123767
  O      14.478267     41.575817      8.435410
  O      11.751202     38.824637      6.183665
  O      14.386870     39.971212      6.234803
  Si     16.861093     25.998646      7.889581
  O      15.514486     25.219374      8.403580
  O      18.131656     25.147179      8.457528
  O      16.807044     26.009950      6.243785
  Si     16.909430     29.077545      7.806218
  Si     17.031407     35.335042      7.806268
  Si     19.666376     33.749646      7.855803
  Si     19.560604     30.660086      7.838195
  O      15.515379     29.845992      8.125186
  O      15.684438     34.496307      8.148719
  O      18.339707     34.540972      8.392843
  O      18.172651     29.962680      8.336960
  O      16.861199     27.554115      8.394671
  O      19.657768     32.199986      8.392346
  O      17.102864     28.858999      6.180712
  O      17.290286     35.415155      6.182968
  O      19.588548     33.692367      6.212259
  O      19.558640     30.722162      6.195160
  Si     16.988740     38.401817      7.838365
  O      15.730473     39.278665      8.393431
  O      18.458646     38.947821      8.295425
  O      16.932313     36.859297      8.381472
  O      16.866805     38.350606      6.195578
  O      20.747904     29.687458      8.394108
  O      21.070436     34.398963      8.375507
  H       4.074657     24.986772      8.036591
  H       1.410409     29.602015      8.036749
  H       1.410409     35.007985      8.036749
  H       4.074657     39.623228      8.036591
  H       8.948181     22.173255      8.038302
  H       8.948181     42.436745      8.038302
  H      14.277762     22.173204      8.038282
  H      14.277762     42.436796      8.038282
  H      18.960557     24.876228      8.036406
  H      18.960557     39.733772      8.036406
  H      21.624717     29.491420      8.036583
  H      21.624717     35.118580      8.036583
  H      13.332223     34.138686      5.835710
  H      10.907140     34.755187      5.795964
  H       9.139094     32.999611      5.703717
  H       9.877698     30.353924      5.686341
  H      12.348144     29.841886      5.798735
  H      14.031212     31.728815      5.831709
  H      13.541135     39.651280      5.870105
  H      10.894508     39.098263      5.812887
  H       8.224644     39.414500      5.888913
  H       6.302818     37.543363      6.053269
  H       5.278471     35.218014      6.209326
  H       3.570946     33.028788      5.926603
  H       4.115426     30.326690      5.832663
  H       5.960527     28.262588      5.737423
  H       6.939376     25.688323      5.841481
  H       9.577753     24.961673      5.831903
  H      12.258012     25.528859      5.779119
  H      14.970516     25.093211      5.864817
  H      16.947192     26.900911      5.875816
  H      17.728135     29.471673      5.768286
  H      19.559371     31.628678      5.845402
  H      18.878351     34.252445      5.851158
  H      17.094941     36.286492      5.802044
  H      16.080807     38.817333      5.863534
  P       7.626044     35.297249     11.069775
  O       7.464074     35.230602     12.528708
  O       6.439594     35.105139     10.132134
  O       8.309447     36.702026     10.582019
  O       8.655830     34.111520     10.579132
  C       9.842102     33.848278     11.317959
  C      10.181096     32.380563     11.048938
  O      11.557205     32.251632     10.617677
  C      10.012930     31.420318     12.215228
  O       9.618211     30.102821     11.812586
  C      11.440718     31.322585     12.755695
  O      11.677695     30.225007     13.585993
  C      12.205637     31.295707     11.423455
  N      13.606492     31.620216     11.482729
  C      14.187998     32.868572     11.495691
  N      15.498319     32.834205     11.453144
  C      15.799079     31.488951     11.405838
  C      17.010251     30.779474     11.325636
  N      18.214795     31.396660     11.331562
  N      16.963218     29.441077     11.272209
  C      15.770482     28.833503     11.298970
  N      14.562118     29.383693     11.368739
  C      14.636678     30.715339     11.416057
  H       7.660057     36.862484      9.872243
  H      10.665575     34.469058     10.942731
  H       9.679413     34.060842     12.380351
  H       9.524574     32.117604     10.217566
  H       9.283695     31.768401     12.949102
  H       9.631573     30.042774     10.849214
  H      11.706804     32.233319     13.305025
  H      11.200778     29.485043     13.178619
  H      12.157250     30.281586     11.000624
  H      13.579199     33.760286     11.501901
  H      18.231476     32.378332     11.102084
  H      19.009786     30.838263     11.062008
  H      15.800489     27.748702     11.253910
162
Coordinates from ORCA-job amp_frame12_dry_r2scan E -13470.322669807310
  Si      3.513951     33.947289      7.945721
  Si      3.445681     30.837119      7.881636
  O       2.257711     34.857111      8.469605
  O       2.147617     30.041925      8.480512
  O       3.402253     32.367694      8.416343
  O       3.560705     33.928823      6.292686
  O       3.433186     30.887927      6.232121
  Si      6.122543     26.185821      7.840912
  Si      8.757324     24.554700      7.853719
  O       4.704637     25.617559      8.412659
  O       7.420923     25.337409      8.372234
  O       8.644376     23.020194      8.399529
  O       6.163281     26.154815      6.192349
  O       8.745483     24.624435      6.206655
  Si      6.095195     29.262079      7.723788
  Si      6.202271     35.543540      8.294412
  Si      8.957903     33.931276      7.689921
  Si      8.884810     30.806430      7.608769
  O       4.836229     30.085934      8.341015
  O       4.833197     34.625134      8.551724
  O       7.639339     34.722837      8.074692
  O       7.494962     30.050844      7.987171
  O       6.215004     27.741948      8.321919
  O       8.862172     32.338635      8.121093
  O       5.786168     29.141577      6.109249
  O       5.897558     35.858604      6.640420
  O       9.241197     33.881542      6.046967
  O       9.106920     30.849621      5.983068
  Si      6.293619     38.678624      7.913935
  Si      9.035470     40.073519      7.833263
  O       5.010666     39.632147      8.290166
  O       7.610205     39.542118      8.408754
  O       6.343313     37.215349      8.616813
  O       9.406060     41.611973      8.246990
  O       6.444482     38.478273      6.285804
  O       9.004444     39.892394      6.192092
  Si     11.453849     26.051227      7.793253
  Si     14.131102     24.545876      7.844176
  O      10.110701     25.323094      8.371179
  O      12.823078     25.372302      8.367959
  O      13.880459     23.006391      8.326207
  O      11.404897     25.802111      6.165886
  O      14.165634     24.654579      6.198435
  Si     11.505237     29.222474      7.754884
  Si     11.674434     35.365787      7.736257
  Si     14.275674     33.765562      7.789467
  Si     14.178315     30.706583      7.792557
  O      10.147929     29.974638      8.277186
  O      10.313807     34.665813      8.276427
  O      13.016868     34.635446      8.347043
  O      12.861360     29.913103      8.356007
  O      11.422069     27.641252      8.143426
  O      14.298910     32.229692      8.364445
  O      11.539597     29.391279      6.118547
  O      11.750193     35.146145      6.103192
  O      14.107903     33.625556      6.155847
  O      13.983713     30.802427      6.157236
  Si     11.682072     38.546319      7.793825
  Si     14.372966     40.047880      7.871536
  O      10.319034     39.211700      8.382509
  O      13.040138     39.257867      8.385185
  O      11.737274     36.951307      8.105358
  O      14.484042     41.576435      8.432618
  O      11.745493     38.838447      6.171610
  O      14.391654     39.975995      6.224524
  Si     16.860193     25.995207      7.889211
  O      15.514338     25.215159      8.402651
  O      18.130642     25.143635      8.456793
  O      16.801763     26.007424      6.241538
  Si     16.909484     29.075018      7.811118
  Si     17.037233     35.334545      7.801840
  Si     19.672451     33.748104      7.847509
  Si     19.561156     30.658097      7.827629
  O      15.516370     29.844106      8.131548
  O      15.690313     34.496113      8.140219
  O      18.346589     34.539436      8.386920
  O      18.175016     29.962412      8.332240
  O      16.862758     27.549927      8.397073
  O      19.663982     32.197811      8.380817
  O      17.100473     28.858316      6.183533
  O      17.298303     35.416148      6.176499
  O      19.594178     33.689225      6.202761
  O      19.554745     30.717940      6.182959
  Si     16.990598     38.402147      7.832279
  O      15.732243     39.281076      8.384694
  O      18.458642     38.948362      8.296519
  O      16.934455     36.859096      8.374822
  O      16.870100     38.349305      6.187467
  O      20.747261     29.688957      8.391976
  O      21.076387     34.393585      8.372418
  H       4.074657     24.986772      8.036591
  H       1.410409     29.602015      8.036749
  H       1.410409     35.007985      8.036749
  H       4.074657     39.623228      8.036591
  H       8.948181     22.173255      8.038302
  H       8.948181     42.436745      8.038302
  H      14.277762     22.173204      8.038282
  H      14.277762     42.436796      8.038282
  H      18.960557     24.876228      8.036406
  H      18.960557     39.733772      8.036406
  H      21.624717     29.491420      8.036583
  H      21.624717     35.118580      8.036583
  H      13.342696     34.143286      5.829926
  H      10.909550     34.758931      5.777105
  H       9.126339     32.990191      5.680634
  H       9.880100     30.335935      5.691622
  H      12.353296     29.835285      5.812545
  H      14.038818     31.724826      5.839446
  H      13.542001     39.660323      5.864069
  H      10.886638     39.110748      5.804885
  H       8.208484     39.413732      5.894645
  H       6.292819     37.527248      6.082637
  H       5.283600     35.239835      6.224662
  H       3.563207     33.032052      5.926513
  H       4.110685     30.318534      5.833925
  H       5.966970     28.265425      5.738482
  H       6.938691     25.688539      5.841149
  H       9.578679     24.961825      5.837058
  H      12.255142     25.533774      5.784598
  H      14.967221     25.091924      5.866178
  H      16.942538     26.899734      5.876360
  H      17.723535     29.473193      5.770631
  H      19.559726     31.625737      5.836192
  H      18.886348     34.254341      5.843943
  H      17.098969     36.286249      5.795018
  H      16.086915     38.821866      5.856932
  P       7.673215     35.394901     11.070736
  O       7.510500     35.332259     12.530268
  O       6.482192     35.267760     10.120647
  O       8.370694     36.775153     10.557535
  O       8.668586     34.188235     10.574692
  C       9.852904     33.905324     11.300110
  C      10.170519     32.426246     11.041485
  O      11.548381     32.265416     10.603640
  C       9.994686     31.488200     12.225073
  O       9.577649     30.167495     11.850101
  C      11.425394     31.374469     12.763230
  O      11.648286     30.285660     13.611749
  C      12.188669     31.316648     11.428657
  N      13.590469     31.639303     11.480272
  C      14.180065     32.887163     11.487405
  N      15.491524     32.848049     11.444525
  C      15.784284     31.501499     11.396686
  C      16.990225     30.790718     11.315229
  N      18.200204     31.412751     11.321417
  N      16.950156     29.452061     11.259513
  C      15.753481     28.847466     11.287255
  N      14.540512     29.397668     11.362432
  C      14.619546     30.728626     11.411625
  H       7.709780     36.908490      9.848595
  H      10.682855     34.505273     10.914358
  H       9.697429     34.134332     12.361008
  H       9.514026     32.146401     10.219507
  H       9.277948     31.865836     12.956399
  H       9.587799     30.095918     10.887473
  H      11.707367     32.287772     13.300364
  H      11.159226     29.547233     13.215822
  H      12.137352     30.294535     11.025511
  H      13.576390     33.782225     11.494674
  H      18.217823     32.395834     11.097866
  H      18.995283     30.855357     11.049387
  H      15.784033     27.763084     11.239927
162
Coordinates from ORCA-job amp_frame12_dry_r2scan E -13470.325574703123
  Si      3.508603     33.946626      7.933817
  Si      3.443800     30.833922      7.868040
  O       2.253529     34.847969      8.475649
  O       2.154265     30.034969      8.478348
  O       3.399204     32.364455      8.399344
  O       3.545633     33.935181      6.281660
  O       3.425284     30.884378      6.218919
  Si      6.120096     26.186820      7.827582
  Si      8.754280     24.551457      7.842939
  O       4.704418     25.620759      8.407944
  O       7.417925     25.336419      8.357237
  O       8.640951     23.020351      8.397378
  O       6.160505     26.153670      6.178972
  O       8.742161     24.616443      6.195726
  Si      6.098110     29.264669      7.702948
  Si      6.218975     35.540411      8.321673
  Si      8.972260     33.934119      7.638795
  Si      8.887982     30.806189      7.579461
  O       4.839123     30.086487      8.321596
  O       4.832623     34.615967      8.535097
  O       7.650668     34.716540      8.019182
  O       7.497899     30.054249      7.966081
  O       6.218636     27.744587      8.301729
  O       8.871999     32.343094      8.078579
  O       5.784899     29.142404      6.090461
  O       5.888030     35.881235      6.665707
  O       9.278052     33.879608      6.001998
  O       9.106049     30.841092      5.954470
  Si      6.299663     38.684583      7.913245
  Si      9.042313     40.077078      7.821842
  O       5.012711     39.633551      8.294022
  O       7.617140     39.553297      8.403523
  O       6.363948     37.226667      8.632219
  O       9.413255     41.614132      8.240003
  O       6.451386     38.479317      6.287896
  O       9.010394     39.885754      6.181702
  Si     11.450399     26.050917      7.778895
  Si     14.128097     24.543317      7.833987
  O      10.107502     25.323360      8.357999
  O      12.820197     25.372559      8.353160
  O      13.879685     23.006963      8.326642
  O      11.399772     25.796566      6.152958
  O      14.161760     24.651126      6.188000
  Si     11.503700     29.219847      7.731461
  Si     11.691060     35.369175      7.703156
  Si     14.285796     33.758485      7.766013
  Si     14.179687     30.699907      7.767214
  O      10.147754     29.973551      8.251813
  O      10.325358     34.671609      8.230485
  O      13.029445     34.635648      8.317310
  O      12.861381     29.908834      8.329601
  O      11.419554     27.640645      8.129530
  O      14.304358     32.222566      8.338447
  O      11.539028     29.383711      6.095575
  O      11.781813     35.149630      6.072010
  O      14.124014     33.613405      6.133081
  O      13.985043     30.792980      6.133096
  Si     11.689573     38.548957      7.775820
  Si     14.381743     40.051280      7.860490
  O      10.326220     39.210788      8.367670
  O      13.046706     39.260638      8.368985
  O      11.749354     36.952620      8.085933
  O      14.494673     41.576784      8.429785
  O      11.753324     38.847868      6.156216
  O      14.402005     39.983254      6.212446
  Si     16.859346     25.989216      7.878616
  O      15.511742     25.212896      8.390262
  O      18.126659     25.139356      8.452548
  O      16.801698     25.997790      6.230277
  Si     16.908291     29.069872      7.794839
  Si     17.044704     35.329705      7.788514
  Si     19.680448     33.743266      7.837994
  Si     19.561422     30.652112      7.817476
  O      15.514990     29.837581      8.118549
  O      15.698607     34.488656      8.125262
  O      18.353320     34.535361      8.373682
  O      18.172874     29.958357      8.318256
  O      16.862701     27.545452      8.382436
  O      19.669553     32.192311      8.367257
  O      17.101565     28.850977      6.169315
  O      17.312527     35.413513      6.164966
  O      19.604623     33.683000      6.192783
  O      19.553345     30.711245      6.172282
  Si     16.996760     38.399623      7.821104
  O      15.738034     39.279621      8.370877
  O      18.460072     38.947349      8.296544
  O      16.938889     36.854842      8.358979
  O      16.876776     38.346153      6.175938
  O      20.745411     29.683914      8.388841
  O      21.081874     34.387602      8.370841
  H       4.074657     24.986772      8.036591
  H       1.410409     29.602015      8.036749
  H       1.410409     35.007985      8.036749
  H       4.074657     39.623228      8.036591
  H       8.948181     22.173255      8.038302
  H       8.948181     42.436745      8.038302
  H      14.277762     22.173204      8.038282
  H      14.277762     42.436796      8.038282
  H      18.960557     24.876228      8.036406
  H      18.960557     39.733772      8.036406
  H      21.624717     29.491420      8.036583
  H      21.624717     35.118580      8.036583
  H      13.361691     34.132418      5.804066
  H      10.947710     34.756089      5.739422
  H       9.160731     32.989258      5.636150
  H       9.878725     30.325158      5.664164
  H      12.353175     29.827350      5.789054
  H      14.041822     31.715354      5.815173
  H      13.548896     39.671525      5.856787
  H      10.891793     39.118499      5.793191
  H       8.212052     39.400995      5.896552
  H       6.289009     37.520687      6.106029
  H       5.285856     35.253981      6.246639
  H       3.546884     33.038039      5.915993
  H       4.103174     30.313354      5.822209
  H       5.966305     28.264311      5.723382
  H       6.936025     25.682679      5.833064
  H       9.578139     24.953311      5.830063
  H      12.251634     25.527460      5.775019
  H      14.967843     25.084177      5.859531
  H      16.943356     26.890876      5.867202
  H      17.727111     29.466492      5.760574
  H      19.564120     31.620928      5.830023
  H      18.897700     34.251505      5.837054
  H      17.111553     36.284909      5.786466
  H      16.095223     38.825659      5.849982
  P       7.674498     35.417379     11.036210
  O       7.468933     35.337441     12.487354
  O       6.478574     35.288022     10.077970
  O       8.351381     36.802996     10.544853
  O       8.670421     34.223557     10.538959
  C       9.854629     33.928505     11.270451
  C      10.163271     32.445735     11.026344
  O      11.541910     32.275936     10.594676
  C       9.984393     31.525188     12.224137
  O       9.561304     30.202751     11.869620
  C      11.415730     31.416398     12.765005
  O      11.633486     30.338877     13.627218
  C      12.181724     31.339764     11.433146
  N      13.582424     31.662505     11.482041
  C      14.173856     32.908880     11.487835
  N      15.484365     32.866214     11.441845
  C      15.774272     31.518491     11.395350
  C      16.978261     30.803434     11.310475
  N      18.186198     31.417020     11.311318
  N      16.930676     29.464334     11.254191
  C      15.733078     28.863795     11.286807
  N      14.524303     29.418975     11.365918
  C      14.608598     30.749840     11.414906
  H       7.702516     36.930783      9.821365
  H      10.687382     34.521595     10.880675
  H       9.697308     34.161820     12.329343
  H       9.510735     32.147693     10.203854
  H       9.270356     31.915289     12.952029
  H       9.567950     30.110437     10.908631
  H      11.697825     32.336316     13.290152
  H      11.143048     29.596581     13.240277
  H      12.128686     30.312851     11.043142
  H      13.572517     33.805671     11.494607
  H      18.211114     32.399881     11.095500
  H      18.977245     30.857390     11.038430
  H      15.757835     27.779000     11.230650
162
Coordinates from ORCA-job amp_frame12_dry_r2scan E -13470.319031597137
  Si      3.484156     33.936267      7.909713
  Si      3.437258     30.817561      7.861778
  O       2.227206     34.802873      8.500506
  O       2.170532     29.999184      8.487864
  O       3.372225     32.353303      8.374276
  O       3.497305     33.945110      6.260585
  O       3.427772     30.857144      6.213900
  Si      6.112691     26.194427      7.826656
  Si      8.738282     24.542569      7.850655
  O       4.696540     25.629992      8.405571
  O       7.394514     25.320486      8.359009
  O       8.622431     23.011842      8.404656
  O       6.166051     26.184659      6.177491
  O       8.733663     24.623718      6.204086
  Si      6.111540     29.276201      7.729380
  Si      6.232334     35.544208      8.429209
  Si      8.988442     33.945353      7.630286
  Si      8.894159     30.819643      7.636004
  O       4.839600     30.088837      8.335177
  O       4.810870     34.602753      8.497789
  O       7.646950     34.705869      7.956662
  O       7.503782     30.069786      8.031315
  O       6.226650     27.750735      8.314570
  O       8.878452     32.369263      8.121283
  O       5.831348     29.174100      6.110129
  O       5.881748     35.974872      6.758869
  O       9.347697     33.861707      6.012334
  O       9.098003     30.839329      6.011016
  Si      6.315511     38.705282      7.956889
  Si      9.055389     40.085273      7.821560
  O       5.011079     39.643021      8.321016
  O       7.621899     39.614271      8.423484
  O       6.403780     37.266719      8.731923
  O       9.443279     41.624302      8.214278
  O       6.491928     38.449236      6.346714
  O       9.024975     39.826661      6.190574
  Si     11.431762     26.053214      7.810232
  Si     14.110316     24.538373      7.833997
  O      10.088632     25.316641      8.383580
  O      12.804135     25.367390      8.369416
  O      13.878357     23.004254      8.341555
  O      11.373055     25.822734      6.180278
  O      14.123489     24.664329      6.189296
  Si     11.490423     29.217421      7.780403
  Si     11.714478     35.384438      7.725856
  Si     14.301161     33.747605      7.787445
  Si     14.176789     30.685257      7.789284
  O      10.140087     29.973506      8.316720
  O      10.334534     34.697885      8.234614
  O      13.057246     34.651824      8.341676
  O      12.861012     29.895235      8.363896
  O      11.408576     27.638102      8.186873
  O      14.319022     32.210575      8.360562
  O      11.520765     29.372955      6.144779
  O      11.809696     35.165362      6.095764
  O      14.127677     33.595247      6.156526
  O      13.972180     30.777904      6.160032
  Si     11.706490     38.562012      7.798214
  Si     14.407300     40.059350      7.851329
  O      10.337957     39.212868      8.383732
  O      13.061980     39.287502      8.382291
  O      11.774187     36.964117      8.124586
  O      14.549763     41.583396      8.417453
  O      11.762922     38.836919      6.175128
  O      14.419365     39.969626      6.202275
  Si     16.852064     25.968545      7.871298
  O      15.502190     25.198490      8.385608
  O      18.113289     25.111484      8.445112
  O      16.775017     25.985366      6.222408
  Si     16.899700     29.054081      7.802752
  Si     17.064333     35.311641      7.797135
  Si     19.704114     33.725249      7.824426
  Si     19.558214     30.632156      7.793471
  O      15.508929     29.820536      8.152119
  O      15.719128     34.469886      8.145892
  O      18.379652     34.520990      8.375650
  O      18.166958     29.948368      8.308708
  O      16.870171     27.525427      8.386921
  O      19.699729     32.170490      8.342591
  O      17.069818     28.846372      6.174025
  O      17.320999     35.385002      6.169475
  O      19.607943     33.657267      6.180660
  O      19.516332     30.691404      6.149181
  Si     17.013215     38.386751      7.810269
  O      15.758712     39.278280      8.358131
  O      18.468168     38.942154      8.302209
  O      16.955899     36.840233      8.356539
  O      16.882512     38.311837      6.166130
  O      20.736265     29.664086      8.376463
  O      21.108303     34.361252      8.363734
  H       4.074657     24.986772      8.036591
  H       1.410409     29.602015      8.036749
  H       1.410409     35.007985      8.036749
  H       4.074657     39.623228      8.036591
  H       8.948181     22.173255      8.038302
  H       8.948181     42.436745      8.038302
  H      14.277762     22.173204      8.038282
  H      14.277762     42.436796      8.038282
  H      18.960557     24.876228      8.036406
  H      18.960557     39.733772      8.036406
  H      21.624717     29.491420      8.036583
  H      21.624717     35.118580      8.036583
  H      13.380323     34.134257      5.827804
  H      10.992319     34.749231      5.755847
  H       9.192618     32.984809      5.636321
  H       9.866728     30.321373      5.714382
  H      12.326955     29.825291      5.830502
  H      14.030476     31.700252      5.842375
  H      13.557990     39.664530      5.861696
  H      10.898123     39.090227      5.807012
  H       8.225446     39.317837      5.942265
  H       6.275184     37.474616      6.229446
  H       5.359939     35.313296      6.287019
  H       3.505275     33.053312      5.884133
  H       4.111655     30.287732      5.824819
  H       6.017772     28.300601      5.734939
  H       6.937562     25.701531      5.838501
  H       9.572649     24.967932      5.850044
  H      12.222077     25.557234      5.793823
  H      14.939520     25.079878      5.860937
  H      16.913306     26.880777      5.864783
  H      17.697875     29.456131      5.760710
  H      19.550378     31.605065      5.817532
  H      18.901940     34.232416      5.833258
  H      17.114371     36.250536      5.781542
  H      16.113762     38.812840      5.840914
  P       7.788645     35.496599     11.159349
  O       7.586908     35.448106     12.609920
  O       6.533557     35.212264     10.268246
  O       8.340762     36.868273     10.586567
  O       8.763078     34.339078     10.663047
  C       9.970276     34.013625     11.343908
  C      10.219562     32.522708     11.114270
  O      11.579747     32.316829     10.645477
  C      10.061645     31.645748     12.349044
  O       9.597098     30.325602     12.059162
  C      11.508031     31.531760     12.846671
  O      11.732109     30.479149     13.735871
  C      12.236085     31.402869     11.499938
  N      13.638539     31.716269     11.519422
  C      14.244367     32.952579     11.542750
  N      15.551874     32.893104     11.484172
  C      15.824912     31.543000     11.415445
  C      17.014792     30.811723     11.316273
  N      18.225886     31.401986     11.329099
  N      16.950784     29.470549     11.238717
  C      15.744748     28.890570     11.268331
  N      14.547051     29.462882     11.364902
  C      14.651738     30.790621     11.431984
  H       7.708483     36.990591      9.830351
  H      10.798473     34.577171     10.902110
  H       9.859886     34.254939     12.405120
  H       9.551449     32.177642     10.312958
  H       9.389018     32.087224     13.088811
  H       9.558146     30.201154     11.101793
  H      11.822576     32.459537     13.336947
  H      11.226625     29.729320     13.384640
  H      12.167368     30.367786     11.138674
  H      13.658703     33.859614     11.574441
  H      18.271193     32.385107     11.127296
  H      18.999772     30.835851     11.029001
  H      15.747991     27.806208     11.182470
162
Coordinates from ORCA-job amp_frame12_dry_r2scan E -13470.327295230876
  Si      3.485365     33.931303      7.925182
  Si      3.440649     30.814595      7.869122
  O       2.224773     34.800736      8.505762
  O       2.172045     29.991443      8.488917
  O       3.375895     32.347931      8.386031
  O       3.484493     33.936758      6.273394
  O       3.425860     30.851496      6.219619
  Si      6.117225     26.190017      7.831637
  Si      8.744812     24.545077      7.857545
  O       4.699113     25.626940      8.407170
  O       7.400595     25.320923      8.365909
  O       8.629655     23.012194      8.407890
  O       6.165911     26.170015      6.181206
  O       8.742461     24.622724      6.209658
  Si      6.110332     29.270117      7.725496
  Si      6.222238     35.539911      8.412864
  Si      8.980779     33.939214      7.627023
  Si      8.894778     30.813483      7.617616
  O       4.842588     30.084463      8.336362
  O       4.811316     34.600929      8.506646
  O       7.637476     34.701085      7.953616
  O       7.503704     30.065478      8.015809
  O       6.228997     27.746557      8.315169
  O       8.878431     32.359922      8.106794
  O       5.823295     29.159891      6.105394
  O       5.867812     35.971551      6.745755
  O       9.330049     33.860437      6.003140
  O       9.104116     30.826742      5.990201
  Si      6.308017     38.699998      7.961711
  Si      9.044120     40.083412      7.839030
  O       5.001872     39.630791      8.331740
  O       7.611049     39.606800      8.435064
  O       6.398056     37.257151      8.717760
  O       9.434859     41.623205      8.226970
  O       6.479346     38.456182      6.346198
  O       9.011204     39.840831      6.204224
  Si     11.438477     26.051357      7.814049
  Si     14.116856     24.540128      7.845964
  O      10.094382     25.317855      8.388219
  O      12.809077     25.366581      8.377749
  O      13.884870     23.003348      8.346938
  O      11.384105     25.816182      6.182641
  O      14.136189     24.659017      6.199848
  Si     11.498339     29.217090      7.777845
  Si     11.702872     35.384829      7.733758
  Si     14.293979     33.757269      7.803294
  Si     14.179639     30.694376      7.805564
  O      10.142127     29.971559      8.303524
  O      10.322978     34.693692      8.235593
  O      13.045190     34.654253      8.353806
  O      12.862063     29.900815      8.370915
  O      11.415250     27.637568      8.183344
  O      14.313476     32.220136      8.377343
  O      11.538634     29.370189      6.139947
  O      11.801630     35.174616      6.100043
  O      14.124491     33.609561      6.169194
  O      13.985414     30.790232      6.172430
  Si     11.694478     38.561994      7.812572
  Si     14.394193     40.055485      7.867289
  O      10.327061     39.213131      8.398096
  O      13.050233     39.286579      8.397495
  O      11.760669     36.963742      8.131191
  O      14.537537     41.583952      8.423482
  O      11.749852     38.840429      6.187377
  O      14.408334     39.964474      6.217961
  Si     16.853910     25.978395      7.884177
  O      15.505671     25.204728      8.398774
  O      18.117818     25.116796      8.449564
  O      16.777606     25.997800      6.234799
  Si     16.903045     29.062247      7.820458
  Si     17.057396     35.319263      7.814688
  Si     19.695288     33.732698      7.841232
  Si     19.559037     30.640450      7.810752
  O      15.512408     29.829304      8.164897
  O      15.712178     34.479362      8.160977
  O      18.373354     34.528132      8.393664
  O      18.170744     29.954666      8.326218
  O      16.872411     27.532837      8.401620
  O      19.695687     32.178337      8.361635
  O      17.076101     28.857928      6.188682
  O      17.311719     35.394200      6.184773
  O      19.598120     33.667720      6.196785
  O      19.521480     30.700903      6.165776
  Si     17.004969     38.392037      7.829967
  O      15.747809     39.278391      8.376891
  O      18.463186     38.949368      8.312953
  O      16.950483     36.846806      8.376388
  O      16.878760     38.321575      6.184535
  O      20.739441     29.669313      8.383526
  O      21.102850     34.370446      8.370854
  H       4.074658     24.986772      8.036591
  H       1.410409     29.602015      8.036749
  H       1.410409     35.007985      8.036749
  H       4.074657     39.623228      8.036591
  H       8.948181     22.173255      8.038302
  H       8.948181     42.436745      8.038302
  H      14.277762     22.173204      8.038282
  H      14.277762     42.436796      8.038282
  H      18.960557     24.876228      8.036406
  H      18.960556     39.733772      8.036406
  H      21.624717     29.491420      8.036583
  H      21.624717     35.118580      8.036583
  H      13.378040     34.150614      5.839473
  H      10.981423     34.763024      5.757438
  H       9.168796     32.983181      5.625287
  H       9.874459     30.308190      5.699247
  H      12.347009     29.821893      5.831125
  H      14.044877     31.712944      5.856077
  H      13.550223     39.657275      5.870309
  H      10.884879     39.094241      5.819617
  H       8.212538     39.337117      5.945858
  H       6.272937     37.483182      6.211327
  H       5.349952     35.308835      6.273088
  H       3.491180     33.046158      5.894637
  H       4.108917     30.284987      5.826215
  H       6.005737     28.285209      5.731712
  H       6.935296     25.686448      5.839010
  H       9.579258     24.967149      5.852040
  H      12.233140     25.550174      5.796788
  H      14.950454     25.075213      5.869207
  H      16.916508     26.892556      5.875289
  H      17.704775     29.466793      5.775011
  H      19.555197     31.613203      5.830758
  H      18.892698     34.242112      5.846802
  H      17.104030     36.258899      5.795873
  H      16.109446     38.817530      5.854336
  P       7.703530     35.442214     11.107320
  O       7.469744     35.353040     12.552226
  O       6.499647     35.198005     10.142779
  O       8.291707     36.834945     10.590173
  O       8.722095     34.307731     10.612369
  C       9.916192     34.001592     11.318132
  C      10.194284     32.514284     11.093711
  O      11.563811     32.323335     10.638554
  C      10.032254     31.632924     12.324061
  O       9.584986     30.305417     12.025051
  C      11.473343     31.527138     12.836392
  O      11.698080     30.472006     13.725313
  C      12.213103     31.405611     11.494595
  N      13.617042     31.719069     11.518523
  C      14.221001     32.957172     11.546213
  N      15.530106     32.902177     11.489956
  C      15.806440     31.553602     11.416942
  C      16.998749     30.827373     11.315719
  N      18.213266     31.429278     11.329541
  N      16.944191     29.486776     11.234027
  C      15.738537     28.902124     11.259960
  N      14.535707     29.468205     11.357851
  C      14.634033     30.795807     11.429173
  H       7.672461     36.969579      9.829738
  H      10.747346     34.579431     10.897921
  H       9.785840     34.243103     12.378208
  H       9.537001     32.168121     10.291879
  H       9.344050     32.065357     13.053784
  H       9.569970     30.190523     11.066155
  H      11.779849     32.455262     13.331961
  H      11.194913     29.722606     13.369811
  H      12.150857     30.370946     11.129747
  H      13.632141     33.861902     11.577614
  H      18.247545     32.416251     11.131286
  H      18.995090     30.866615     11.034670
  H      15.748116     27.818393     11.178334
162
Coordinates from ORCA-job amp_frame12_dry_r2scan E -13470.329223555833
  Si      3.486980     33.925863      7.913748
  Si      3.445830     30.810839      7.864008
  O       2.231334     34.800360      8.497945
  O       2.176930     29.986577      8.485335
  O       3.385599     32.344784      8.379217
  O       3.459563     33.920271      6.261318
  O       3.422340     30.842802      6.214389
  Si      6.122202     26.184862      7.830093
  Si      8.752774     24.547220      7.855402
  O       4.704543     25.621704      8.407453
  O       7.408765     25.322152      8.365160
  O       8.639571     23.014807      8.409062
  O       6.167055     26.155752      6.180002
  O       8.748679     24.616230      6.207413
  Si      6.110599     29.262902      7.708433
  Si      6.215104     35.537141      8.322618
  Si      8.978355     33.929814      7.595695
  Si      8.896154     30.806602      7.582900
  O       4.848018     30.080084      8.324829
  O       4.822318     34.601929      8.469179
  O       7.630084     34.699967      7.906595
  O       7.505186     30.060238      7.986326
  O       6.232562     27.742690      8.305776
  O       8.878898     32.350537      8.074067
  O       5.811323     29.143656      6.090674
  O       5.850040     35.963753      6.664834
  O       9.328159     33.853237      5.970963
  O       9.106325     30.818115      5.954917
  Si      6.301102     38.698386      7.931174
  Si      9.039476     40.082389      7.832718
  O       4.998270     39.613035      8.338637
  O       7.607314     39.588710      8.418008
  O       6.393508     37.238271      8.647741
  O       9.424014     41.619420      8.237957
  O       6.455406     38.499578      6.306774
  O       9.006686     39.869953      6.193860
  Si     11.446153     26.050130      7.799965
  Si     14.123591     24.541398      7.847943
  O      10.102396     25.321602      8.379241
  O      12.814910     25.368804      8.371675
  O      13.890777     23.004577      8.348641
  O      11.393216     25.801540      6.170490
  O      14.150121     24.652241      6.201710
  Si     11.505793     29.217104      7.747965
  Si     11.696265     35.379479      7.706838
  Si     14.289037     33.761183      7.784645
  Si     14.183011     30.699663      7.785918
  O      10.147771     29.971061      8.268271
  O      10.315804     34.685143      8.203538
  O      13.034645     34.649198      8.331319
  O      12.864603     29.905566      8.345719
  O      11.422674     27.638936      8.156225
  O      14.310055     32.224947      8.358573
  O      11.548231     29.368739      6.109348
  O      11.805389     35.173120      6.072486
  O      14.127118     33.612566      6.149454
  O      13.992560     30.795341      6.150900
  Si     11.689507     38.558570      7.795423
  Si     14.385342     40.051745      7.868276
  O      10.322152     39.209502      8.382093
  O      13.042410     39.279445      8.389499
  O      11.753027     36.958502      8.102396
  O      14.522142     41.581344      8.425642
  O      11.750416     38.850542      6.172295
  O      14.405245     39.967516      6.219661
  Si     16.856452     25.985708      7.887164
  O      15.509055     25.210487      8.402144
  O      18.121804     25.124777      8.452482
  O      16.785060     26.000667      6.238372
  Si     16.907233     29.067178      7.813472
  Si     17.051544     35.325249      7.809366
  Si     19.687218     33.739475      7.847199
  Si     19.561071     30.647540      7.819109
  O      15.515681     29.835880      8.145515
  O      15.704565     34.485693      8.146435
  O      18.363931     34.533437      8.394735
  O      18.172578     29.958468      8.325590
  O      16.872597     27.540578      8.399220
  O      19.689394     32.185781      8.370280
  O      17.090303     28.856349      6.182770
  O      17.315352     35.404887      6.181554
  O      19.596903     33.677567      6.202782
  O      19.532115     30.708042      6.174280
  Si     17.000132     38.396576      7.834736
  O      15.739713     39.276960      8.380786
  O      18.458455     38.954682      8.317543
  O      16.944860     36.850875      8.376160
  O      16.880397     38.334414      6.189195
  O      20.743987     29.677935      8.388829
  O      21.094430     34.379857      8.375399
  H       4.074658     24.986772      8.036591
  H       1.410409     29.602015      8.036749
  H       1.410409     35.007985      8.036749
  H       4.074657     39.623228      8.036591
  H       8.948181     22.173255      8.038302
  H       8.948181     42.436745      8.038302
  H      14.277762     22.173204      8.038282
  H      14.277762     42.436796      8.038282
  H      18.960557     24.876228      8.036406
  H      18.960557     39.733772      8.036406
  H      21.624717     29.491420      8.036583
  H      21.624717     35.118580      8.036583
  H      13.377630     34.146380      5.814998
  H      10.987577     34.762822      5.723628
  H       9.170148     32.975729      5.591966
  H       9.878927     30.301876      5.666534
  H      12.357785     29.819488      5.802560
  H      14.047583     31.717773      5.833177
  H      13.551145     39.659483      5.862844
  H      10.886522     39.111559      5.806389
  H       8.205471     39.378955      5.920762
  H       6.260785     37.533255      6.136239
  H       5.326693     35.300959      6.200933
  H       3.458165     33.027699      5.886954
  H       4.105689     30.278307      5.818001
  H       5.990117     28.266594      5.720606
  H       6.936360     25.673392      5.836027
  H       9.583837     24.959309      5.844879
  H      12.243101     25.535195      5.786836
  H      14.961788     25.072809      5.870520
  H      16.924646     26.893843      5.874831
  H      17.719586     29.465535      5.770520
  H      19.561491     31.619058      5.835817
  H      18.890904     34.248616      5.848457
  H      17.110156     36.271488      5.795200
  H      16.108068     38.824108      5.856742
  P       7.644665     35.434822     11.032226
  O       7.420779     35.359601     12.480090
  O       6.451961     35.220235     10.058588
  O       8.275162     36.822692     10.522006
  O       8.670876     34.287273     10.544176
  C       9.866569     34.000286     11.257623
  C      10.163193     32.514878     11.047854
  O      11.538009     32.330793     10.609575
  C       9.994876     31.637240     12.280490
  O       9.559517     30.304941     11.981263
  C      11.430868     31.542684     12.806862
  O      11.654935     30.492402     13.701726
  C      12.180859     31.417031     11.471785
  N      13.585845     31.725775     11.497625
  C      14.190013     32.963358     11.513421
  N      15.499448     32.907205     11.460530
  C      15.775557     31.557539     11.403339
  C      16.969400     30.828025     11.311236
  N      18.185571     31.427565     11.316695
  N      16.908749     29.488011     11.246731
  C      15.703390     28.903590     11.279429
  N      14.502641     29.473015     11.366356
  C      14.601300     30.801619     11.421760
  H       7.666470     36.952444      9.758787
  H      10.690530     34.589369     10.841080
  H       9.739653     34.248157     12.317365
  H       9.508977     32.171793     10.245037
  H       9.291652     32.062949     12.999049
  H       9.563025     30.183184     11.023410
  H      11.728518     32.475593     13.299044
  H      11.151530     29.741935     13.348742
  H      12.118653     30.380089     11.111422
  H      13.600501     33.868068     11.530238
  H      18.217497     32.411438     11.102641
  H      18.966737     30.859610     11.030416
  H      15.711826     27.818956     11.213577
162
Coordinates from ORCA-job amp_frame12_dry_r2scan E -13470.329564597349
  Si      3.485771     33.921052      7.918068
  Si      3.450443     30.805873      7.871467
  O       2.227602     34.794207      8.501270
  O       2.180606     29.977032      8.487085
  O       3.387426     32.340155      8.386078
  O       3.455494     33.911820      6.265930
  O       3.429458     30.835743      6.222391
  Si      6.124845     26.183180      7.839364
  Si      8.756353     24.548946      7.861523
  O       4.704117     25.620739      8.409839
  O       7.411677     25.320794      8.374449
  O       8.643587     23.015033      8.411264
  O       6.172143     26.156776      6.190199
  O       8.752473     24.618713      6.214338
  Si      6.114206     29.259724      7.723772
  Si      6.207803     35.536101      8.329693
  Si      8.975015     33.925996      7.628454
  Si      8.896972     30.805667      7.605931
  O       4.851140     30.076850      8.337526
  O       4.819567     34.601526      8.473843
  O       7.625062     34.700328      7.929246
  O       7.506803     30.057739      8.006543
  O       6.234806     27.738921      8.319932
  O       8.880591     32.345885      8.104529
  O       5.819999     29.142582      6.105502
  O       5.853583     35.964148      6.672820
  O       9.322992     33.850315      6.002702
  O       9.105929     30.823742      5.978326
  Si      6.299550     38.699091      7.931083
  Si      9.038390     40.081081      7.833268
  O       4.998501     39.614792      8.337386
  O       7.605200     39.589001      8.419990
  O       6.388064     37.240620      8.650520
  O       9.427296     41.619350      8.232339
  O       6.452814     38.500453      6.307053
  O       9.003457     39.870391      6.195421
  Si     11.449286     26.050783      7.806748
  Si     14.125676     24.542827      7.853814
  O      10.105845     25.322394      8.385735
  O      12.817193     25.368323      8.379203
  O      13.892417     23.004782      8.349974
  O      11.395994     25.804261      6.177825
  O      14.152653     24.653863      6.208342
  Si     11.508525     29.217797      7.759373
  Si     11.691811     35.375818      7.718873
  Si     14.285417     33.762034      7.790157
  Si     14.183350     30.701535      7.793336
  O      10.152942     29.971462      8.284634
  O      10.315096     34.682385      8.228325
  O      13.030846     34.645949      8.340589
  O      12.866725     29.908011      8.356217
  O      11.426055     27.639344      8.164205
  O      14.308192     32.226750      8.365851
  O      11.545379     29.372401      6.121253
  O      11.795226     35.165272      6.085235
  O      14.120943     33.613049      6.155896
  O      13.989551     30.796634      6.158477
  Si     11.687438     38.556136      7.796715
  Si     14.382258     40.049594      7.868588
  O      10.319585     39.208048      8.384553
  O      13.038833     39.279799      8.390445
  O      11.752322     36.956909      8.107183
  O      14.523961     41.580526      8.421932
  O      11.749632     38.845678      6.173933
  O      14.400361     39.964607      6.221422
  Si     16.857117     25.988193      7.890935
  O      15.509780     25.214007      8.408230
  O      18.121095     25.121882      8.452312
  O      16.786561     26.004343      6.243278
  Si     16.908099     29.068892      7.816043
  Si     17.048205     35.326421      7.809990
  Si     19.683094     33.740948      7.849799
  Si     19.560637     30.649720      7.824325
  O      15.516562     29.837157      8.148132
  O      15.701739     34.486511      8.148779
  O      18.360303     34.535383      8.396667
  O      18.172392     29.960229      8.330236
  O      16.874909     27.542940      8.402589
  O      19.686409     32.188035      8.376342
  O      17.090011     28.856974      6.185803
  O      17.311268     35.405186      6.183188
  O      19.593453     33.680098      6.206059
  O      19.533344     30.711011      6.180194
  Si     16.997815     38.396746      7.836765
  O      15.735839     39.273914      8.383398
  O      18.457467     38.954797      8.316227
  O      16.943354     36.851674      8.378731
  O      16.879367     38.336688      6.192106
  O      20.743291     29.676216      8.388076
  O      21.091569     34.381681      8.374264
  H       4.074658     24.986772      8.036591
  H       1.410409     29.602015      8.036749
  H       1.410409     35.007985      8.036749
  H       4.074657     39.623228      8.036591
  H       8.948181     22.173255      8.038302
  H       8.948181     42.436745      8.038302
  H      14.277762     22.173204      8.038282
  H      14.277762     42.436796      8.038282
  H      18.960557     24.876228      8.036406
  H      18.960557     39.733772      8.036406
  H      21.624717     29.491420      8.036583
  H      21.624717     35.118580      8.036583
  H      13.370798     34.145621      5.820973
  H      10.975831     34.754863      5.740670
  H       9.164199     32.974496      5.621417
  H       9.880327     30.312268      5.687392
  H      12.352909     29.825053      5.812547
  H      14.041331     31.718391      5.838707
  H      13.547810     39.656619      5.861444
  H      10.886462     39.107278      5.807426
  H       8.201248     39.384204      5.918429
  H       6.263046     37.537383      6.132944
  H       5.333733     35.300917      6.205644
  H       3.459548     33.019419      5.891789
  H       4.116292     30.275743      5.826269
  H       5.998608     28.265996      5.734552
  H       6.944290     25.681090      5.843862
  H       9.586295     24.962206      5.849872
  H      12.245741     25.539812      5.792813
  H      14.960087     25.080702      5.875287
  H      16.925871     26.896862      5.878288
  H      17.717339     29.467329      5.772404
  H      19.555407     31.621019      5.838898
  H      18.887104     34.249093      5.849613
  H      17.108084     36.272437      5.797337
  H      16.104003     38.820074      5.857934
  P       7.673298     35.430531     11.033343
  O       7.433586     35.337879     12.477163
  O       6.499058     35.223224     10.042467
  O       8.296853     36.835764     10.551924
  O       8.708126     34.284180     10.542510
  C       9.895184     33.992267     11.265969
  C      10.188508     32.505218     11.061243
  O      11.559207     32.323913     10.620062
  C      10.023820     31.628232     12.295436
  O       9.583316     30.297915     11.997178
  C      11.461558     31.529503     12.813597
  O      11.689004     30.477866     13.705300
  C      12.202999     31.404320     11.474190
  N      13.609181     31.705474     11.493207
  C      14.216848     32.941083     11.499744
  N      15.525714     32.880381     11.444426
  C      15.797822     31.529383     11.396135
  C      16.990718     30.794968     11.309553
  N      18.208317     31.388775     11.311808
  N      16.921794     29.455968     11.255045
  C      15.715621     28.874710     11.292149
  N      14.518110     29.449327     11.375001
  C      14.620743     30.778229     11.419917
  H       7.685241     36.964331      9.788428
  H      10.723071     34.577884     10.856064
  H       9.762729     34.242787     12.324276
  H       9.528625     32.166572     10.259686
  H       9.323280     32.052535     13.017248
  H       9.575888     30.175020     11.039679
  H      11.763269     32.461919     13.304357
  H      11.180844     29.729214     13.355439
  H      12.131918     30.368420     11.112056
  H      13.629660     33.847358     11.511594
  H      18.242819     32.370067     11.087111
  H      18.987461     30.815660     11.031101
  H      15.720746     27.789510     11.237174
162
Coordinates from ORCA-job amp_frame12_dry_r2scan E -13470.330098260696
  Si      3.481909     33.915109      7.910458
  Si      3.451627     30.800043      7.868054
  O       2.224924     34.784553      8.501779
  O       2.185787     29.966919      8.485948
  O       3.388200     32.334928      8.380328
  O       3.442326     33.904945      6.258811
  O       3.427521     30.828684      6.219104
  Si      6.126103     26.180687      7.837600
  Si      8.758722     24.548211      7.860066
  O       4.707072     25.616939      8.410796
  O       7.413819     25.319773      8.372368
  O       8.648327     23.015594      8.413789
  O       6.171360     26.153305      6.188337
  O       8.754165     24.613996      6.212853
  Si      6.116258     29.257375      7.720862
  Si      6.205528     35.532530      8.310313
  Si      8.974620     33.924098      7.619401
  Si      8.896468     30.804744      7.601929
  O       4.853077     30.073844      8.334371
  O       4.820060     34.597171      8.456140
  O       7.623882     34.701525      7.913421
  O       7.507056     30.057462      8.005798
  O       6.236682     27.736668      8.317005
  O       8.881074     32.345675      8.100332
  O       5.823175     29.140147      6.102618
  O       5.847565     35.966001      6.656276
  O       9.322981     33.845312      5.994179
  O       9.101798     30.821149      5.974067
  Si      6.296684     38.695932      7.933301
  Si      9.035642     40.080851      7.837629
  O       4.993821     39.602979      8.351135
  O       7.603587     39.583359      8.423443
  O       6.388369     37.232371      8.642594
  O       9.420770     41.618563      8.242658
  O       6.445174     38.508629      6.307461
  O       9.000657     39.876087      6.199012
  Si     11.450994     26.051223      7.802759
  Si     14.127684     24.542531      7.852754
  O      10.107302     25.324143      8.382587
  O      12.818367     25.368134      8.375838
  O      13.897730     23.005792      8.354228
  O      11.397476     25.803301      6.174189
  O      14.155161     24.648781      6.206959
  Si     11.509299     29.218137      7.753405
  Si     11.690593     35.376419      7.713368
  Si     14.284542     33.763013      7.785308
  Si     14.184057     30.702434      7.786828
  O      10.153720     29.971537      8.278722
  O      10.312681     34.682744      8.218620
  O      13.028609     34.645185      8.334966
  O      12.867127     29.909301      8.349164
  O      11.428521     27.639885      8.159518
  O      14.307924     32.227425      8.359498
  O      11.545728     29.371998      6.115284
  O      11.795012     35.168203      6.079618
  O      14.121590     33.615847      6.150933
  O      13.991420     30.797687      6.152030
  Si     11.685230     38.556291      7.795666
  Si     14.380164     40.049410      7.868768
  O      10.318075     39.207988      8.385003
  O      13.036531     39.279540      8.389634
  O      11.750321     36.956802      8.104257
  O      14.520313     41.580018      8.423486
  O      11.746744     38.847103      6.173100
  O      14.399495     39.966010      6.221613
  Si     16.858206     25.989691      7.888831
  O      15.510425     25.216932      8.406360
  O      18.122042     25.124619      8.452341
  O      16.788922     26.003824      6.241095
  Si     16.908814     29.070251      7.811914
  Si     17.046851     35.328043      7.808218
  Si     19.681995     33.743058      7.848422
  Si     19.561583     30.651359      7.822399
  O      15.517317     29.838889      8.143365
  O      15.699854     34.488530      8.145876
  O      18.358149     34.535811      8.394696
  O      18.173438     29.960796      8.326652
  O      16.875607     27.544681      8.399041
  O      19.684857     32.189890      8.373650
  O      17.091473     28.858278      6.181986
  O      17.310479     35.407829      6.181655
  O      19.595334     33.684042      6.204580
  O      19.536881     30.710855      6.177944
  Si     16.997106     38.398919      7.838081
  O      15.732660     39.272773      8.383818
  O      18.453841     38.959602      8.322603
  O      16.943302     36.853072      8.377636
  O      16.882669     38.341678      6.193047
  O      20.745027     29.681187      8.390013
  O      21.088757     34.384553      8.376589
  H       4.074658     24.986772      8.036591
  H       1.410409     29.602015      8.036749
  H       1.410409     35.007985      8.036749
  H       4.074657     39.623228      8.036591
  H       8.948181     22.173255      8.038302
  H       8.948181     42.436745      8.038302
  H      14.277762     22.173204      8.038282
  H      14.277762     42.436796      8.038282
  H      18.960557     24.876228      8.036406
  H      18.960556     39.733772      8.036406
  H      21.624717     29.491420      8.036583
  H      21.624717     35.118580      8.036583
  H      13.373519     34.151171      5.815961
  H      10.975441     34.758943      5.733804
  H       9.160564     32.970304      5.612169
  H       9.876593     30.309955      5.682381
  H      12.354680     29.822394      5.806394
  H      14.046592     31.719290      5.832442
  H      13.547419     39.658755      5.860626
  H      10.883983     39.110439      5.807767
  H       8.197612     39.393301      5.920174
  H       6.257494     37.547806      6.127671
  H       5.331420     35.300019      6.187909
  H       3.450186     33.012169      5.885469
  H       4.116244     30.271576      5.822325
  H       5.999255     28.262363      5.732968
  H       6.942971     25.677373      5.841254
  H       9.587634     24.957400      5.847517
  H      12.247096     25.537262      5.789830
  H      14.962437     25.075411      5.873215
  H      16.928871     26.895757      5.875095
  H      17.720552     29.468002      5.770136
  H      19.560242     31.620261      5.835512
  H      18.889688     34.253490      5.847698
  H      17.109147     36.276022      5.797047
  H      16.106736     38.823616      5.858304
  P       7.657501     35.434417     11.032869
  O       7.428016     35.345171     12.478676
  O       6.478536     35.226384     10.050400
  O       8.285152     36.834876     10.547345
  O       8.688811     34.287096     10.536897
  C       9.882528     34.002637     11.251560
  C      10.178439     32.515504     11.050505
  O      11.549949     32.334566     10.609292
  C      10.014603     31.643038     12.288295
  O       9.569213     30.312850     11.996144
  C      11.453389     31.541968     12.804174
  O      11.680012     30.490577     13.696624
  C      12.193787     31.415006     11.463764
  N      13.599408     31.717658     11.483077
  C      14.205590     32.954601     11.495182
  N      15.514724     32.895953     11.440811
  C      15.788279     31.545432     11.387193
  C      16.982063     30.813752     11.298033
  N      18.198286     31.410620     11.302117
  N      16.916411     29.475018     11.236811
  C      15.711099     28.891241     11.271198
  N      14.511998     29.463057     11.357472
  C      14.612592     30.792005     11.408021
  H       7.685223     36.960467      9.775471
  H      10.705948     34.590465     10.833969
  H       9.757608     34.256667     12.310130
  H       9.517988     32.172273     10.251495
  H       9.317058     32.071979     13.010341
  H       9.566413     30.183470     11.039433
  H      11.756751     32.474419     13.293800
  H      11.165239     29.744451     13.350815
  H      12.122781     30.378580     11.103180
  H      13.617145     33.860037     11.509645
  H      18.231271     32.393424     11.084272
  H      18.979416     30.840737     11.020454
  H      15.718605     27.806285     11.210804
162
Coordinates from ORCA-job amp_frame12_dry_r2scan E -13470.330761803049
  Si      3.474600     33.905196      7.901064
  Si      3.453718     30.789746      7.864573
  O       2.217419     34.766147      8.505702
  O       2.196595     29.944772      8.484379
  O       3.387462     32.325519      8.374022
  O       3.420006     33.893769      6.250720
  O       3.425267     30.816609      6.216056
  Si      6.127529     26.177962      7.835277
  Si      8.760810     24.547007      7.858422
  O       4.709550     25.614239      8.410574
  O       7.415356     25.317536      8.370341
  O       8.654270     23.016036      8.417301
  O       6.170815     26.149469      6.186132
  O       8.755540     24.608025      6.211448
  Si      6.120560     29.254837      7.719510
  Si      6.203032     35.526920      8.299655
  Si      8.973955     33.923467      7.612014
  Si      8.895494     30.805202      7.600498
  O       4.856934     30.069831      8.332618
  O       4.818691     34.589457      8.433092
  O       7.622701     34.704117      7.897004
  O       7.507742     30.058829      8.009741
  O       6.240881     27.733808      8.314744
  O       8.883034     32.346968      8.100062
  O       5.831541     29.138401      6.101106
  O       5.840592     35.972501      6.649085
  O       9.323534     33.839852      5.987373
  O       9.094429     30.818853      5.972402
  Si      6.293988     38.691462      7.938361
  Si      9.032380     40.080181      7.839820
  O       4.988197     39.589211      8.367441
  O       7.601536     39.579932      8.428228
  O       6.390008     37.223886      8.641528
  O       9.417283     41.617889      8.247328
  O       6.437774     38.514254      6.311284
  O       8.995788     39.878136      6.201341
  Si     11.452008     26.052052      7.798342
  Si     14.129095     24.542002      7.850697
  O      10.107889     25.326705      8.379179
  O      12.818674     25.367486      8.371849
  O      13.904185     23.006924      8.359235
  O      11.398037     25.803414      6.170369
  O      14.156811     24.641888      6.204659
  Si     11.509432     29.218964      7.747572
  Si     11.689416     35.378749      7.706639
  Si     14.283436     33.763848      7.778564
  Si     14.184221     30.703029      7.778381
  O      10.155011     29.973215      8.273821
  O      10.310560     34.685294      8.208702
  O      13.026068     34.644527      8.327897
  O      12.867118     29.911186      8.341499
  O      11.430900     27.640850      8.155119
  O      14.307383     32.227828      8.351253
  O      11.544315     29.372055      6.109668
  O      11.792854     35.173128      6.073069
  O      14.121779     33.619082      6.144486
  O      13.992047     30.798117      6.144043
  Si     11.682785     38.557613      7.792543
  Si     14.378948     40.049718      7.865712
  O      10.315463     39.207045      8.384427
  O      13.033429     39.282394      8.386183
  O      11.749869     36.958356      8.100749
  O      14.522283     41.579593      8.421146
  O      11.742593     38.847910      6.170199
  O      14.399012     39.967097      6.219006
  Si     16.858703     25.990259      7.884264
  O      15.509710     25.221345      8.403213
  O      18.120501     25.123563      8.449986
  O      16.790736     26.002491      6.236690
  Si     16.909339     29.071120      7.804840
  Si     17.045677     35.329097      7.804508
  Si     19.681450     33.744521      7.844090
  Si     19.562355     30.652518      7.816852
  O      15.517501     29.839759      8.136410
  O      15.698114     34.489841      8.141790
  O      18.356422     34.535383      8.390341
  O      18.173890     29.961711      8.320067
  O      16.877591     27.545806      8.392746
  O      19.683660     32.191027      8.368005
  O      17.091764     28.859532      6.175444
  O      17.308737     35.409834      6.178295
  O      19.597714     33.687638      6.200408
  O      19.541240     30.710360      6.172167
  Si     16.996732     38.400756      7.837498
  O      15.728482     39.269680      8.382097
  O      18.449577     38.964876      8.328906
  O      16.943967     36.853977      8.374780
  O      16.888125     38.347281      6.192136
  O      20.745198     29.684142      8.388908
  O      21.086432     34.386237      8.376798
  H       4.074657     24.986772      8.036591
  H       1.410409     29.602015      8.036749
  H       1.410409     35.007985      8.036749
  H       4.074657     39.623228      8.036591
  H       8.948181     22.173255      8.038302
  H       8.948181     42.436745      8.038302
  H      14.277762     22.173204      8.038282
  H      14.277762     42.436796      8.038282
  H      18.960557     24.876228      8.036406
  H      18.960557     39.733772      8.036406
  H      21.624717     29.491420      8.036583
  H      21.624717     35.118580      8.036583
  H      13.372139     34.152904      5.810434
  H      10.975307     34.757579      5.728721
  H       9.156058     32.966701      5.603383
  H       9.869800     30.308961      5.679052
  H      12.353044     29.822522      5.799988
  H      14.046417     31.719795      5.824663
  H      13.547894     39.659710      5.856709
  H      10.880205     39.112003      5.805477
  H       8.192297     39.397561      5.921660
  H       6.246725     37.556367      6.127084
  H       5.334373     35.302042      6.176098
  H       3.433484     33.000948      5.878032
  H       4.115990     30.263205      5.817928
  H       6.003128     28.258929      5.733138
  H       6.941315     25.672890      5.837783
  H       9.588092     24.952023      5.844787
  H      12.247029     25.534691      5.786522
  H      14.963697     25.067872      5.869313
  H      16.929162     26.893961      5.869328
  H      17.722626     29.468606      5.765238
  H      19.565525     31.618863      5.828013
  H      18.891294     34.255671      5.843113
  H      17.111624     36.279698      5.795435
  H      16.112457     38.828305      5.855817
  P       7.631214     35.426572     11.025794
  O       7.403961     35.320215     12.470582
  O       6.451506     35.214461     10.047338
  O       8.250020     36.832568     10.559398
  O       8.670987     34.292950     10.518283
  C       9.866591     34.017293     11.233478
  C      10.169753     32.529474     11.044260
  O      11.543102     32.350836     10.604812
  C      10.007708     31.666713     12.289897
  O       9.554621     30.336320     12.010749
  C      11.448664     31.563400     12.801693
  O      11.674588     30.515358     13.698338
  C      12.185749     31.429740     11.459190
  N      13.591258     31.730610     11.476087
  C      14.199473     32.967604     11.489821
  N      15.508808     32.907253     11.436289
  C      15.779883     31.556251     11.380012
  C      16.972324     30.823942     11.289376
  N      18.188795     31.420596     11.294781
  N      16.906664     29.485510     11.223751
  C      15.700515     28.902555     11.256808
  N      14.501085     29.474917     11.345737
  C      14.603655     30.803685     11.399919
  H       7.676855     36.961198      9.768860
  H      10.689869     34.604548     10.813349
  H       9.738655     34.278555     12.290130
  H       9.509936     32.176682     10.249173
  H       9.315612     32.104717     13.011790
  H       9.552374     30.195976     11.055548
  H      11.755257     32.497553     13.286142
  H      11.150853     29.771577     13.360662
  H      12.110722     30.392370     11.101989
  H      13.612272     33.873809     11.505140
  H      18.223659     32.404380     11.082334
  H      18.969988     30.851420     11.012098
  H      15.707515     27.817850     11.191179
162
Coordinates from ORCA-job amp_frame12_dry_r2scan E -13470.331958225415
  Si      3.457109     33.883639      7.877284
  Si      3.458396     30.767601      7.856154
  O       2.200613     34.725616      8.511551
  O       2.220791     29.894422      8.477668
  O       3.385234     32.305436      8.359078
  O       3.367711     33.865988      6.230303
  O       3.422533     30.791404      6.208294
  Si      6.131345     26.172560      7.831544
  Si      8.765294     24.544616      7.856120
  O       4.714889     25.608900      8.409923
  O       7.418846     25.312572      8.367774
  O       8.666421     23.016683      8.424582
  O       6.172989     26.142034      6.182627
  O       8.758448     24.597345      6.209622
  Si      6.129743     29.249332      7.716495
  Si      6.195346     35.516643      8.265062
  Si      8.970262     33.923071      7.598640
  Si      8.893709     30.807466      7.598442
  O       4.864994     30.061201      8.328755
  O       4.814357     34.574755      8.374144
  O       7.613631     34.707009      7.855954
  O       7.509180     30.062073      8.016592
  O       6.250725     27.727914      8.310558
  O       8.884211     32.350291      8.101637
  O       5.847605     29.132446      6.098184
  O       5.824266     35.985182      6.623023
  O       9.328324     33.828074      5.976102
  O       9.081724     30.817420      5.970416
  Si      6.288942     38.681382      7.937917
  Si      9.027137     40.077910      7.836950
  O       4.978189     39.560075      8.394422
  O       7.598759     39.569848      8.428340
  O       6.392393     37.203087      8.624725
  O       9.411373     41.615679      8.251390
  O       6.422888     38.532050      6.307252
  O       8.988321     39.881615      6.198616
  Si     11.454087     26.053824      7.789706
  Si     14.131634     24.541142      7.846953
  O      10.109415     25.331938      8.373000
  O      12.819875     25.367229      8.364282
  O      13.915565     23.008908      8.367706
  O      11.398911     25.800228      6.163461
  O      14.160429     24.630980      6.200572
  Si     11.509061     29.221804      7.735781
  Si     11.685521     35.382809      7.691869
  Si     14.279827     33.765156      7.764992
  Si     14.183738     30.704249      7.760465
  O      10.157671     29.977649      8.264407
  O      10.304561     34.690483      8.188226
  O      13.019594     34.643387      8.313685
  O      12.866957     29.914933      8.325678
  O      11.435131     27.643328      8.143608
  O      14.306770     32.228201      8.334349
  O      11.539925     29.375844      6.098514
  O      11.787286     35.177250      6.059165
  O      14.118549     33.624209      6.131845
  O      13.989784     30.800704      6.127411
  Si     11.679263     38.560494      7.781716
  Si     14.377855     40.050165      7.857585
  O      10.310538     39.204472      8.376809
  O      13.028155     39.287939      8.376575
  O      11.749576     36.961892      8.087342
  O      14.529344     41.578521      8.413363
  O      11.738143     38.852808      6.160363
  O      14.398742     39.967669      6.211783
  Si     16.859195     25.990058      7.875735
  O      15.508464     25.228567      8.397835
  O      18.116169     25.118295      8.444516
  O      16.793389     25.999227      6.228406
  Si     16.910546     29.071519      7.790085
  Si     17.043229     35.331045      7.797141
  Si     19.680007     33.747228      7.835403
  Si     19.563526     30.655099      7.805462
  O      15.517596     29.840741      8.117801
  O      15.693845     34.492543      8.130886
  O      18.352899     34.534541      8.382399
  O      18.174516     29.963456      8.305663
  O      16.881391     27.547005      8.380401
  O      19.681188     32.193252      8.357273
  O      17.094809     28.857056      6.162337
  O      17.308388     35.414834      6.172166
  O      19.600119     33.694275      6.192142
  O      19.549419     30.711652      6.160412
  Si     16.996343     38.403797      7.835124
  O      15.721572     39.264298      8.377274
  O      18.442427     38.973607      8.338754
  O      16.944620     36.855748      8.368643
  O      16.897684     38.356695      6.189182
  O      20.745425     29.689973      8.385692
  O      21.082850     34.388015      8.375119
  H       4.074658     24.986772      8.036591
  H       1.410409     29.602015      8.036749
  H       1.410409     35.007985      8.036749
  H       4.074657     39.623228      8.036591
  H       8.948181     22.173255      8.038302
  H       8.948181     42.436745      8.038302
  H      14.277762     22.173204      8.038282
  H      14.277762     42.436796      8.038282
  H      18.960557     24.876228      8.036406
  H      18.960557     39.733772      8.036406
  H      21.624717     29.491420      8.036583
  H      21.624717     35.118580      8.036583
  H      13.365967     34.156767      5.801439
  H      10.971985     34.751031      5.720400
  H       9.156084     32.957466      5.589250
  H       9.859421     30.311761      5.674948
  H      12.349053     29.825739      5.788342
  H      14.043774     31.723342      5.810329
  H      13.548129     39.660094      5.849167
  H      10.875633     39.116477      5.796337
  H       8.183150     39.405349      5.917774
  H       6.234698     37.578123      6.110152
  H       5.332405     35.308216      6.145055
  H       3.388247     32.971333      5.862457
  H       4.116078     30.241982      5.809378
  H       6.013447     28.249516      5.735108
  H       6.942253     25.663752      5.833987
  H       9.590651     24.941236      5.841834
  H      12.247844     25.528932      5.781346
  H      14.967519     25.055800      5.864177
  H      16.930693     26.890321      5.859957
  H      17.726239     29.467554      5.755016
  H      19.574388     31.619286      5.814961
  H      18.892399     34.261471      5.836145
  H      17.116843     36.287992      5.793727
  H      16.121257     38.835654      5.851672
  P       7.576506     35.397002     11.008341
  O       7.337066     35.249080     12.447087
  O       6.409928     35.187692     10.020720
  O       8.190258     36.811066     10.596593
  O       8.640465     34.291027     10.485117
  C       9.837795     34.041010     11.208905
  C      10.159615     32.553210     11.047186
  O      11.535002     32.381251     10.607649
  C      10.007126     31.712053     12.310053
  O       9.541971     30.379843     12.060798
  C      11.453940     31.608520     12.809724
  O      11.683342     30.568989     13.715156
  C      12.179683     31.460021     11.460995
  N      13.584930     31.756815     11.465736
  C      14.199158     32.992533     11.475493
  N      15.508474     32.925969     11.417267
  C      15.772284     31.573193     11.361587
  C      16.960493     30.835899     11.267548
  N      18.179195     31.427691     11.271913
  N      16.889880     29.497853     11.198640
  C      15.680830     28.919918     11.234413
  N      14.483336     29.497188     11.330463
  C      14.593426     30.825542     11.386629
  H       7.682003     36.960380      9.765818
  H      10.659435     34.628103     10.784519
  H       9.698557     34.319407     12.259797
  H       9.498765     32.181315     10.262052
  H       9.326466     32.166693     13.032411
  H       9.533398     30.216912     11.109336
  H      11.766533     32.547681     13.280521
  H      11.143194     29.828687     13.395500
  H      12.095100     30.420133     11.113137
  H      13.615907     33.901202     11.491535
  H      18.220006     32.411672     11.062627
  H      18.956298     30.856285     10.983024
  H      15.683159     27.835411     11.162832
162
Coordinates from ORCA-job amp_frame12_dry_r2scan E -13470.333164724379
  Si      3.439317     33.861617      7.858727
  Si      3.462738     30.746191      7.849170
  O       2.180527     34.682623      8.518315
  O       2.244319     29.841756      8.466366
  O       3.381021     32.284699      8.348369
  O       3.317298     33.839175      6.215286
  O       3.423531     30.770449      6.201452
  Si      6.134795     26.168230      7.830694
  Si      8.768440     24.542533      7.857844
  O       4.718393     25.605628      8.409078
  O       7.420749     25.307448      8.369248
  O       8.676953     23.016293      8.432349
  O       6.176396     26.136151      6.181802
  O       8.761193     24.590002      6.211547
  Si      6.138218     29.244744      7.717029
  Si      6.186580     35.507564      8.246759
  Si      8.965756     33.925136      7.598468
  Si      8.891381     30.811505      7.603333
  O       4.871800     30.053100      8.328034
  O       4.805658     34.561896      8.322969
  O       7.606337     34.715375      7.827935
  O       7.509604     30.066370      8.027995
  O       6.259917     27.722853      8.309942
  O       8.885077     32.354676      8.112428
  O       5.865280     29.126996      6.097845
  O       5.813101     35.998192      6.610594
  O       9.332810     33.819356      5.977472
  O       9.071795     30.818611      5.975071
  Si      6.284558     38.670167      7.942008
  Si      9.021357     40.074756      7.836518
  O       4.967814     39.533925      8.415992
  O       7.595080     39.561837      8.432261
  O       6.396785     37.185512      8.619718
  O       9.408128     41.613590      8.250745
  O       6.412555     38.539948      6.308930
  O       8.979747     39.879981      6.198729
  Si     11.454843     26.055342      7.787953
  Si     14.132907     24.540598      7.847579
  O      10.109528     25.336175      8.372609
  O      12.819901     25.366456      8.362912
  O      13.924906     23.009684      8.375843
  O      11.399516     25.798786      6.162475
  O      14.161882     24.623759      6.200876
  Si     11.507943     29.224991      7.734004
  Si     11.681525     35.386715      7.688605
  Si     14.275740     33.766765      7.763631
  Si     14.182696     30.705869      7.756485
  O      10.158666     29.982470      8.263692
  O      10.297860     34.698566      8.181276
  O      13.013450     34.643467      8.312150
  O      12.866038     29.918030      8.322607
  O      11.437773     27.645431      8.139700
  O      14.305683     32.229294      8.331392
  O      11.536470     29.381057      6.096905
  O      11.780561     35.179301      6.056400
  O      14.113276     33.628232      6.130993
  O      13.987600     30.804048      6.124083
  Si     11.676255     38.563690      7.777883
  Si     14.377597     40.050161      7.852494
  O      10.305073     39.201786      8.374980
  O      13.023349     39.295271      8.372456
  O      11.750326     36.965919      8.082554
  O      14.540613     41.578155      8.404198
  O      11.733434     38.855500      6.156665
  O      14.398284     39.964466      6.207390
  Si     16.858708     25.989511      7.872263
  O      15.506600     25.234526      8.397654
  O      18.111106     25.109502      8.439313
  O      16.792605     25.998766      6.225059
  Si     16.911194     29.071661      7.785464
  Si     17.041008     35.331878      7.797123
  Si     19.678617     33.748862      7.832128
  Si     19.563879     30.657088      7.799679
  O      15.517351     29.841236      8.110450
  O      15.690127     34.494910      8.129239
  O      18.350541     34.533404      8.381444
  O      18.174981     29.965250      8.299717
  O      16.885590     27.546998      8.375996
  O      19.680306     32.194550      8.352990
  O      17.095131     28.856496      6.158025
  O      17.305611     35.416989      6.172174
  O      19.598857     33.698446      6.189256
  O      19.552889     30.713744      6.154539
  Si     16.996084     38.405347      7.836232
  O      15.715909     39.259127      8.376068
  O      18.437348     38.980473      8.347265
  O      16.945466     36.856883      8.368634
  O      16.905022     38.361478      6.189720
  O      20.744970     29.692359      8.382796
  O      21.081149     34.388814      8.373869
  H       4.074657     24.986772      8.036591
  H       1.410409     29.602015      8.036749
  H       1.410409     35.007985      8.036749
  H       4.074657     39.623228      8.036591
  H       8.948181     22.173255      8.038302
  H       8.948181     42.436745      8.038302
  H      14.277762     22.173204      8.038282
  H      14.277762     42.436796      8.038282
  H      18.960557     24.876228      8.036406
  H      18.960557     39.733772      8.036406
  H      21.624717     29.491420      8.036583
  H      21.624717     35.118580      8.036583
  H      13.357603     34.158809      5.803769
  H      10.967124     34.742330      5.724613
  H       9.154246     32.951429      5.587863
  H       9.851554     30.316448      5.678552
  H      12.345481     29.831328      5.786846
  H      14.039102     31.727570      5.809157
  H      13.547885     39.656641      5.844724
  H      10.870613     39.116603      5.791702
  H       8.172366     39.407608      5.917521
  H       6.217987     37.589194      6.101750
  H       5.336008     35.316791      6.125314
  H       3.344791     32.943658      5.850260
  H       4.119119     30.224497      5.801595
  H       6.026504     28.241311      5.739034
  H       6.945034     25.656980      5.833162
  H       9.592819     24.934898      5.843251
  H      12.248361     25.526103      5.781237
  H      14.968462     25.048595      5.863296
  H      16.927811     26.890109      5.856589
  H      17.725770     29.468345      5.751596
  H      19.576610     31.621007      5.808497
  H      18.889446     34.264743      5.835075
  H      17.118204     36.292167      5.796179
  H      16.127848     38.837809      5.850248
  P       7.525765     35.361346     10.996122
  O       7.271607     35.155085     12.424981
  O       6.378028     35.160424      9.990381
  O       8.128533     36.790428     10.656660
  O       8.622171     34.292704     10.453392
  C       9.815407     34.061900     11.194175
  C      10.153964     32.573529     11.062009
  O      11.530653     32.409199     10.621119
  C      10.013027     31.754152     12.341403
  O       9.536746     30.420346     12.121836
  C      11.465298     31.650351     12.827109
  O      11.699415     30.619183     13.740597
  C      12.177181     31.486681     11.471978
  N      13.583601     31.775302     11.462518
  C      14.206465     33.007308     11.467539
  N      15.515265     32.931658     11.405278
  C      15.769544     31.577020     11.351819
  C      16.952103     30.831632     11.257714
  N      18.175206     31.415498     11.263128
  N      16.873768     29.493716     11.189571
  C      15.660406     28.924377     11.227929
  N      14.466426     29.509510     11.327322
  C      14.586081     30.837150     11.381959
  H       7.692418     36.980214      9.794493
  H      10.640167     34.645477     10.770951
  H       9.658942     34.356707     12.237846
  H       9.492608     32.181001     10.287333
  H       9.343912     32.225126     13.063875
  H       9.516455     30.240489     11.173736
  H      11.785857     32.593888     13.283617
  H      11.145121     29.881882     13.438253
  H      12.081065     30.445145     11.132090
  H      13.629211     33.919714     11.484368
  H      18.223582     32.398730     11.051531
  H      18.946830     30.838607     10.969934
  H      15.655345     27.839994     11.155389
162
Coordinates from ORCA-job amp_frame12_dry_r2scan E -13470.334371316887
  Si      3.425420     33.846348      7.849578
  Si      3.465548     30.733292      7.847012
  O       2.163665     34.651918      8.523569
  O       2.259398     29.805476      8.455901
  O       3.376530     32.270880      8.345989
  O       3.280489     33.820368      6.208476
  O       3.428588     30.762488      6.198694
  Si      6.137030     26.165849      7.834086
  Si      8.769688     24.541284      7.863634
  O       4.719542     25.604392      8.409488
  O       7.420912     25.303484      8.375015
  O       8.683190     23.014934      8.438887
  O       6.180875     26.133630      6.185014
  O       8.762658     24.588383      6.217052
  Si      6.143178     29.241784      7.720686
  Si      6.178110     35.503609      8.238998
  Si      8.961606     33.927842      7.608472
  Si      8.890243     30.815418      7.612141
  O       4.875382     30.047897      8.331019
  O       4.794813     34.555288      8.288655
  O       7.601666     34.724849      7.813942
  O       7.509845     30.068937      8.038194
  O       6.265746     27.719868      8.313483
  O       8.883790     32.358005      8.126642
  O       5.876320     29.122371      6.100389
  O       5.807849     36.006887      6.604051
  O       9.338708     33.814956      5.988841
  O       9.069551     30.822893      5.983495
  Si      6.282375     38.663641      7.944131
  Si      9.017701     40.072015      7.836886
  O       4.961758     39.520687      8.425089
  O       7.592948     39.556982      8.435365
  O       6.401715     37.177702      8.617371
  O       9.406933     41.611789      8.247130
  O       6.409854     38.541896      6.310010
  O       8.974398     39.875314      6.199627
  Si     11.454404     26.056039      7.792736
  Si     14.132447     24.540402      7.852169
  O      10.108812     25.338290      8.378032
  O      12.819234     25.366078      8.367417
  O      13.928195     23.008908      8.380706
  O      11.399308     25.797240      6.167117
  O      14.160704     24.623333      6.205257
  Si     11.506982     29.227413      7.739881
  Si     11.679144     35.387786      7.694939
  Si     14.273018     33.767611      7.770710
  Si     14.182228     30.706859      7.762812
  O      10.158745     29.985670      8.270050
  O      10.292565     34.706400      8.187934
  O      13.010301     34.643943      8.320496
  O      12.865940     29.918898      8.329126
  O      11.438480     27.646602      8.141838
  O      14.305893     32.230148      8.338541
  O      11.534168     29.386106      6.102434
  O      11.776796     35.176045      6.062853
  O      14.108039     33.628668      6.137970
  O      13.985778     30.806324      6.130289
  Si     11.675552     38.565702      7.780150
  Si     14.378545     40.049528      7.851912
  O      10.301755     39.199792      8.377149
  O      13.021133     39.300736      8.374208
  O      11.752440     36.968112      8.084133
  O      14.551347     41.578453      8.396871
  O      11.731507     38.857473      6.158765
  O      14.398055     39.958214      6.206902
  Si     16.857542     25.988294      7.874600
  O      15.505153     25.236325      8.402524
  O      18.107238     25.100587      8.436243
  O      16.788625     25.999681      6.227267
  Si     16.911728     29.070789      7.789725
  Si     17.040193     35.331338      7.802077
  Si     19.677852     33.748941      7.835151
  Si     19.563693     30.657853      7.801142
  O      15.517534     29.840822      8.111639
  O      15.688225     34.496271      8.132893
  O      18.349726     34.532296      8.386612
  O      18.175261     29.966007      8.302201
  O      16.888381     27.545692      8.379414
  O      19.681136     32.194570      8.356299
  O      17.095413     28.855079      6.161604
  O      17.304712     35.416546      6.176421
  O      19.595013     33.698531      6.192366
  O      19.551353     30.716429      6.156273
  Si     16.996392     38.404840      7.839569
  O      15.714197     39.256471      8.378353
  O      18.436641     38.982375      8.351047
  O      16.945965     36.856739      8.372807
  O      16.907140     38.360225      6.192601
  O      20.744569     29.691408      8.381721
  O      21.081688     34.388589      8.373721
  H       4.074658     24.986772      8.036591
  H       1.410409     29.602015      8.036749
  H       1.410409     35.007985      8.036749
  H       4.074657     39.623228      8.036591
  H       8.948181     22.173255      8.038302
  H       8.948181     42.436745      8.038302
  H      14.277762     22.173204      8.038282
  H      14.277762     42.436796      8.038282
  H      18.960557     24.876228      8.036406
  H      18.960557     39.733772      8.036406
  H      21.624717     29.491420      8.036583
  H      21.624717     35.118580      8.036583
  H      13.350512     34.157626      5.812085
  H      10.963738     34.733959      5.736135
  H       9.157708     32.947963      5.598766
  H       9.851106     30.323676      5.687569
  H      12.343107     29.836222      5.792468
  H      14.034307     31.730438      5.816565
  H      13.546911     39.650104      5.845574
  H      10.867807     39.113963      5.791816
  H       8.166257     39.402121      5.919585
  H       6.218330     37.588026      6.099381
  H       5.332378     35.327303      6.115727
  H       3.310294     32.924129      5.845239
  H       4.122936     30.215125      5.798601
  H       6.035323     28.235243      5.744306
  H       6.949739     25.653728      5.837737
  H       9.594442     24.933997      5.849472
  H      12.248221     25.524930      5.785909
  H      14.967097     25.048614      5.867653
  H      16.922338     26.891850      5.860014
  H      17.723786     29.468032      5.753611
  H      19.573085     31.624412      5.811652
  H      18.884287     34.264808      5.840239
  H      17.118374     36.292082      5.800538
  H      16.129492     38.835408      5.852333
  P       7.495510     35.327091     10.993068
  O       7.217449     35.071011     12.409573
  O       6.375500     35.132299      9.957723
  O       8.085553     36.775801     10.722191
  O       8.625422     34.293018     10.440714
  C       9.811006     34.071183     11.198799
  C      10.156741     32.582283     11.087013
  O      11.531623     32.424653     10.641121
  C      10.028121     31.777441     12.377087
  O       9.546387     30.442222     12.177211
  C      11.484251     31.675034     12.849099
  O      11.725298     30.649009     13.766139
  C      12.182281     31.502156     11.488467
  N      13.590460     31.782903     11.465528
  C      14.219879     33.010489     11.466433
  N      15.527695     32.927559     11.399862
  C      15.775172     31.571847     11.349211
  C      16.953542     30.819005     11.256447
  N      18.180908     31.394662     11.262908
  N      16.867156     29.480935     11.191920
  C      15.650412     28.919578     11.233262
  N      14.460657     29.512039     11.333046
  C      14.587426     30.839032     11.383728
  H       7.706109     37.013064      9.846999
  H      10.640031     34.650205     10.777861
  H       9.640456     34.375879     12.236714
  H       9.493835     32.174359     10.319862
  H       9.367062     32.257685     13.100727
  H       9.510050     30.256985     11.230736
  H      11.811781     32.621079     13.295347
  H      11.164392     29.912281     13.474833
  H      12.077498     30.460162     11.152662
  H      13.647511     33.925956     11.484654
  H      18.234848     32.376221     11.043592
  H      18.946790     30.811466     10.966215
  H      15.638176     27.835141     11.163509
162
Coordinates from ORCA-job amp_frame12_dry_r2scan E -13470.335226462641
  Si      3.419583     33.840095      7.851146
  Si      3.467803     30.730862      7.850790
  O       2.156521     34.641320      8.526923
  O       2.263840     29.794441      8.451767
  O       3.374425     32.266458      8.352838
  O       3.263826     33.812120      6.210361
  O       3.437435     30.768140      6.201443
  Si      6.138258     26.164533      7.841411
  Si      8.770361     24.540940      7.872644
  O       4.719347     25.603433      8.412370
  O       7.420326     25.300672      8.383921
  O       8.686075     23.013109      8.443959
  O       6.185400     26.134192      6.192063
  O       8.764013     24.591906      6.225403
  Si      6.145415     29.239511      7.726521
  Si      6.173294     35.504638      8.231276
  Si      8.961378     33.927260      7.619923
  Si      8.893353     30.816169      7.622551
  O       4.876995     30.045608      8.336837
  O       4.787989     34.553499      8.274360
  O       7.603085     34.730588      7.808517
  O       7.512364     30.067208      8.044406
  O       6.268080     27.718359      8.320764
  O       8.881501     32.357974      8.138234
  O       5.879688     29.118654      6.105162
  O       5.810780     36.009484      6.593608
  O       9.347342     33.810885      6.001742
  O       9.078747     30.826361      5.993500
  Si      6.280282     38.663377      7.940868
  Si      9.015164     40.070244      7.837089
  O       4.960969     39.521228      8.423053
  O       7.591914     39.552952      8.434821
  O       6.403801     37.179707      8.609770
  O       9.403845     41.609285      8.246047
  O       6.407195     38.542180      6.306449
  O       8.971134     39.873492      6.199741
  Si     11.454349     26.055833      7.803784
  Si     14.131383     24.540482      7.860548
  O      10.108659     25.338239      8.388735
  O      12.818979     25.365843      8.377666
  O      13.926340     23.006994      8.382854
  O      11.399412     25.797216      6.177023
  O      14.157876     24.629059      6.213679
  Si     11.508984     29.227816      7.752842
  Si     11.680047     35.384895      7.705788
  Si     14.273701     33.767673      7.783002
  Si     14.184423     30.707051      7.778368
  O      10.160395     29.985510      8.282689
  O      10.290811     34.710486      8.202244
  O      13.011672     34.644548      8.334325
  O      12.868815     29.917363      8.344421
  O      11.439354     27.646352      8.151173
  O      14.308720     32.231125      8.353660
  O      11.536639     29.388081      6.114653
  O      11.779887     35.168204      6.073503
  O      14.107138     33.624960      6.149543
  O      13.987722     30.805999      6.144903
  Si     11.676088     38.565634      7.785104
  Si     14.378970     40.048380      7.855756
  O      10.300145     39.198191      8.379953
  O      13.020227     39.302428      8.379837
  O      11.754844     36.967154      8.088627
  O      14.555548     41.578983      8.395038
  O      11.731811     38.858727      6.163574
  O      14.398206     39.951952      6.210203
  Si     16.856811     25.987587      7.882994
  O      15.505270     25.234080      8.412038
  O      18.106770     25.095893      8.437354
  O      16.783127     26.002338      6.235427
  Si     16.913093     29.069711      7.802814
  Si     17.041346     35.330495      7.810094
  Si     19.677923     33.748272      7.844073
  Si     19.563793     30.657744      7.810432
  O      15.519605     29.840193      8.123077
  O      15.688977     34.497343      8.140459
  O      18.350363     34.532185      8.396416
  O      18.176389     29.965555      8.313622
  O      16.889879     27.544162      8.390935
  O      19.683324     32.194145      8.366636
  O      17.095738     28.854255      6.173129
  O      17.306247     35.414084      6.183263
  O      19.590942     33.695524      6.201033
  O      19.545752     30.718360      6.166172
  Si     16.996638     38.403349      7.844657
  O      15.715245     39.256728      8.383560
  O      18.438782     38.980833      8.351405
  O      16.946225     36.856032      8.379825
  O      16.904190     38.354608      6.197524
  O      20.745594     29.689640      8.384800
  O      21.083293     34.389005      8.376459
  H       4.074658     24.986772      8.036591
  H       1.410409     29.602015      8.036749
  H       1.410409     35.007985      8.036749
  H       4.074657     39.623228      8.036591
  H       8.948181     22.173255      8.038302
  H       8.948181     42.436745      8.038302
  H      14.277762     22.173204      8.038282
  H      14.277762     42.436796      8.038282
  H      18.960557     24.876228      8.036406
  H      18.960556     39.733772      8.036406
  H      21.624717     29.491420      8.036583
  H      21.624717     35.118580      8.036583
  H      13.351230     34.154358      5.821018
  H      10.966529     34.728066      5.746140
  H       9.167391     32.942572      5.614479
  H       9.861171     30.328393      5.699585
  H      12.345818     29.836618      5.804237
  H      14.034832     31.729734      5.830000
  H      13.545940     39.645058      5.849554
  H      10.867634     39.111932      5.794553
  H       8.161303     39.400519      5.920750
  H       6.204367     37.587294      6.094996
  H       5.320394     35.339758      6.106728
  H       3.292683     32.915589      5.847185
  H       4.127546     30.215526      5.801140
  H       6.038561     28.231739      5.749028
  H       6.955289     25.654567      5.846404
  H       9.596191     24.938034      5.858994
  H      12.248112     25.526481      5.794456
  H      14.963922     25.055452      5.876542
  H      16.916954     26.895256      5.869686
  H      17.721128     29.467232      5.761050
  H      19.565476     31.627536      5.823708
  H      18.880182     34.262529      5.849544
  H      17.117935     36.287977      5.804589
  H      16.125995     38.828907      5.857002
  P       7.489385     35.312333     11.002727
  O       7.189620     35.038196     12.411971
  O       6.393385     35.122544      9.940009
  O       8.073125     36.778178     10.768006
  O       8.637765     34.295313     10.450879
  C       9.817863     34.071918     11.215084
  C      10.158762     32.582427     11.110166
  O      11.529607     32.426845     10.657852
  C      10.038989     31.782566     12.404021
  O       9.557192     30.446340     12.210777
  C      11.496520     31.682177     12.866314
  O      11.744065     30.657835     13.783198
  C      12.184923     31.506281     11.502844
  N      13.594786     31.782028     11.471491
  C      14.226095     33.006468     11.471330
  N      15.532988     32.921051     11.402158
  C      15.778931     31.565356     11.353132
  C      16.956298     30.808990     11.262539
  N      18.186064     31.379832     11.269943
  N      16.864985     29.470762     11.202187
  C      15.647263     28.913069     11.245082
  N      14.460470     29.509113     11.342614
  C      14.588890     30.835800     11.389127
  H       7.721009     37.044817      9.892285
  H      10.648092     34.646614     10.791740
  H       9.647036     34.379678     12.251529
  H       9.494187     32.167645     10.346228
  H       9.380998     32.264584     13.129263
  H       9.506769     30.265588     11.264160
  H      11.828788     32.628533     13.308327
  H      11.183646     29.919328     13.496006
  H      12.076936     30.464599     11.167100
  H      13.655667     33.923227     11.490863
  H      18.241354     32.359692     11.041866
  H      18.948898     30.792380     10.972974
  H      15.631361     27.828400     11.180681
162
Coordinates from ORCA-job amp_frame12_dry_r2scan E -13470.335707430784
  Si      3.414808     33.835431      7.853050
  Si      3.470794     30.729540      7.851352
  O       2.150932     34.633457      8.529665
  O       2.269557     29.784416      8.444946
  O       3.372104     32.263084      8.358779
  O       3.249147     33.805826      6.212761
  O       3.446134     30.776825      6.201524
  Si      6.139367     26.163329      7.844242
  Si      8.771600     24.540935      7.876603
  O       4.720031     25.602347      8.413880
  O       7.420263     25.298523      8.387817
  O       8.690985     23.012895      8.447717
  O       6.187891     26.134233      6.194853
  O       8.764374     24.592478      6.228943
  Si      6.148754     29.237925      7.726656
  Si      6.170632     35.505461      8.221142
  Si      8.962429     33.928240      7.620724
  Si      8.897617     30.818286      7.623745
  O       4.880273     30.044416      8.337999
  O       4.784528     34.550849      8.261741
  O       7.602703     34.734184      7.797390
  O       7.516611     30.066324      8.043173
  O       6.271321     27.717596      8.322805
  O       8.879577     32.359709      8.139765
  O       5.882478     29.116103      6.105030
  O       5.810083     36.013094      6.583081
  O       9.355430     33.809487      6.004137
  O       9.087037     30.832277      5.994465
  Si      6.279818     38.659564      7.937935
  Si      9.012557     40.068029      7.837342
  O       4.961631     39.518698      8.421608
  O       7.591615     39.546725      8.434996
  O       6.405244     37.176306      8.602745
  O       9.399292     41.606415      8.246426
  O       6.407246     38.539739      6.303845
  O       8.967301     39.871361      6.200298
  Si     11.454597     26.056664      7.806197
  Si     14.130299     24.540635      7.863091
  O      10.108969     25.340221      8.392444
  O      12.818666     25.366963      8.380551
  O      13.924195     23.006401      8.382639
  O      11.399060     25.796855      6.179016
  O      14.156024     24.631806      6.216418
  Si     11.511671     29.229261      7.754032
  Si     11.681040     35.384829      7.707521
  Si     14.274409     33.768761      7.784106
  Si     14.187068     30.707858      7.781142
  O      10.163772     29.987242      8.284626
  O      10.289602     34.715185      8.206573
  O      13.012746     34.645672      8.337691
  O      12.872059     29.917231      8.347386
  O      11.440811     27.647650      8.150837
  O      14.311086     32.232624      8.356535
  O      11.539315     29.390195      6.115452
  O      11.782620     35.167615      6.074966
  O      14.107057     33.624854      6.150227
  O      13.991554     30.806543      6.147019
  Si     11.676540     38.566813      7.786583
  Si     14.379558     40.048073      7.856841
  O      10.298972     39.196377      8.381434
  O      13.019390     39.304671      8.382119
  O      11.757645     36.967625      8.088576
  O      14.558659     41.579385      8.393229
  O      11.731623     38.862084      6.165481
  O      14.398946     39.948684      6.211008
  Si     16.856317     25.986838      7.885857
  O      15.504786     25.232898      8.415662
  O      18.105783     25.092604      8.436910
  O      16.780154     26.002913      6.238281
  Si     16.914504     29.068803      7.806919
  Si     17.042636     35.330211      7.810964
  Si     19.678227     33.747585      7.848142
  Si     19.564129     30.657329      7.814720
  O      15.521312     29.839988      8.124773
  O      15.689257     34.498854      8.139959
  O      18.350259     34.531979      8.399779
  O      18.176673     29.965122      8.318303
  O      16.890874     27.543348      8.395187
  O      19.684313     32.193619      8.371832
  O      17.097536     28.852676      6.176585
  O      17.309186     35.412594      6.183783
  O      19.590245     33.693222      6.204900
  O      19.543589     30.719167      6.171108
  Si     16.997069     38.402476      7.845700
  O      15.716061     39.256690      8.385354
  O      18.440170     38.979390      8.350351
  O      16.946378     36.855278      8.381202
  O      16.902673     38.351919      6.198680
  O      20.745839     29.688374      8.386408
  O      21.083608     34.389519      8.378173
  H       4.074658     24.986772      8.036591
  H       1.410409     29.602015      8.036749
  H       1.410409     35.007985      8.036749
  H       4.074657     39.623228      8.036591
  H       8.948181     22.173255      8.038302
  H       8.948181     42.436745      8.038302
  H      14.277762     22.173204      8.038282
  H      14.277762     42.436796      8.038282
  H      18.960557     24.876228      8.036406
  H      18.960557     39.733772      8.036406
  H      21.624717     29.491420      8.036583
  H      21.624717     35.118580      8.036583
  H      13.353254     34.156037      5.819439
  H      10.968959     34.730086      5.745103
  H       9.177918     32.938962      5.620017
  H       9.869221     30.333785      5.700807
  H      12.348890     29.836669      5.803726
  H      14.038368     31.729833      5.830750
  H      13.546174     39.644095      5.849688
  H      10.867758     39.112387      5.794603
  H       8.158502     39.395491      5.922407
  H       6.224098     37.579652      6.094493
  H       5.303289     35.354436      6.098048
  H       3.283036     32.909869      5.848292
  H       4.132359     30.221055      5.799313
  H       6.040085     28.228996      5.748694
  H       6.958782     25.655655      5.849711
  H       9.596323     24.938414      5.861805
  H      12.247155     25.525912      5.795296
  H      14.961727     25.058733      5.879008
  H      16.914954     26.895803      5.872592
  H      17.720900     29.465019      5.760893
  H      19.562680     31.628997      5.829768
  H      18.880386     34.260887      5.852342
  H      17.120744     36.285232      5.802662
  H      16.124723     38.826008      5.857478
  P       7.473953     35.294754     11.001457
  O       7.169922     35.000642     12.405923
  O       6.383967     35.119681      9.929225
  O       8.054987     36.769141     10.800737
  O       8.631656     34.295575     10.441051
  C       9.808250     34.070841     11.210841
  C      10.148082     32.581891     11.114061
  O      11.518213     32.428874     10.661264
  C      10.032729     31.786386     12.411700
  O       9.551743     30.449252     12.223968
  C      11.490924     31.688553     12.869645
  O      11.742474     30.666886     13.788289
  C      12.175702     31.510203     11.505774
  N      13.586032     31.784754     11.471003
  C      14.216339     33.008632     11.472112
  N      15.523000     32.924122     11.402919
  C      15.770127     31.568692     11.353186
  C      16.948265     30.812507     11.263095
  N      18.178292     31.382444     11.270455
  N      16.855853     29.474413     11.203530
  C      15.638831     28.916114     11.246838
  N      14.452834     29.512178     11.343613
  C      14.579868     30.838862     11.388815
  H       7.731633     37.071437      9.927102
  H      10.638523     34.642400     10.786839
  H       9.638325     34.381750     12.246480
  H       9.484591     32.161192     10.353546
  H       9.375678     32.270330     13.136647
  H       9.489781     30.270182     11.277777
  H      11.824708     32.635793     13.308648
  H      11.184156     29.925801     13.503947
  H      12.067407     30.468498     11.169972
  H      13.645679     33.925332     11.491963
  H      18.232541     32.361375     11.037573
  H      18.940115     30.794024     10.972580
  H      15.622805     27.831267     11.184382
162
Coordinates from ORCA-job amp_frame12_dry_r2scan E -13470.336141327847
  Si      3.415080     33.834261      7.853667
  Si      3.474152     30.732240      7.849400
  O       2.152881     34.635461      8.528662
  O       2.271604     29.786803      8.438795
  O       3.370911     32.263409      8.363018
  O       3.243869     33.804424      6.212740
  O       3.456626     30.789889      6.199096
  Si      6.139652     26.161343      7.846027
  Si      8.772961     24.540648      7.879586
  O       4.721041     25.599494      8.416558
  O       7.419873     25.296073      8.389801
  O       8.695613     23.012779      8.450672
  O       6.189028     26.133083      6.196447
  O       8.764944     24.593002      6.231344
  Si      6.151120     29.235391      7.723337
  Si      6.173236     35.507110      8.204701
  Si      8.968875     33.925905      7.613497
  Si      8.903588     30.817527      7.621347
  O       4.883324     30.043895      8.334766
  O       4.786518     34.547758      8.252054
  O       7.612450     34.738232      7.783557
  O       7.522117     30.061564      8.034954
  O       6.272636     27.716557      8.322586
  O       8.877181     32.359216      8.133218
  O       5.881833     29.112427      6.101884
  O       5.813950     36.004332      6.562173
  O       9.368090     33.802987      5.999192
  O       9.100595     30.836323      5.992228
  Si      6.276837     38.660927      7.929505
  Si      9.009891     40.067202      7.835914
  O       4.964264     39.523854      8.415428
  O       7.591520     39.539886      8.431364
  O       6.402502     37.178130      8.587431
  O       9.390762     41.603246      8.251184
  O       6.400409     38.544587      6.295403
  O       8.964488     39.873617      6.198464
  Si     11.455066     26.056675      7.808032
  Si     14.129115     24.540385      7.864312
  O      10.109616     25.341289      8.395609
  O      12.818782     25.368038      8.382465
  O      13.919746     23.005594      8.380344
  O      11.398146     25.795839      6.180377
  O      14.154182     24.636029      6.217892
  Si     11.515152     29.228870      7.753903
  Si     11.685775     35.381999      7.704701
  Si     14.278185     33.767838      7.781874
  Si     14.190782     30.706847      7.781564
  O      10.167082     29.985982      8.285493
  O      10.292471     34.717033      8.206824
  O      13.017840     34.645861      8.336964
  O      12.876485     29.914954      8.348399
  O      11.442245     27.647757      8.150307
  O      14.315327     32.232424      8.356606
  O      11.543713     29.389917      6.115078
  O      11.790982     35.163054      6.072273
  O      14.111003     33.620649      6.147763
  O      13.996170     30.804588      6.146852
  Si     11.677381     38.566767      7.784612
  Si     14.380017     40.047529      7.857590
  O      10.298873     39.194843      8.379142
  O      13.019355     39.304005      8.382238
  O      11.761445     36.965953      8.084227
  O      14.556892     41.579317      8.394828
  O      11.732511     38.866457      6.164305
  O      14.400759     39.947096      6.211030
  Si     16.856190     25.985821      7.888756
  O      15.505291     25.229006      8.418007
  O      18.106592     25.092717      8.438190
  O      16.777349     26.002902      6.241025
  Si     16.916253     29.067080      7.810555
  Si     17.045748     35.329468      7.809593
  Si     19.679883     33.746254      7.851621
  Si     19.564973     30.655850      7.818930
  O      15.523631     29.838811      8.126604
  O      15.691509     34.499516      8.136564
  O      18.351395     34.531608      8.401358
  O      18.177386     29.963388      8.322616
  O      16.890796     27.542091      8.399559
  O      19.686021     32.192463      8.375970
  O      17.100459     28.849336      6.179950
  O      17.315968     35.410659      6.182516
  O      19.592067     33.689333      6.207889
  O      19.541431     30.718417      6.175773
  Si     16.997821     38.401231      7.844635
  O      15.718549     39.258201      8.385246
  O      18.442258     38.976596      8.347335
  O      16.946891     36.853956      8.380036
  O      16.899464     38.348220      6.197900
  O      20.747109     29.688134      8.390067
  O      21.084273     34.390098      8.381014
  H       4.074657     24.986772      8.036591
  H       1.410409     29.602015      8.036749
  H       1.410409     35.007985      8.036749
  H       4.074657     39.623228      8.036591
  H       8.948181     22.173255      8.038302
  H       8.948181     42.436745      8.038302
  H      14.277762     22.173204      8.038282
  H      14.277762     42.436796      8.038282
  H      18.960557     24.876228      8.036406
  H      18.960557     39.733772      8.036406
  H      21.624717     29.491420      8.036583
  H      21.624717     35.118580      8.036583
  H      13.359424     34.152792      5.813823
  H      10.978606     34.726606      5.738053
  H       9.192580     32.928569      5.621922
  H       9.879445     30.331481      5.699417
  H      12.354249     29.833977      5.802301
  H      14.041994     31.727305      5.828968
  H      13.546997     39.645906      5.849238
  H      10.868548     39.113726      5.792338
  H       8.154415     39.398552      5.922188
  H       6.191832     37.589621      6.085584
  H       5.291405     35.354074      6.081705
  H       3.288695     32.909821      5.845692
  H       4.136757     30.228167      5.795271
  H       6.039412     28.225475      5.745132
  H       6.960268     25.653734      5.852816
  H       9.597600     24.937244      5.864092
  H      12.246016     25.525362      5.795680
  H      14.960725     25.062220      5.881299
  H      16.914952     26.895663      5.875769
  H      17.721046     29.461616      5.760297
  H      19.562758     31.629139      5.836275
  H      18.884464     34.258829      5.853565
  H      17.123795     36.281018      5.798341
  H      16.121978     38.823534      5.857283
  P       7.463273     35.296298     11.002131
  O       7.151838     34.999971     12.404317
  O       6.376708     35.133289      9.922107
  O       8.051377     36.774657     10.819525
  O       8.618017     34.301994     10.438374
  C       9.796581     34.070305     11.202008
  C      10.129313     32.580494     11.108067
  O      11.498545     32.422454     10.653919
  C      10.015170     31.789687     12.409545
  O       9.536512     30.451221     12.226726
  C      11.473482     31.694625     12.866174
  O      11.727199     30.677830     13.790029
  C      12.157919     31.510204     11.503512
  N      13.567879     31.787384     11.467483
  C      14.194166     33.013074     11.469844
  N      15.501191     32.932901     11.401682
  C      15.752487     31.578054     11.351304
  C      16.933263     30.825718     11.260291
  N      18.161402     31.399155     11.265004
  N      16.843759     29.487776     11.200968
  C      15.629163     28.924762     11.245716
  N      14.441809     29.517396     11.342359
  C      14.564083     30.844432     11.386537
  H       7.746570     37.103980      9.951101
  H      10.622976     34.639544     10.769044
  H       9.639672     34.383253     12.239341
  H       9.465705     32.155272     10.350599
  H       9.357628     32.276251     13.132602
  H       9.462581     30.272490     11.281368
  H      11.807776     32.643395     13.301512
  H      11.173827     29.932293     13.507986
  H      12.052862     30.466771     11.171803
  H      13.621213     33.928421     11.488452
  H      18.211242     32.377912     11.030080
  H      18.924803     30.812732     10.967264
  H      15.616426     27.839760     11.183698
162
Coordinates from ORCA-job amp_frame12_dry_r2scan E -13470.336386112527
  Si      3.417888     33.837683      7.856044
  Si      3.476673     30.736876      7.846659
  O       2.156912     34.643419      8.527419
  O       2.272842     29.791845      8.433583
  O       3.369821     32.266575      8.366185
  O       3.247631     33.808699      6.214427
  O       3.463149     30.800353      6.196611
  Si      6.139195     26.161393      7.844430
  Si      8.772975     24.541203      7.877896
  O       4.720701     25.599917      8.416331
  O       7.419229     25.295831      8.388220
  O       8.697746     23.013759      8.450002
  O       6.187749     26.132011      6.194995
  O       8.763620     24.592898      6.229684
  Si      6.152566     29.235208      7.719155
  Si      6.175704     35.510275      8.205274
  Si      8.971817     33.925994      7.610894
  Si      8.907755     30.818329      7.617590
  O       4.885909     30.046083      8.330500
  O       4.790924     34.546667      8.256353
  O       7.614397     34.736319      7.781738
  O       7.526543     30.058575      8.026170
  O       6.272909     27.717146      8.320515
  O       8.875164     32.359267      8.128787
  O       5.880979     29.111705      6.098359
  O       5.814063     36.003742      6.562653
  O       9.371430     33.803051      5.996896
  O       9.108858     30.843050      5.988899
  Si      6.277001     38.661537      7.929048
  Si      9.009508     40.066537      7.834359
  O       4.969336     39.535150      8.406724
  O       7.592779     39.538291      8.431894
  O       6.396719     37.180354      8.588310
  O       9.389666     41.602215      8.248706
  O       6.403497     38.539022      6.295978
  O       8.962082     39.871468      6.197423
  Si     11.454962     26.056804      7.804295
  Si     14.127784     24.540406      7.860244
  O      10.109628     25.342370      8.393195
  O      12.818513     25.369110      8.379298
  O      13.914012     23.005602      8.374051
  O      11.396960     25.795350      6.176934
  O      14.153673     24.637276      6.214133
  Si     11.517268     29.228696      7.748539
  Si     11.687359     35.381570      7.699769
  Si     14.279807     33.767425      7.773544
  Si     14.192468     30.706074      7.773969
  O      10.170355     29.986598      8.281952
  O      10.295450     34.717148      8.208515
  O      13.020216     34.645363      8.330927
  O      12.878859     29.914379      8.342630
  O      11.442398     27.648157      8.145061
  O      14.316488     32.231956      8.348919
  O      11.545891     29.389015      6.109985
  O      11.790046     35.163351      6.067554
  O      14.111912     33.620747      6.139858
  O      13.998618     30.803665      6.139279
  Si     11.677934     38.567162      7.780781
  Si     14.380940     40.047339      7.854581
  O      10.299703     39.194185      8.377178
  O      13.020288     39.303601      8.378829
  O      11.764014     36.965979      8.078996
  O      14.556886     41.578836      8.393700
  O      11.732151     38.869307      6.161170
  O      14.401642     39.947707      6.208114
  Si     16.855757     25.984573      7.885854
  O      15.504816     25.226710      8.414773
  O      18.105716     25.092050      8.436769
  O      16.777546     26.001530      6.238344
  Si     16.917059     29.065609      7.806003
  Si     17.047627     35.328737      7.802988
  Si     19.681123     33.744441      7.848528
  Si     19.565280     30.654171      7.816163
  O      15.524194     29.837441      8.120383
  O      15.692663     34.499181      8.128372
  O      18.352092     34.530606      8.396368
  O      18.176832     29.962502      8.319614
  O      16.890213     27.541097      8.396457
  O      19.686197     32.190928      8.373905
  O      17.102912     28.846029      6.176138
  O      17.320214     35.409831      6.176746
  O      19.595261     33.686248      6.204706
  O      19.543590     30.717470      6.173219
  Si     16.998372     38.399877      7.839211
  O      15.720662     39.258621      8.381412
  O      18.444686     38.972205      8.340098
  O      16.947242     36.852574      8.374676
  O      16.897716     38.347442      6.193009
  O      20.745803     29.685310      8.388362
  O      21.084544     34.389015      8.379233
  H       4.074658     24.986772      8.036591
  H       1.410409     29.602015      8.036749
  H       1.410409     35.007985      8.036749
  H       4.074657     39.623228      8.036591
  H       8.948181     22.173255      8.038302
  H       8.948181     42.436745      8.038302
  H      14.277762     22.173204      8.038282
  H      14.277762     42.436796      8.038282
  H      18.960557     24.876228      8.036406
  H      18.960557     39.733772      8.036406
  H      21.624717     29.491420      8.036583
  H      21.624717     35.118580      8.036583
  H      13.359323     34.151699      5.806373
  H      10.978206     34.725621      5.733437
  H       9.204854     32.924227      5.624945
  H       9.883854     30.332899      5.694771
  H      12.356294     29.832894      5.796372
  H      14.043293     31.726270      5.820928
  H      13.548048     39.647553      5.845417
  H      10.867920     39.114590      5.788892
  H       8.153408     39.393393      5.922641
  H       6.218539     37.578924      6.091974
  H       5.278419     35.360882      6.086380
  H       3.302842     32.915616      5.844979
  H       4.140048     30.235871      5.791254
  H       6.037542     28.224612      5.741524
  H       6.958849     25.652425      5.851317
  H       9.596117     24.935903      5.861015
  H      12.244521     25.524455      5.791873
  H      14.960246     25.063277      5.877506
  H      16.916352     26.893891      5.872558
  H      17.721496     29.458833      5.754544
  H      19.565680     31.628202      5.833790
  H      18.888824     34.255548      5.848109
  H      17.126154     36.279140      5.791378
  H      16.120846     38.823825      5.852662
  P       7.468121     35.293739     10.998240
  O       7.164322     34.993113     12.400746
  O       6.373667     35.132528      9.926614
  O       8.056214     36.774025     10.826174
  O       8.617945     34.303740     10.426670
  C       9.793286     34.063038     11.190754
  C      10.120451     32.572097     11.098020
  O      11.490028     32.409013     10.644583
  C      10.003504     31.783268     12.400864
  O       9.526605     30.444154     12.218768
  C      11.461430     31.688670     12.859728
  O      11.714337     30.675774     13.788479
  C      12.148170     31.499400     11.498406
  N      13.557558     31.779196     11.464178
  C      14.180965     33.007187     11.464013
  N      15.488525     32.930198     11.397272
  C      15.742772     31.575676     11.349500
  C      16.925515     30.826923     11.258703
  N      18.151613     31.404938     11.260730
  N      16.840055     29.489083     11.201072
  C      15.627279     28.921946     11.247178
  N      14.437671     29.511189     11.343422
  C      14.556375     30.838669     11.385633
  H       7.756111     37.123059      9.966057
  H      10.621242     34.629377     10.757155
  H       9.638399     34.377056     12.228233
  H       9.455625     32.147839     10.340625
  H       9.344774     32.271490     13.121857
  H       9.440678     30.266981     11.274181
  H      11.795037     32.638831     13.292639
  H      11.166618     29.926386     13.505853
  H      12.044600     30.454629     11.170545
  H      13.605978     33.921258     11.479076
  H      18.197470     32.383376     11.023993
  H      18.916823     30.820843     10.963369
  H      15.618293     27.836865     11.186998
162
Coordinates from ORCA-job amp_frame12_dry_r2scan E -13470.336599517399
  Si      3.420983     33.838066      7.851734
  Si      3.478731     30.737673      7.839585
  O       2.162107     34.648345      8.523268
  O       2.275393     29.793071      8.426160
  O       3.367812     32.266536      8.361499
  O       3.252201     33.810902      6.209669
  O       3.468084     30.802021      6.189967
  Si      6.139024     26.160275      7.842269
  Si      8.773995     24.541392      7.875870
  O       4.721943     25.597616      8.417160
  O       7.419559     25.295275      8.385563
  O       8.701022     23.014717      8.450058
  O       6.186142     26.128954      6.192827
  O       8.764126     24.591412      6.227880
  Si      6.153003     29.233938      7.714875
  Si      6.178370     35.510194      8.208249
  Si      8.974484     33.926745      7.609414
  Si      8.907122     30.819100      7.615419
  O       4.887482     30.046823      8.323728
  O       4.796694     34.541979      8.258334
  O       7.624123     34.745247      7.786935
  O       7.527624     30.055299      8.019591
  O       6.271791     27.716356      8.317675
  O       8.871998     32.360076      8.126432
  O       5.881828     29.109337      6.094624
  O       5.816089     36.001066      6.565567
  O       9.371362     33.800253      5.995385
  O       9.110583     30.848742      5.987310
  Si      6.275254     38.662083      7.933719
  Si      9.009023     40.066327      7.838539
  O       4.971348     39.543168      8.403939
  O       7.593153     39.536098      8.438005
  O       6.387736     37.181274      8.594715
  O       9.386144     41.602198      8.254061
  O       6.404307     38.537431      6.300755
  O       8.961433     39.870788      6.201610
  Si     11.455164     26.057328      7.801293
  Si     14.127825     24.540696      7.856673
  O      10.109943     25.343451      8.390811
  O      12.818986     25.369897      8.376326
  O      13.911654     23.006177      8.370531
  O      11.396462     25.795064      6.174528
  O      14.154648     24.637598      6.210647
  Si     11.516384     29.229059      7.744814
  Si     11.688524     35.380884      7.696653
  Si     14.280714     33.766507      7.768145
  Si     14.192001     30.705390      7.767398
  O      10.169411     29.987089      8.279447
  O      10.298668     34.715633      8.208961
  O      13.021706     34.644066      8.326093
  O      12.878284     29.914734      8.337241
  O      11.441653     27.648790      8.141906
  O      14.316416     32.230783      8.342473
  O      11.544720     29.389202      6.106774
  O      11.787473     35.162615      6.065059
  O      14.111813     33.620948      6.135250
  O      13.997561     30.803624      6.133304
  Si     11.677620     38.566773      7.780146
  Si     14.380796     40.047211      7.853668
  O      10.300884     39.194706      8.378984
  O      13.021316     39.301983      8.377453
  O      11.765129     36.965495      8.076701
  O      14.553658     41.578498      8.395421
  O      11.731167     38.870684      6.160942
  O      14.401314     39.949093      6.207382
  Si     16.855835     25.984534      7.882958
  O      15.505367     25.225456      8.411199
  O      18.106175     25.094065      8.436472
  O      16.778570     26.001085      6.235598
  Si     16.916933     29.065240      7.801642
  Si     17.048480     35.328980      7.799174
  Si     19.681744     33.743996      7.845023
  Si     19.565599     30.653584      7.812567
  O      15.523539     29.836912      8.115795
  O      15.692985     34.499305      8.123155
  O      18.352498     34.530060      8.392070
  O      18.176792     29.962019      8.315746
  O      16.889301     27.541033      8.393072
  O      19.685907     32.190607      8.370064
  O      17.104168     28.844050      6.172931
  O      17.323145     35.410996      6.174008
  O      19.598011     33.685759      6.201219
  O      19.546289     30.716614      6.169276
  Si     16.998316     38.400006      7.836095
  O      15.721811     39.259800      8.379061
  O      18.445036     38.971065      8.337152
  O      16.947799     36.852627      8.371353
  O      16.896467     38.348777      6.190305
  O      20.745908     29.686075      8.388382
  O      21.084033     34.389031      8.378615
  H       4.074657     24.986772      8.036591
  H       1.410409     29.602015      8.036749
  H       1.410409     35.007985      8.036749
  H       4.074657     39.623228      8.036591
  H       8.948181     22.173255      8.038302
  H       8.948181     42.436745      8.038302
  H      14.277762     22.173204      8.038282
  H      14.277762     42.436796      8.038282
  H      18.960557     24.876228      8.036406
  H      18.960557     39.733772      8.036406
  H      21.624717     29.491420      8.036583
  H      21.624717     35.118580      8.036583
  H      13.359262     34.153534      5.804044
  H      10.974596     34.723763      5.733226
  H       9.209011     32.918064      5.628506
  H       9.881477     30.332354      5.691994
  H      12.354758     29.834736      5.793707
  H      14.043333     31.726592      5.815998
  H      13.547166     39.650863      5.844809
  H      10.866393     39.114973      5.789769
  H       8.152946     39.392815      5.927344
  H       6.221715     37.577967      6.097677
  H       5.282896     35.355920      6.089848
  H       3.317995     32.919159      5.838914
  H       4.143885     30.236136      5.785143
  H       6.038702     28.221641      5.739275
  H       6.957050     25.648834      5.849549
  H       9.596912     24.933484      5.858970
  H      12.244947     25.525480      5.790295
  H      14.961502     25.063682      5.874760
  H      16.919240     26.893171      5.869859
  H      17.720800     29.459113      5.751693
  H      19.570266     31.627121      5.829653
  H      18.893244     34.256323      5.843722
  H      17.125160     36.279583      5.789008
  H      16.119424     38.825789      5.851260
  P       7.468432     35.306090     10.997393
  O       7.165037     35.005921     12.399588
  O       6.370810     35.144802      9.931188
  O       8.063051     36.782110     10.831461
  O       8.610244     34.309713     10.424883
  C       9.788890     34.062164     11.181491
  C      10.110396     32.569170     11.088772
  O      11.479048     32.397043     10.632882
  C       9.991558     31.786392     12.394876
  O       9.514829     30.446411     12.218829
  C      11.449872     31.691958     12.854754
  O      11.701400     30.684507     13.790167
  C      12.137709     31.493762     11.494001
  N      13.545690     31.778493     11.459406
  C      14.165272     33.009799     11.458175
  N      15.473387     32.937161     11.390450
  C      15.731523     31.583312     11.342922
  C      16.916560     30.839780     11.248799
  N      18.139474     31.424797     11.247769
  N      16.837683     29.501843     11.189223
  C      15.626968     28.929577     11.236881
  N      14.434050     29.513612     11.336602
  C      14.548420     30.841613     11.380298
  H       7.765602     37.146823      9.977646
  H      10.615123     34.626178     10.741839
  H       9.641611     34.378190     12.219661
  H       9.442305     32.144771     10.334748
  H       9.333603     32.279472     13.113313
  H       9.418147     30.265996     11.276001
  H      11.783513     32.644378     13.282541
  H      11.155426     29.932878     13.510155
  H      12.036025     30.446146     11.175264
  H      13.587281     33.921915     11.472239
  H      18.180393     32.404463     11.015964
  H      18.907810     30.845706     10.949129
  H      15.622889     27.844651     11.174368
162
Coordinates from ORCA-job amp_frame12_dry_r2scan E -13470.336767300039
  Si      3.428641     33.846428      7.846977
  Si      3.481211     30.744830      7.831101
  O       2.176938     34.670626      8.514750
  O       2.275530     29.805555      8.419412
  O       3.366580     32.273537      8.355654
  O       3.266656     33.821026      6.204107
  O       3.473958     30.807516      6.182199
  Si      6.138858     26.160924      7.840115
  Si      8.774650     24.542504      7.873791
  O       4.722522     25.596956      8.417744
  O       7.420327     25.296993      8.382951
  O       8.701665     23.015899      8.447826
  O       6.184676     26.126006      6.190783
  O       8.764762     24.592896      6.226276
  Si      6.153571     29.234114      7.707673
  Si      6.181580     35.513521      8.205252
  Si      8.976056     33.925245      7.604176
  Si      8.912235     30.818055      7.610969
  O       4.889999     30.051880      8.313301
  O       4.808464     34.537755      8.267613
  O       7.621490     34.735273      7.784350
  O       7.532754     30.049415      8.005122
  O       6.269264     27.717519      8.314173
  O       8.867475     32.358082      8.120594
  O       5.879117     29.106051      6.088711
  O       5.818924     35.994519      6.563683
  O       9.371131     33.798008      5.990033
  O       9.123582     30.855584      5.984188
  Si      6.273982     38.664528      7.926262
  Si      9.011507     40.065784      7.832259
  O       4.980865     39.565200      8.386119
  O       7.597454     39.530416      8.431764
  O       6.368882     37.182922      8.589269
  O       9.385020     41.601427      8.253848
  O       6.404807     38.538678      6.292171
  O       8.963438     39.873592      6.194759
  Si     11.456522     26.056947      7.800959
  Si     14.128232     24.541218      7.853453
  O      10.110858     25.342997      8.389507
  O      12.820909     25.370418      8.375951
  O      13.905188     23.006150      8.362520
  O      11.397448     25.794285      6.174956
  O      14.156512     24.641067      6.207669
  Si     11.518968     29.227634      7.744377
  Si     11.688657     35.378580      7.688684
  Si     14.282290     33.765082      7.762943
  Si     14.192752     30.704224      7.763932
  O      10.172147     29.986579      8.277586
  O      10.303234     34.708047      8.207822
  O      13.022528     34.642665      8.318623
  O      12.879487     29.914903      8.335229
  O      11.441555     27.648142      8.141857
  O      14.316691     32.229465      8.337389
  O      11.549359     29.385317      6.106979
  O      11.785375     35.156935      6.058629
  O      14.113678     33.618412      6.131090
  O      13.997443     30.802215      6.130580
  Si     11.678109     38.565072      7.770260
  Si     14.380961     40.047057      7.849752
  O      10.303622     39.195037      8.369614
  O      13.023647     39.296971      8.369344
  O      11.764401     36.964359      8.064735
  O      14.546697     41.577328      8.397552
  O      11.733166     38.873445      6.152006
  O      14.402997     39.953438      6.203763
  Si     16.856126     25.984237      7.881266
  O      15.507212     25.221896      8.408213
  O      18.107577     25.097448      8.437343
  O      16.780357     26.001153      6.234188
  Si     16.917537     29.064556      7.799580
  Si     17.049866     35.329529      7.795184
  Si     19.682699     33.742915      7.841217
  Si     19.566105     30.652769      7.809580
  O      15.523862     29.835738      8.113691
  O      15.694031     34.499340      8.117285
  O      18.353826     34.529702      8.387376
  O      18.177716     29.961406      8.313556
  O      16.887718     27.540370      8.391393
  O      19.685619     32.190091      8.366875
  O      17.106174     28.841008      6.172455
  O      17.327779     35.412878      6.171681
  O      19.600820     33.683944      6.197590
  O      19.549825     30.716047      6.165804
  Si     16.997996     38.399669      7.830419
  O      15.724132     39.262482      8.373977
  O      18.447173     38.966794      8.328808
  O      16.948152     36.853144      8.367214
  O      16.893602     38.349079      6.185225
  O      20.745983     29.685425      8.387846
  O      21.084484     34.387987      8.376322
  H       4.074658     24.986772      8.036591
  H       1.410409     29.602015      8.036749
  H       1.410409     35.007985      8.036749
  H       4.074657     39.623228      8.036591
  H       8.948181     22.173255      8.038302
  H       8.948181     42.436745      8.038302
  H      14.277762     22.173204      8.038282
  H      14.277762     42.436796      8.038282
  H      18.960557     24.876228      8.036406
  H      18.960557     39.733772      8.036406
  H      21.624717     29.491420      8.036583
  H      21.624717     35.118580      8.036583
  H      13.357298     34.147090      5.802393
  H      10.973453     34.713384      5.730293
  H       9.231723     32.907828      5.632252
  H       9.889431     30.332831      5.688396
  H      12.358835     29.833222      5.795617
  H      14.042798     31.725920      5.814871
  H      13.548462     39.656639      5.840720
  H      10.867327     39.119459      5.783105
  H       8.153435     39.397328      5.920074
  H       6.203620     37.585456      6.083165
  H       5.282808     35.347700      6.093578
  H       3.336986     32.928823      5.834652
  H       4.149090     30.238031      5.780171
  H       6.036166     28.217296      5.735986
  H       6.956070     25.645837      5.848527
  H       9.598559     24.933470      5.858044
  H      12.247233     25.527196      5.791876
  H      14.963288     25.068635      5.873582
  H      16.922906     26.893311      5.869339
  H      17.719412     29.459948      5.751948
  H      19.573493     31.626323      5.825939
  H      18.897562     34.255666      5.839515
  H      17.124289     36.280753      5.787540
  H      16.115637     38.826516      5.848533
  P       7.482429     35.313633     10.989384
  O       7.181146     35.034037     12.396185
  O       6.379821     35.145936      9.934621
  O       8.099117     36.776571     10.807695
  O       8.611127     34.298607     10.426905
  C       9.789882     34.048529     11.179387
  C      10.102932     32.554321     11.083553
  O      11.469557     32.369470     10.624155
  C       9.980842     31.774747     12.389970
  O       9.511154     30.432081     12.215046
  C      11.438482     31.684595     12.854875
  O      11.688993     30.683561     13.797551
  C      12.130499     31.477551     11.496174
  N      13.536335     31.770599     11.461756
  C      14.150216     33.005896     11.453975
  N      15.458788     32.938966     11.383989
  C      15.722792     31.586103     11.341096
  C      16.910934     30.848575     11.244621
  N      18.129774     31.441984     11.237934
  N      16.840134     29.509952     11.188066
  C      15.631904     28.931982     11.240349
  N      14.435361     29.509876     11.342211
  C      14.544241     30.838730     11.383389
  H       7.789875     37.152192      9.964052
  H      10.615093     34.611434     10.735405
  H       9.645844     34.366099     12.217624
  H       9.429089     32.137062     10.330001
  H       9.319675     32.268526     13.104959
  H       9.397112     30.253923     11.273881
  H      11.768540     32.640421     13.277615
  H      11.150581     29.926904     13.516669
  H      12.033713     30.426218     11.189286
  H      13.567597     33.915028     11.465085
  H      18.164325     32.422128     11.008219
  H      18.901306     30.868159     10.938150
  H      15.633428     27.847005     11.178453
162
Coordinates from ORCA-job amp_frame12_dry_r2scan E -13470.336931896007
  Si      3.435486     33.850456      7.848551
  Si      3.480699     30.747913      7.829984
  O       2.185305     34.682673      8.511220
  O       2.273815     29.811626      8.418969
  O       3.365866     32.276590      8.353872
  O       3.282505     33.828204      6.205038
  O       3.473856     30.807828      6.181370
  Si      6.137780     26.161646      7.840704
  Si      8.773790     24.543005      7.874184
  O       4.721761     25.596969      8.418450
  O       7.419964     25.298494      8.383160
  O       8.699847     23.015858      8.446787
  O       6.182481     26.125363      6.191286
  O       8.764513     24.594039      6.226826
  Si      6.150625     29.234647      7.707262
  Si      6.183359     35.515266      8.218003
  Si      8.975565     33.925555      7.608701
  Si      8.909186     30.817588      7.611072
  O       4.888955     30.054786      8.311719
  O       4.815162     34.535035      8.284039
  O       7.630683     34.745337      7.799582
  O       7.530778     30.047201      8.002324
  O       6.265250     27.718178      8.314706
  O       8.865099     32.357241      8.122582
  O       5.875670     29.105056      6.088250
  O       5.820422     35.991238      6.575235
  O       9.364992     33.798526      5.993066
  O       9.122611     30.856315      5.984262
  Si      6.272782     38.669030      7.933148
  Si      9.012211     40.066501      7.839074
  O       4.981848     39.577089      8.381652
  O       7.596979     39.533771      8.439724
  O       6.359595     37.190428      8.601320
  O       9.386408     41.603185      8.257828
  O       6.411406     38.535272      6.299761
  O       8.964566     39.872677      6.201462
  Si     11.455991     26.056633      7.803522
  Si     14.128310     24.541815      7.854365
  O      10.110139     25.341951      8.390925
  O      12.820823     25.370047      8.378365
  O      13.903817     23.006067      8.361049
  O      11.397934     25.795140      6.177325
  O      14.156609     24.642407      6.208482
  Si     11.517181     29.226852      7.747658
  Si     11.688256     35.376527      7.694081
  Si     14.282435     33.764524      7.768319
  Si     14.191376     30.704061      7.768934
  O      10.168806     29.986019      8.278757
  O      10.305479     34.702534      8.213921
  O      13.022558     34.641245      8.323080
  O      12.876973     29.915290      8.338809
  O      11.439499     27.647542      8.146271
  O      14.315441     32.228910      8.342073
  O      11.549238     29.382446      6.109992
  O      11.782787     35.155633      6.064051
  O      14.113911     33.618289      6.136240
  O      13.996639     30.801854      6.135476
  Si     11.677115     38.563120      7.776214
  Si     14.379570     40.046542      7.853420
  O      10.304289     39.196344      8.376145
  O      13.024367     39.294175      8.373508
  O      11.762327     36.962456      8.070368
  O      14.542286     41.577337      8.401297
  O      11.731086     38.870490      6.157375
  O      14.401052     39.953551      6.207536
  Si     16.856098     25.985215      7.882642
  O      15.507797     25.221460      8.408859
  O      18.109164     25.100524      8.439090
  O      16.780592     26.002343      6.235599
  Si     16.916542     29.065355      7.802653
  Si     17.049556     35.329780      7.798869
  Si     19.682412     33.742869      7.842586
  Si     19.565790     30.652809      7.810792
  O      15.522839     29.835854      8.119313
  O      15.694410     34.498968      8.122104
  O      18.354307     34.529563      8.389510
  O      18.177896     29.961568      8.315736
  O      16.886564     27.540717      8.393334
  O      19.685833     32.190066      8.367884
  O      17.104237     28.843594      6.175243
  O      17.326073     35.413593      6.175137
  O      19.600063     33.684262      6.199085
  O      19.549475     30.715754      6.166764
  Si     16.996910     38.399764      7.832773
  O      15.724125     39.263578      8.376648
  O      18.447288     38.966465      8.328495
  O      16.948284     36.853625      8.370814
  O      16.891123     38.348804      6.187651
  O      20.745985     29.684945      8.388364
  O      21.084595     34.388173      8.376986
  H       4.074657     24.986772      8.036591
  H       1.410409     29.602015      8.036749
  H       1.410409     35.007985      8.036749
  H       4.074657     39.623228      8.036591
  H       8.948181     22.173255      8.038302
  H       8.948181     42.436745      8.038302
  H      14.277762     22.173204      8.038282
  H      14.277762     42.436796      8.038282
  H      18.960557     24.876228      8.036406
  H      18.960557     39.733772      8.036406
  H      21.624717     29.491420      8.036583
  H      21.624717     35.118580      8.036583
  H      13.356406     34.145729      5.808170
  H      10.969794     34.712135      5.737253
  H       9.227217     32.907589      5.636348
  H       9.886196     30.330357      5.688322
  H      12.357975     29.832470      5.799585
  H      14.041905     31.725707      5.820161
  H      13.546633     39.656107      5.844536
  H      10.864775     39.118221      5.790329
  H       8.155770     39.394796      5.926248
  H       6.225345     37.577652      6.094258
  H       5.301939     35.331973      6.101863
  H       3.351081     32.936059      5.835196
  H       4.151116     30.240181      5.780506
  H       6.031392     28.215923      5.736040
  H       6.954446     25.646778      5.848303
  H       9.597898     24.935408      5.858596
  H      12.248058     25.528510      5.794499
  H      14.962694     25.071217      5.874340
  H      16.922677     26.894471      5.870573
  H      17.718607     29.462575      5.756161
  H      19.572541     31.625750      5.826159
  H      18.896715     34.255891      5.841119
  H      17.121931     36.281450      5.791231
  H      16.112863     38.826165      5.851423
  P       7.496159     35.333379     10.999526
  O       7.191174     35.069585     12.409011
  O       6.395942     35.160012      9.944303
  O       8.121334     36.792085     10.800310
  O       8.617954     34.302494     10.445522
  C       9.797830     34.044894     11.192097
  C      10.103524     32.548716     11.090499
  O      11.467392     32.357361     10.626793
  C       9.980785     31.768444     12.395357
  O       9.514529     30.424545     12.219154
  C      11.437892     31.680181     12.861130
  O      11.688786     30.680420     13.804987
  C      12.130188     31.470449     11.502877
  N      13.535737     31.765523     11.468000
  C      14.147419     33.001584     11.459506
  N      15.455812     32.937105     11.388228
  C      15.722441     31.585002     11.345060
  C      16.911815     30.849702     11.248104
  N      18.129295     31.446277     11.240354
  N      16.844509     29.510513     11.192479
  C      15.636964     28.930956     11.245492
  N      14.439291     29.506286     11.347810
  C      14.545503     30.835415     11.388443
  H       7.798107     37.160170      9.957796
  H      10.625125     34.604695     10.746669
  H       9.657222     34.360703     12.231431
  H       9.426823     32.136002     10.336358
  H       9.318340     32.261406     13.109816
  H       9.393682     30.251173     11.277936
  H      11.767453     32.636743     13.282562
  H      11.151901     29.922734     13.523968
  H      12.035293     30.417959     11.199793
  H      13.562870     33.909508     11.471857
  H      18.161261     32.427079     11.012876
  H      18.902880     30.874569     10.941790
  H      15.640380     27.845926     11.184484
162
Coordinates from ORCA-job amp_frame12_dry_r2scan E -13470.337077794682
  Si      3.436102     33.851188      7.852625
  Si      3.479604     30.748298      7.832253
  O       2.188023     34.689095      8.511561
  O       2.275975     29.805807      8.417070
  O       3.361362     32.276641      8.355708
  O       3.287665     33.830466      6.209515
  O       3.474301     30.808899      6.183815
  Si      6.137262     26.163072      7.843557
  Si      8.773054     24.543788      7.876530
  O       4.721173     25.597075      8.419603
  O       7.419864     25.300190      8.385922
  O       8.699255     23.015707      8.447504
  O       6.181943     26.127775      6.194082
  O       8.764014     24.596071      6.229219
  Si      6.149030     29.236394      7.710769
  Si      6.179466     35.515475      8.232728
  Si      8.971102     33.929575      7.620721
  Si      8.906689     30.820922      7.616287
  O       4.888511     30.058129      8.315285
  O       4.815830     34.530286      8.296083
  O       7.628742     34.754001      7.814230
  O       7.529434     30.048044      8.005953
  O       6.262686     27.719437      8.318326
  O       8.862117     32.359664      8.132917
  O       5.874834     29.105687      6.091253
  O       5.820757     35.991924      6.589500
  O       9.358462     33.803566      6.004111
  O       9.121281     30.862546      5.989150
  Si      6.274326     38.667513      7.937707
  Si      9.013472     40.065938      7.845030
  O       4.983667     39.582802      8.378406
  O       7.598623     39.531834      8.446390
  O       6.351012     37.190878      8.613743
  O       9.387645     41.604192      8.261048
  O       6.420535     38.529055      6.304799
  O       8.966530     39.871536      6.207575
  Si     11.455268     26.057744      7.807618
  Si     14.127976     24.542819      7.857345
  O      10.109228     25.342341      8.394109
  O      12.820287     25.370498      8.382569
  O      13.903775     23.006056      8.361800
  O      11.398536     25.797048      6.181034
  O      14.155440     24.644479      6.211379
  Si     11.515429     29.228574      7.753465
  Si     11.685307     35.377481      7.704399
  Si     14.280397     33.766377      7.778011
  Si     14.189874     30.706029      7.778130
  O      10.166445     29.988295      8.282762
  O      10.303844     34.701175      8.224109
  O      13.020183     34.642526      8.332863
  O      12.874545     29.917471      8.345986
  O      11.437883     27.648667      8.151853
  O      14.313881     32.230724      8.351240
  O      11.547965     29.383372      6.115198
  O      11.777959     35.156885      6.074078
  O      14.110692     33.621120      6.145266
  O      13.996131     30.803908      6.144292
  Si     11.677285     38.562845      7.784257
  Si     14.379281     40.046880      7.858009
  O      10.304935     39.197359      8.383604
  O      13.025136     39.294202      8.379625
  O      11.760158     36.963037      8.079417
  O      14.541367     41.578098      8.403631
  O      11.730719     38.867385      6.164593
  O      14.400399     39.952964      6.212162
  Si     16.855757     25.986206      7.885749
  O      15.507601     25.222385      8.411897
  O      18.109806     25.101116      8.440438
  O      16.779433     26.004272      6.238711
  Si     16.915257     29.066749      7.808490
  Si     17.048350     35.330363      7.805045
  Si     19.681409     33.743247      7.846253
  Si     19.565070     30.653455      7.814264
  O      15.521730     29.837156      8.127318
  O      15.693470     34.500019      8.130064
  O      18.353847     34.529655      8.394597
  O      18.177755     29.962452      8.320463
  O      16.886024     27.541322      8.397518
  O      19.685963     32.190407      8.371501
  O      17.101089     28.847428      6.180107
  O      17.322464     35.413900      6.180417
  O      19.596966     33.685107      6.202949
  O      19.546943     30.716345      6.170393
  Si     16.996271     38.400057      7.837497
  O      15.723757     39.264103      8.381402
  O      18.447193     38.967239      8.330698
  O      16.948260     36.854398      8.377034
  O      16.889966     38.347515      6.192214
  O      20.745772     29.684248      8.389014
  O      21.084621     34.388548      8.378278
  H       4.074658     24.986772      8.036591
  H       1.410409     29.602015      8.036749
  H       1.410409     35.007985      8.036749
  H       4.074657     39.623228      8.036591
  H       8.948181     22.173255      8.038302
  H       8.948181     42.436745      8.038302
  H      14.277762     22.173204      8.038282
  H      14.277762     42.436796      8.038282
  H      18.960557     24.876228      8.036406
  H      18.960557     39.733772      8.036406
  H      21.624717     29.491420      8.036583
  H      21.624717     35.118580      8.036583
  H      13.354095     34.150200      5.817170
  H      10.962311     34.716751      5.748533
  H       9.222320     32.912275      5.646979
  H       9.884293     30.335942      5.692677
  H      12.356065     29.834368      5.804888
  H      14.042211     31.727817      5.829057
  H      13.546322     39.654958      5.848926
  H      10.865039     39.117215      5.797905
  H       8.158558     39.393124      5.931220
  H       6.232370     37.571840      6.098659
  H       5.321343     35.323197      6.109439
  H       3.350984     32.937952      5.839965
  H       4.153192     30.242973      5.783616
  H       6.027458     28.215751      5.739546
  H       6.955153     25.651972      5.850038
  H       9.596928     24.938317      5.860918
  H      12.248540     25.530134      5.797918
  H      14.960718     25.074561      5.876809
  H      16.920550     26.896547      5.873692
  H      17.717570     29.464931      5.761783
  H      19.568116     31.626284      5.829351
  H      18.892856     34.256599      5.845936
  H      17.120142     36.281983      5.796148
  H      16.111428     38.823926      5.855451
  P       7.499407     35.334188     11.005351
  O       7.197863     35.070587     12.416310
  O       6.397500     35.167669      9.951795
  O       8.131495     36.788041     10.803050
  O       8.620147     34.297880     10.452849
  C       9.799150     34.040686     11.203597
  C      10.102214     32.543803     11.103516
  O      11.463231     32.350886     10.635447
  C       9.983519     31.764399     12.408646
  O       9.521061     30.418890     12.234438
  C      11.440961     31.679854     12.871456
  O      11.695626     30.681063     13.814912
  C      12.130418     31.469134     11.512792
  N      13.535957     31.765047     11.474448
  C      14.146102     33.000583     11.466810
  N      15.453940     32.937751     11.393395
  C      15.722660     31.586277     11.348798
  C      16.912934     30.851589     11.252533
  N      18.130226     31.447987     11.244850
  N      16.846309     29.511859     11.198416
  C      15.639117     28.932153     11.251810
  N      14.441894     29.506603     11.353692
  C      14.546244     30.835841     11.393050
  H       7.807689     37.171300      9.966907
  H      10.629962     34.596574     10.761674
  H       9.655477     34.356798     12.242371
  H       9.423160     32.132623     10.352072
  H       9.321226     32.256673     13.123893
  H       9.387232     30.251717     11.293885
  H      11.770417     32.637236     13.291071
  H      11.159252     29.922440     13.535474
  H      12.037083     30.416136     11.211174
  H      13.560306     33.907780     11.482283
  H      18.161646     32.428721     11.016388
  H      18.904067     30.876255     10.946691
  H      15.642725     27.846931     11.193031
162
Coordinates from ORCA-job amp_frame12_dry_r2scan E -13470.337179813032
  Si      3.440043     33.855866      7.854622
  Si      3.478352     30.752211      7.833323
  O       2.196607     34.704491      8.507651
  O       2.275466     29.808732      8.417024
  O       3.357927     32.280822      8.355758
  O       3.299377     33.835122      6.211352
  O       3.474444     30.813143      6.184911
  Si      6.136373     26.164551      7.845286
  Si      8.772315     24.544357      7.877165
  O       4.720735     25.596883      8.420890
  O       7.419918     25.302343      8.386830
  O       8.697269     23.015675      8.446644
  O       6.180863     26.130385      6.195773
  O       8.763287     24.598164      6.229829
  Si      6.147004     29.238142      7.711555
  Si      6.178879     35.517811      8.236316
  Si      8.970017     33.929940      7.624668
  Si      8.906879     30.821659      7.617610
  O       4.888126     30.062916      8.316273
  O       4.820684     34.526664      8.307160
  O       7.629968     34.757403      7.821426
  O       7.529697     30.046775      8.004180
  O       6.259267     27.721141      8.320002
  O       8.859947     32.359512      8.136293
  O       5.870700     29.106349      6.092110
  O       5.820539     35.989828      6.592313
  O       9.355155     33.805617      6.007548
  O       9.124243     30.866738      5.990534
  Si      6.274534     38.669442      7.935032
  Si      9.014746     40.066324      7.846646
  O       4.986966     39.592544      8.370281
  O       7.600172     39.529786      8.446619
  O       6.340468     37.194407      8.614776
  O       9.387171     41.604764      8.264731
  O       6.427306     38.527268      6.302862
  O       8.969228     39.873620      6.208981
  Si     11.455119     26.057938      7.809617
  Si     14.127767     24.543263      7.858496
  O      10.109043     25.341719      8.395421
  O      12.820403     25.370930      8.384727
  O      13.902362     23.005883      8.360638
  O      11.399103     25.797692      6.182798
  O      14.154627     24.647080      6.212576
  Si     11.515233     29.228487      7.756003
  Si     11.684989     35.376029      7.709006
  Si     14.280687     33.766627      7.782506
  Si     14.189830     30.706400      7.782548
  O      10.165863     29.988229      8.283871
  O      10.305056     34.696522      8.228505
  O      13.020645     34.642805      8.337389
  O      12.874032     29.917695      8.349045
  O      11.436946     27.648601      8.155144
  O      14.314277     32.231085      8.355483
  O      11.548270     29.381995      6.117282
  O      11.778452     35.155109      6.078574
  O      14.110859     33.620727      6.149206
  O      13.996730     30.803689      6.148354
  Si     11.677773     38.561548      7.787360
  Si     14.378834     40.047085      7.860980
  O      10.305869     39.198094      8.385581
  O      13.026134     39.291849      8.382550
  O      11.758311     36.961769      8.082659
  O      14.537301     41.578280      8.407261
  O      11.731525     38.865608      6.167438
  O      14.399997     39.953874      6.214891
  Si     16.855994     25.986643      7.887973
  O      15.508135     25.221520      8.413161
  O      18.111556     25.103737      8.442638
  O      16.779448     26.004818      6.240850
  Si     16.914718     29.067253      7.811612
  Si     17.048408     35.330585      7.807466
  Si     19.681445     33.743364      7.848309
  Si     19.564959     30.653448      7.816611
  O      15.521649     29.837558      8.132041
  O      15.694103     34.500008      8.133393
  O      18.354028     34.529781      8.396945
  O      18.177903     29.962467      8.322991
  O      16.884985     27.541641      8.400129
  O      19.686471     32.190430      8.373371
  O      17.099815     28.848952      6.182684
  O      17.322071     35.414144      6.182466
  O      19.595979     33.685297      6.205022
  O      19.545191     30.716025      6.172889
  Si     16.995987     38.400079      7.839396
  O      15.724322     39.265315      8.383528
  O      18.447677     38.966832      8.330701
  O      16.948112     36.854597      8.379668
  O      16.888019     38.345973      6.194058
  O      20.746127     29.684053      8.389996
  O      21.084970     34.388778      8.379397
  H       4.074657     24.986772      8.036591
  H       1.410409     29.602015      8.036749
  H       1.410409     35.007985      8.036749
  H       4.074657     39.623228      8.036591
  H       8.948181     22.173255      8.038302
  H       8.948181     42.436745      8.038302
  H      14.277762     22.173204      8.038282
  H      14.277762     42.436796      8.038282
  H      18.960557     24.876228      8.036406
  H      18.960557     39.733772      8.036406
  H      21.624717     29.491420      8.036583
  H      21.624717     35.118580      8.036583
  H      13.354129     34.148758      5.820177
  H      10.962877     34.715804      5.752283
  H       9.223511     32.913131      5.651625
  H       9.886013     30.338590      5.693947
  H      12.356441     29.832636      5.806897
  H      14.042644     31.727475      5.832776
  H      13.545986     39.655158      5.851944
  H      10.865949     39.117367      5.801519
  H       8.162438     39.393384      5.931921
  H       6.238948     37.570280      6.097410
  H       5.333198     35.314506      6.109059
  H       3.356882     32.941546      5.843108
  H       4.152387     30.245289      5.785560
  H       6.021558     28.216020      5.740592
  H       6.954324     25.655282      5.851280
  H       9.596605     24.939694      5.861791
  H      12.249023     25.530850      5.799444
  H      14.960123     25.077122      5.878406
  H      16.920722     26.897107      5.875937
  H      17.718420     29.464840      5.765015
  H      19.566052     31.626068      5.831948
  H      18.891684     34.257068      5.848613
  H      17.120067     36.282174      5.797810
  H      16.109534     38.822912      5.857764
  P       7.510977     35.341099     11.009709
  O       7.211976     35.096779     12.425031
  O       6.404836     35.175179      9.960504
  O       8.159178     36.785628     10.785531
  O       8.621821     34.289396     10.464296
  C       9.802356     34.031867     11.212693
  C      10.100207     32.534378     11.109013
  O      11.458072     32.336753     10.635781
  C       9.983779     31.753391     12.412996
  O       9.526123     30.406440     12.237416
  C      11.441333     31.672024     12.874263
  O      11.699190     30.673706     13.817358
  C      12.129831     31.461398     11.515662
  N      13.534654     31.761290     11.475628
  C      14.140808     32.998121     11.467944
  N      15.448567     32.939542     11.393373
  C      15.721749     31.588868     11.348392
  C      16.914488     30.857459     11.252578
  N      18.130020     31.456298     11.243121
  N      16.850837     29.517388     11.200751
  C      15.645588     28.934253     11.255525
  N      14.447376     29.505504     11.356267
  C      14.547328     30.835083     11.393659
  H       7.825869     37.172422      9.955163
  H      10.633949     34.586154     10.769849
  H       9.661606     34.346555     12.252288
  H       9.417135     32.128368     10.358428
  H       9.320780     32.243488     13.129302
  H       9.377398     30.246160     11.297930
  H      11.769545     32.629895     13.293718
  H      11.166061     29.913082     13.537309
  H      12.040679     30.407515     11.215901
  H      13.552187     33.903553     11.484492
  H      18.158794     32.436823     11.013313
  H      18.905406     30.886197     10.945945
  H      15.652018     27.848888     11.198658
162
Coordinates from ORCA-job amp_frame12_dry_r2scan E -13470.337265868478
  Si      3.444574     33.861850      7.856414
  Si      3.476167     30.757160      7.834187
  O       2.207259     34.724145      8.501959
  O       2.275248     29.810962      8.416898
  O       3.352401     32.286163      8.355425
  O       3.312807     33.839502      6.212933
  O       3.473182     30.819569      6.185663
  Si      6.134795     26.166662      7.845695
  Si      8.770847     24.544839      7.875778
  O       4.719843     25.597513      8.421451
  O       7.419563     25.305136      8.385926
  O       8.693986     23.015862      8.444473
  O       6.178560     26.133959      6.196164
  O       8.761264     24.599766      6.228365
  Si      6.144403     29.240770      7.711209
  Si      6.179580     35.520615      8.242067
  Si      8.970135     33.930128      7.627086
  Si      8.907163     30.822723      7.616661
  O       4.887687     30.069414      8.316989
  O       4.826566     34.522197      8.319170
  O       7.633169     34.761076      7.829329
  O       7.530052     30.045812      8.000891
  O       6.255286     27.723678      8.320388
  O       8.858531     32.359337      8.137820
  O       5.865309     29.108193      6.092068
  O       5.819642     35.987182      6.596642
  O       9.351783     33.808601      6.009198
  O       9.126241     30.871945      5.989608
  Si      6.275277     38.671842      7.930869
  Si      9.016183     40.067181      7.846549
  O       4.991275     39.604412      8.359095
  O       7.602097     39.528295      8.445732
  O       6.328781     37.199637      8.616474
  O       9.387441     41.605434      8.266875
  O       6.435947     38.523657      6.300315
  O       8.971968     39.876472      6.208840
  Si     11.454522     26.057961      7.808356
  Si     14.127036     24.543379      7.857264
  O      10.108620     25.340953      8.394061
  O      12.820067     25.371576      8.383872
  O      13.900572     23.005846      8.358394
  O      11.399062     25.797945      6.181431
  O      14.153374     24.648657      6.211410
  Si     11.514734     29.228040      7.754213
  Si     11.685937     35.374781      7.711604
  Si     14.281812     33.766483      7.782897
  Si     14.189870     30.706092      7.781551
  O      10.165660     29.988029      8.281279
  O      10.307833     34.691818      8.230944
  O      13.022726     34.643130      8.339060
  O      12.873800     29.917129      8.347151
  O      11.435700     27.648382      8.155025
  O      14.315063     32.230708      8.354945
  O      11.547658     29.380201      6.115056
  O      11.779349     35.154752      6.080717
  O      14.111872     33.621204      6.148997
  O      13.997882     30.803009      6.146962
  Si     11.678926     38.560537      7.788983
  Si     14.379002     40.047676      7.862617
  O      10.306883     39.198463      8.386218
  O      13.027368     39.289955      8.384220
  O      11.757362     36.960578      8.084986
  O      14.534144     41.578488      8.410360
  O      11.732947     38.863763      6.168894
  O      14.399954     39.955828      6.216175
  Si     16.856258     25.986453      7.887961
  O      15.508117     25.220619      8.411964
  O      18.112854     25.106132      8.444068
  O      16.780409     26.003848      6.240680
  Si     16.914042     29.067229      7.810584
  Si     17.049123     35.330111      7.806933
  Si     19.682299     33.742991      7.848059
  Si     19.564848     30.652684      7.816213
  O      15.521368     29.837337      8.132325
  O      15.695662     34.498751      8.133694
  O      18.354689     34.529429      8.396723
  O      18.177295     29.962326      8.321951
  O      16.883829     27.541812      8.399575
  O      19.687313     32.189721      8.372561
  O      17.098972     28.849642      6.181247
  O      17.322455     35.413778      6.181680
  O      19.596396     33.685279      6.204689
  O      19.544131     30.714872      6.172692
  Si     16.996289     38.399615      7.839403
  O      15.725274     39.265950      8.383907
  O      18.448500     38.965849      8.329713
  O      16.948047     36.853936      8.379803
  O      16.886832     38.344256      6.193988
  O      20.745504     29.682592      8.389095
  O      21.085773     34.388200      8.379398
  H       4.074657     24.986772      8.036591
  H       1.410409     29.602015      8.036749
  H       1.410409     35.007985      8.036749
  H       4.074657     39.623228      8.036591
  H       8.948181     22.173255      8.038302
  H       8.948181     42.436745      8.038302
  H      14.277762     22.173204      8.038282
  H      14.277762     42.436796      8.038282
  H      18.960557     24.876228      8.036406
  H      18.960557     39.733772      8.036406
  H      21.624717     29.491420      8.036583
  H      21.624717     35.118580      8.036583
  H      13.355522     34.148888      5.819154
  H      10.963173     34.718137      5.753232
  H       9.224405     32.915067      5.654198
  H       9.886288     30.341800      5.692400
  H      12.356561     29.828902      5.804049
  H      14.044070     31.726518      5.830847
  H      13.546275     39.655640      5.853579
  H      10.867715     39.117583      5.803319
  H       8.167030     39.393125      5.931371
  H       6.241707     37.567733      6.097345
  H       5.344732     35.305941      6.109242
  H       3.365567     32.944954      5.846098
  H       4.148636     30.248637      5.786198
  H       6.015417     28.217785      5.740445
  H       6.951431     25.658521      5.850839
  H       9.594731     24.940706      5.860164
  H      12.248674     25.530724      5.797775
  H      14.959562     25.077575      5.877492
  H      16.921329     26.896072      5.875485
  H      17.720396     29.463231      5.764309
  H      19.565399     31.624991      5.831878
  H      18.891672     34.256817      5.848665
  H      17.120943     36.281747      5.796617
  H      16.108977     38.822462      5.857996
  P       7.523333     35.346481     11.008393
  O       7.229249     35.120083     12.427635
  O       6.408335     35.180886      9.967130
  O       8.187956     36.781362     10.763611
  O       8.622437     34.280958     10.467724
  C       9.802326     34.019612     11.216385
  C      10.094867     32.521008     11.110015
  O      11.450185     32.317709     10.632321
  C       9.979685     31.739394     12.413656
  O       9.526993     30.390933     12.237244
  C      11.437380     31.660948     12.873858
  O      11.698216     30.664452     13.818389
  C      12.125678     31.449019     11.515697
  N      13.529570     31.754138     11.474714
  C      14.130822     32.993194     11.465288
  N      15.438821     32.939852     11.390794
  C      15.717305     31.589964     11.347711
  C      16.913086     30.863042     11.253564
  N      18.126266     31.465727     11.241035
  N      16.853741     29.522737     11.205881
  C      15.651170     28.934639     11.262356
  N      14.451043     29.501718     11.360893
  C      14.545519     30.831680     11.394588
  H       7.845073     37.176928      9.942298
  H      10.637165     34.571587     10.775436
  H       9.661777     34.332656     12.256457
  H       9.407287     32.119964     10.360254
  H       9.316157     32.228375     13.130491
  H       9.355935     30.238242     11.300356
  H      11.764077     32.619721     13.292456
  H      11.170535     29.900464     13.537451
  H      12.041349     30.393986     11.218752
  H      13.538889     33.896525     11.480096
  H      18.151536     32.445543     11.007811
  H      18.903756     30.897523     10.945866
  H      15.661892     27.849111     11.209272
162
Coordinates from ORCA-job amp_frame12_dry_r2scan E -13470.337319327749
  Si      3.446097     33.863921      7.855603
  Si      3.474097     30.758340      7.834258
  O       2.213600     34.735257      8.497507
  O       2.276245     29.807767      8.416565
  O       3.346916     32.287837      8.353410
  O       3.318404     33.838479      6.212049
  O       3.470910     30.821570      6.185434
  Si      6.133984     26.167683      7.845395
  Si      8.770386     24.545004      7.874067
  O       4.719943     25.597120      8.421774
  O       7.419841     25.306916      8.384390
  O       8.691657     23.016051      8.442799
  O       6.177296     26.136373      6.195788
  O       8.760636     24.600091      6.226570
  Si      6.142679     29.242338      7.711404
  Si      6.179485     35.521487      8.243698
  Si      8.970090     33.930261      7.628343
  Si      8.906333     30.823633      7.616396
  O       4.887198     30.073160      8.318012
  O       4.829634     34.518035      8.322999
  O       7.635774     34.765362      7.833968
  O       7.529440     30.045913      8.000878
  O       6.252966     27.724962      8.320195
  O       8.857834     32.359634      8.139219
  O       5.862365     29.109759      6.092561
  O       5.816981     35.986878      6.598081
  O       9.348624     33.810440      6.009886
  O       9.124572     30.874555      5.989297
  Si      6.275540     38.672171      7.929826
  Si      9.016277     40.067935      7.847967
  O       4.992562     39.608026      8.355979
  O       7.602769     39.526665      8.446501
  O       6.321739     37.200957      8.617540
  O       9.386138     41.605877      8.270579
  O       6.440748     38.522163      6.300323
  O       8.972982     39.879520      6.210127
  Si     11.454465     26.058241      7.806558
  Si     14.127107     24.543370      7.856368
  O      10.108863     25.340462      8.392179
  O      12.820112     25.372003      8.382179
  O      13.901680     23.006155      8.358906
  O      11.399222     25.798367      6.179702
  O      14.153365     24.648449      6.210478
  Si     11.513841     29.228136      7.752236
  Si     11.686772     35.374680      7.713300
  Si     14.282375     33.766392      7.782490
  Si     14.189527     30.705866      7.779444
  O      10.165050     29.987979      8.278759
  O      10.309292     34.689555      8.230534
  O      13.024247     34.643720      8.339755
  O      12.873497     29.916626      8.344646
  O      11.435290     27.648464      8.154106
  O      14.315430     32.230321      8.353492
  O      11.546052     29.380647      6.112973
  O      11.780871     35.156098      6.081853
  O      14.112339     33.621713      6.148447
  O      13.997813     30.802844      6.144771
  Si     11.679249     38.560350      7.791049
  Si     14.378605     40.048244      7.864210
  O      10.306835     39.198689      8.387718
  O      13.027388     39.289390      8.386267
  O      11.756350     36.960219      8.087773
  O      14.531915     41.578831      8.412729
  O      11.733588     38.862883      6.170891
  O      14.398908     39.957300      6.217511
  Si     16.856830     25.986733      7.887698
  O      15.508239     25.220943      8.410828
  O      18.113891     25.108077      8.445151
  O      16.782016     26.003395      6.240225
  Si     16.913477     29.067547      7.808885
  Si     17.049236     35.330070      7.806588
  Si     19.682686     33.743446      7.847215
  Si     19.564801     30.652574      7.815095
  O      15.521059     29.837562      8.131303
  O      15.696512     34.497796      8.133757
  O      18.354869     34.529632      8.396324
  O      18.176803     29.962559      8.320014
  O      16.883479     27.542480      8.398617
  O      19.687641     32.189759      8.370795
  O      17.098261     28.849993      6.179447
  O      17.322398     35.414012      6.181327
  O      19.596734     33.686663      6.203742
  O      19.543651     30.714128      6.171529
  Si     16.996441     38.399920      7.840087
  O      15.725045     39.265970      8.384468
  O      18.447952     38.966951      8.331495
  O      16.947855     36.853842      8.379761
  O      16.887069     38.344457      6.194508
  O      20.745364     29.682878      8.388507
  O      21.085990     34.388155      8.379529
  H       4.074658     24.986772      8.036591
  H       1.410409     29.602015      8.036749
  H       1.410409     35.007985      8.036749
  H       4.074657     39.623228      8.036591
  H       8.948181     22.173255      8.038302
  H       8.948181     42.436745      8.038302
  H      14.277762     22.173204      8.038282
  H      14.277762     42.436796      8.038282
  H      18.960557     24.876228      8.036406
  H      18.960556     39.733772      8.036406
  H      21.624717     29.491420      8.036583
  H      21.624717     35.118580      8.036583
  H      13.355290     34.148243      5.818686
  H      10.965197     34.720102      5.753212
  H       9.222002     32.916990      5.654438
  H       9.884635     30.344475      5.691892
  H      12.355450     29.828104      5.801730
  H      14.043699     31.726212      5.828564
  H      13.545279     39.655875      5.855784
  H      10.868786     39.118226      5.805455
  H       8.169524     39.393857      5.932474
  H       6.244816     37.566692      6.098575
  H       5.348968     35.303343      6.107388
  H       3.369602     32.943096      5.846963
  H       4.144352     30.248464      5.785653
  H       6.014020     28.219517      5.741053
  H       6.949073     25.659575      5.849968
  H       9.594281     24.940808      5.858577
  H      12.248860     25.531210      5.796118
  H      14.960456     25.075889      5.876893
  H      16.922843     26.895638      5.875055
  H      17.721350     29.462516      5.763385
  H      19.565683     31.624156      5.830674
  H      18.891558     34.258083      5.848400
  H      17.120890     36.282136      5.796633
  H      16.109622     38.823456      5.858779
  P       7.529704     35.350136     11.006737
  O       7.240056     35.135939     12.428356
  O       6.406652     35.186333      9.972935
  O       8.208129     36.776071     10.748531
  O       8.618566     34.273566     10.469097
  C       9.798177     34.011239     11.218071
  C      10.088899     32.512158     11.110963
  O      11.442516     32.305621     10.629413
  C       9.975733     31.731707     12.415577
  O       9.524961     30.382448     12.240716
  C      11.434282     31.654076     12.873168
  O      11.697727     30.659128     13.819030
  C      12.121130     31.440829     11.514304
  N      13.524016     31.750907     11.471679
  C      14.120932     32.992435     11.460790
  N      15.429290     32.943675     11.386181
  C      15.712322     31.594543     11.344681
  C      16.910692     30.872141     11.250684
  N      18.121565     31.479368     11.236022
  N      16.856035     29.531792     11.204959
  C      15.655960     28.938844     11.262802
  N      14.453492     29.501732     11.360668
  C      14.543220     30.831996     11.392696
  H       7.860024     37.178816      9.933813
  H      10.634274     34.562778     10.778558
  H       9.657417     34.323909     12.258230
  H       9.397587     32.113406     10.363339
  H       9.313532     32.221469     13.133229
  H       9.333525     30.233897     11.307201
  H      11.760597     32.613518     13.290510
  H      11.173086     29.892993     13.538431
  H      12.039933     30.384888     11.219986
  H      13.526143     33.893882     11.473767
  H      18.143342     32.458837     11.001147
  H      18.901176     30.913628     10.941863
  H      15.671025     27.853353     11.211108
162
Coordinates from ORCA-job amp_frame12_dry_r2scan E -13470.337363478111
  Si      3.447502     33.865419      7.854843
  Si      3.471882     30.758856      7.834878
  O       2.219119     34.744737      8.493468
  O       2.276804     29.804093      8.417628
  O       3.341675     32.288878      8.351677
  O       3.322995     33.836602      6.211060
  O       3.467741     30.822346      6.185660
  Si      6.133299     26.168742      7.844588
  Si      8.769787     24.545086      7.871901
  O       4.719909     25.597319      8.421417
  O       7.420096     25.308676      8.382440
  O       8.688027     23.016168      8.440369
  O       6.176427     26.138733      6.194905
  O       8.760111     24.600258      6.224345
  Si      6.140926     29.243816      7.711863
  Si      6.180219     35.521946      8.245451
  Si      8.970610     33.929400      7.629241
  Si      8.905444     30.823527      7.615762
  O       4.886437     30.076143      8.319664
  O       4.832077     34.514897      8.325781
  O       7.638036     34.767183      7.836996
  O       7.528394     30.046460      8.002130
  O       6.251159     27.726142      8.319787
  O       8.858319     32.359020      8.139803
  O       5.859501     29.111739      6.093392
  O       5.814682     35.986248      6.599568
  O       9.346631     33.811590      6.010267
  O       9.121477     30.874161      5.988511
  Si      6.275585     38.672716      7.929655
  Si      9.016002     40.068748      7.848536
  O       4.993045     39.609996      8.354679
  O       7.602872     39.526498      8.446706
  O       6.318025     37.202496      8.618306
  O       9.385655     41.606224      8.272501
  O       6.443320     38.520700      6.301074
  O       8.973009     39.882079      6.210623
  Si     11.454534     26.058011      7.804454
  Si     14.127506     24.543168      7.855501
  O      10.109280     25.339280      8.389842
  O      12.820223     25.371915      8.380015
  O      13.903770     23.006522      8.360254
  O      11.399349     25.798727      6.177658
  O      14.153969     24.647171      6.209533
  Si     11.513137     29.227599      7.750086
  Si     11.687821     35.374714      7.715512
  Si     14.282987     33.766063      7.782255
  Si     14.189123     30.705256      7.777197
  O      10.164562     29.987081      8.275851
  O      10.310644     34.687957      8.230248
  O      13.025968     34.644212      8.340894
  O      12.873384     29.915403      8.342100
  O      11.435257     27.647974      8.152821
  O      14.315296     32.229517      8.352100
  O      11.544942     29.380972      6.110885
  O      11.782213     35.157898      6.083358
  O      14.112886     33.623101      6.148254
  O      13.997959     30.802779      6.142544
  Si     11.679201     38.560298      7.792958
  Si     14.378059     40.048588      7.865290
  O      10.306174     39.198653      8.388859
  O      13.026821     39.289470      8.388133
  O      11.755376     36.960032      8.091388
  O      14.530958     41.579097      8.414113
  O      11.733727     38.861521      6.172657
  O      14.397325     39.958311      6.218459
  Si     16.857491     25.987069      7.887200
  O      15.508362     25.221679      8.409653
  O      18.114574     25.109442      8.445896
  O      16.784060     26.003016      6.239558
  Si     16.912961     29.067811      7.807009
  Si     17.049306     35.329751      7.806688
  Si     19.683078     33.743820      7.846157
  Si     19.564645     30.652413      7.813499
  O      15.520736     29.837567      8.130006
  O      15.697576     34.496140      8.134551
  O      18.355352     34.529963      8.396169
  O      18.176176     29.962910      8.317803
  O      16.883563     27.543143      8.397519
  O      19.687921     32.189694      8.368758
  O      17.097332     28.850182      6.177556
  O      17.321730     35.413757      6.181433
  O      19.596968     33.688205      6.202611
  O      19.543350     30.713569      6.169778
  Si     16.996508     38.400114      7.840777
  O      15.724333     39.265390      8.384788
  O      18.447087     38.968341      8.333710
  O      16.947593     36.853654      8.379692
  O      16.887889     38.344988      6.195038
  O      20.744835     29.682718      8.387166
  O      21.086437     34.387677      8.379152
  H       4.074657     24.986772      8.036591
  H       1.410409     29.602015      8.036749
  H       1.410409     35.007985      8.036749
  H       4.074657     39.623228      8.036591
  H       8.948181     22.173255      8.038302
  H       8.948181     42.436745      8.038302
  H      14.277762     22.173204      8.038282
  H      14.277762     42.436796      8.038282
  H      18.960557     24.876228      8.036406
  H      18.960557     39.733772      8.036406
  H      21.624717     29.491420      8.036583
  H      21.624717     35.118580      8.036583
  H      13.357233     34.151843      5.818843
  H      10.965365     34.725915      5.753326
  H       9.218947     32.919049      5.653171
  H       9.882292     30.345074      5.691142
  H      12.355247     29.826639      5.799515
  H      14.045391     31.726001      5.826342
  H      13.543671     39.655605      5.857708
  H      10.869290     39.117812      5.807023
  H       8.170896     39.393943      5.933165
  H       6.245404     37.565102      6.100851
  H       5.350143     35.301991      6.106552
  H       3.374037     32.940529      5.847580
  H       4.139410     30.247598      5.785306
  H       6.014040     28.222054      5.741650
  H       6.947173     25.660740      5.848551
  H       9.593623     24.941520      5.856577
  H      12.248978     25.531631      5.794084
  H      14.961658     25.073473      5.876020
  H      16.924063     26.895391      5.874383
  H      17.721365     29.462233      5.762156
  H      19.565984     31.623410      5.828691
  H      18.891262     34.259363      5.847927
  H      17.120201     36.282120      5.797285
  H      16.110732     38.824338      5.859251
  P       7.534529     35.352582     11.002514
  O       7.245158     35.149235     12.425342
  O       6.406082     35.189248      9.973480
  O       8.224642     36.771554     10.734107
  O       8.615287     34.266479     10.469606
  C       9.792294     34.001554     11.221484
  C      10.082670     32.502202     11.113679
  O      11.435225     32.294909     10.629198
  C       9.971649     31.722251     12.418833
  O       9.522872     30.372347     12.244776
  C      11.430998     31.645139     12.873855
  O      11.697093     30.651174     13.820289
  C      12.116522     31.432040     11.514010
  N      13.518419     31.747021     11.470232
  C      14.111041     32.990971     11.457608
  N      15.419707     32.946621     11.383154
  C      15.707272     31.598403     11.343765
  C      16.908093     30.880500     11.249999
  N      18.116636     31.492775     11.233572
  N      16.858570     29.540042     11.206250
  C      15.660845     28.942499     11.265159
  N      14.455897     29.501086     11.362527
  C      14.541008     30.831646     11.392909
  H       7.870297     37.177420      9.924206
  H      10.630817     34.553331     10.786170
  H       9.647958     34.313433     12.261381
  H       9.388800     32.104652     10.367348
  H       9.310820     32.212461     13.137546
  H       9.308046     30.229121     11.315643
  H      11.756797     32.605017     13.290560
  H      11.176547     29.882586     13.539023
  H      12.037826     30.375696     11.220967
  H      13.513448     33.890534     11.468503
  H      18.134575     32.471765     10.996476
  H      18.898366     30.929539     10.940303
  H      15.680229     27.857047     11.215232
162
Coordinates from ORCA-job amp_frame12_dry_r2scan E -13470.337404362988
  Si      3.447997     33.864988      7.853739
  Si      3.470088     30.757811      7.835536
  O       2.223268     34.751296      8.489893
  O       2.278182     29.797525      8.418050
  O       3.335399     32.288075      8.350141
  O       3.324904     33.833180      6.209649
  O       3.465922     30.821310      6.185961
  Si      6.133023     26.169562      7.844393
  Si      8.769477     24.545263      7.870487
  O       4.720102     25.597194      8.421140
  O       7.420495     25.310057      8.381293
  O       8.684229     23.016150      8.438009
  O       6.176496     26.140914      6.194624
  O       8.760300     24.600707      6.222951
  Si      6.139556     29.244928      7.714059
  Si      6.180008     35.521412      8.247806
  Si      8.970713     33.928733      7.633388
  Si      8.903927     30.823394      7.617799
  O       4.885651     30.078153      8.322468
  O       4.833682     34.510802      8.327084
  O       7.639622     34.769452      7.842122
  O       7.526783     30.047506      8.006777
  O       6.249838     27.726853      8.320652
  O       8.858552     32.358564      8.143202
  O       5.858241     29.113716      6.095844
  O       5.813496     35.984678      6.601693
  O       9.344410     33.812434      6.013877
  O       9.116867     30.872893      5.990345
  Si      6.275060     38.671894      7.932059
  Si      9.014915     40.069064      7.850648
  O       4.992622     39.609773      8.355840
  O       7.602206     39.525949      8.448717
  O       6.315175     37.202035      8.620557
  O       9.384589     41.606333      8.274730
  O       6.443813     38.518673      6.303900
  O       8.971815     39.883596      6.212683
  Si     11.454801     26.057738      7.803779
  Si     14.128416     24.543064      7.855723
  O      10.109914     25.337792      8.388606
  O      12.820487     25.371361      8.378845
  O      13.907132     23.006949      8.362927
  O      11.399502     25.799739      6.176980
  O      14.155350     24.645402      6.209646
  Si     11.512283     29.227256      7.750470
  Si     11.688198     35.375360      7.720317
  Si     14.282935     33.765931      7.784219
  Si     14.188246     30.704887      7.777545
  O      10.163655     29.986136      8.275349
  O      10.311178     34.687526      8.232996
  O      13.027007     34.644957      8.344437
  O      12.873101     29.914177      8.342369
  O      11.435542     27.647443      8.153098
  O      14.314315     32.228959      8.353248
  O      11.543700     29.382453      6.111511
  O      11.782856     35.160183      6.087520
  O      14.112082     33.624248      6.150695
  O      13.996929     30.803258      6.143132
  Si     11.678369     38.560517      7.796644
  Si     14.377022     40.048671      7.866781
  O      10.304736     39.198515      8.391801
  O      13.025560     39.290397      8.391176
  O      11.754026     36.960431      8.097548
  O      14.530758     41.579435      8.414905
  O      11.732953     38.859650      6.176018
  O      14.394860     39.958361      6.220050
  Si     16.858187     25.987839      7.887488
  O      15.508657     25.222994      8.409581
  O      18.115139     25.110312      8.446662
  O      16.786016     26.003609      6.239775
  Si     16.912415     29.068389      7.806729
  Si     17.048981     35.329691      7.808102
  Si     19.683060     33.744395      7.845555
  Si     19.564379     30.652589      7.812277
  O      15.520290     29.837873      8.130429
  O      15.698244     34.494757      8.136993
  O      18.355773     34.530643      8.397010
  O      18.175685     29.963614      8.316648
  O      16.884181     27.543992      8.397795
  O      19.687951     32.189925      8.367294
  O      17.095702     28.850561      6.177313
  O      17.320173     35.413564      6.182857
  O      19.596560     33.690103      6.202048
  O      19.542995     30.713591      6.168278
  Si     16.996194     38.400638      7.842256
  O      15.722922     39.264555      8.385797
  O      18.445656     38.970517      8.336816
  O      16.947343     36.853917      8.380489
  O      16.888938     38.346419      6.196406
  O      20.744331     29.682769      8.385774
  O      21.086741     34.387316      8.378727
  H       4.074657     24.986772      8.036591
  H       1.410409     29.602015      8.036749
  H       1.410409     35.007985      8.036749
  H       4.074657     39.623228      8.036591
  H       8.948181     22.173255      8.038302
  H       8.948181     42.436745      8.038302
  H      14.277762     22.173204      8.038282
  H      14.277762     42.436796      8.038282
  H      18.960557     24.876228      8.036406
  H      18.960557     39.733772      8.036406
  H      21.624717     29.491420      8.036583
  H      21.624717     35.118580      8.036583
  H      13.354832     34.151747      5.822664
  H      10.966909     34.727328      5.756957
  H       9.215645     32.920937      5.654829
  H       9.879345     30.345979      5.693087
  H      12.354257     29.827655      5.800191
  H      14.043515     31.726551      5.827278
  H      13.541214     39.654337      5.860288
  H      10.869007     39.116354      5.809807
  H       8.170532     39.394102      5.935362
  H       6.245411     37.562885      6.104030
  H       5.349932     35.300820      6.107265
  H       3.377899     32.936683      5.847536
  H       4.136347     30.245467      5.785311
  H       6.016164     28.224670      5.743888
  H       6.946405     25.662026      5.847785
  H       9.593444     24.943180      5.855538
  H      12.249148     25.532787      5.793390
  H      14.963174     25.071243      5.875969
  H      16.924715     26.896268      5.874750
  H      17.719574     29.462983      5.762164
  H      19.565793     31.623118      5.826675
  H      18.890060     34.260656      5.848006
  H      17.118908     36.282310      5.799456
  H      16.111748     38.825328      5.860268
  P       7.537757     35.354287     11.000431
  O       7.249419     35.160324     12.424527
  O       6.404566     35.191787      9.976745
  O       8.238665     36.766625     10.724411
  O       8.610459     34.258181     10.472604
  C       9.784020     33.991009     11.228636
  C      10.074834     32.491611     11.121487
  O      11.425816     32.284668     10.632667
  C       9.968095     31.713317     12.428003
  O       9.521384     30.362504     12.256701
  C      11.428859     31.636715     12.878153
  O      11.699032     30.644298     13.825179
  C      12.110945     31.423224     11.516194
  N      13.511758     31.742986     11.469572
  C      14.099858     32.989419     11.454422
  N      15.408744     32.949686     11.379734
  C      15.701136     31.602601     11.342841
  C      16.904495     30.889493     11.249240
  N      18.110438     31.507770     11.231061
  N      16.861006     29.548792     11.207987
  C      15.665594     28.946619     11.268566
  N      14.457899     29.500387     11.365464
  C      14.538051     30.831339     11.393705
  H       7.879193     37.177546      9.919471
  H      10.624801     34.543213     10.798275
  H       9.634714     34.302893     12.267907
  H       9.378162     32.093912     10.377798
  H       9.309978     32.204975     13.148390
  H       9.273174     30.226331     11.334991
  H      11.755007     32.597268     13.292990
  H      11.183014     29.872726     13.544052
  H      12.033648     30.366487     11.224774
  H      13.499212     33.886907     11.463582
  H      18.123638     32.486161     10.991143
  H      18.894511     30.947433     10.938498
  H      15.689533     27.861214     11.220647
162
Coordinates from ORCA-job amp_frame12_dry_r2scan E -13470.337466589475
  Si      3.448482     33.864160      7.851780
  Si      3.468080     30.756479      7.836433
  O       2.228591     34.759411      8.484958
  O       2.279793     29.789441      8.418992
  O       3.326832     32.286914      8.348169
  O       3.326402     33.829541      6.207186
  O       3.464900     30.819599      6.186484
  Si      6.132893     26.170824      7.844357
  Si      8.768941     24.545483      7.868567
  O       4.720496     25.597062      8.420739
  O       7.421131     25.311939      8.379940
  O       8.678081     23.016027      8.434277
  O       6.177272     26.144261      6.194467
  O       8.760427     24.601585      6.221077
  Si      6.138041     29.246435      7.717454
  Si      6.180213     35.519971      8.248569
  Si      8.971720     33.926864      7.638595
  Si      8.902573     30.822163      7.620816
  O       4.884562     30.080487      8.326375
  O       4.835702     34.505274      8.326942
  O       7.640835     34.769238      7.845577
  O       7.524734     30.049146      8.014128
  O       6.248382     27.727853      8.322269
  O       8.859599     32.357122      8.147225
  O       5.856948     29.116466      6.099520
  O       5.813467     35.981153      6.602068
  O       9.345088     33.811891      6.019020
  O       9.110781     30.869235      5.993009
  Si      6.273805     38.670513      7.934122
  Si      9.013324     40.069054      7.852515
  O       4.991854     39.608321      8.357806
  O       7.601053     39.524740      8.449701
  O       6.313777     37.200406      8.620463
  O       9.382720     41.605988      8.277085
  O       6.441700     38.516888      6.305888
  O       8.970235     39.884679      6.214391
  Si     11.455357     26.056735      7.802672
  Si     14.130094     24.542707      7.856171
  O      10.110974     25.335104      8.386785
  O      12.821011     25.370072      8.376904
  O      13.912198     23.007486      8.367057
  O      11.399609     25.800335      6.175791
  O      14.157918     24.642301      6.209906
  Si     11.511715     29.226156      7.750821
  Si     11.688559     35.376089      7.727630
  Si     14.282857     33.765782      7.787112
  Si     14.187282     30.704306      7.777953
  O      10.162880     29.983659      8.274840
  O      10.311545     34.687446      8.238042
  O      13.028374     34.645826      8.349875
  O      12.873270     29.911910      8.342628
  O      11.436518     27.646094      8.152812
  O      14.312685     32.228079      8.354769
  O      11.542608     29.384088      6.112250
  O      11.783244     35.162499      6.094057
  O      14.110509     33.626693      6.154324
  O      13.995804     30.804257      6.143939
  Si     11.677068     38.560615      7.801392
  Si     14.375633     40.048456      7.868362
  O      10.302659     39.198168      8.395019
  O      13.023803     39.291746      8.394970
  O      11.752265     36.960939      8.106325
  O      14.531199     41.579720      8.415295
  O      11.731902     38.856747      6.180250
  O      14.391546     39.957646      6.221864
  Si     16.859173     25.988900      7.887943
  O      15.509286     25.224767      8.409699
  O      18.115848     25.111340      8.447677
  O      16.788627     26.004253      6.240171
  Si     16.911964     29.069077      7.806429
  Si     17.048685     35.329543      7.810133
  Si     19.683071     33.745023      7.845070
  Si     19.564108     30.652872      7.810690
  O      15.519954     29.838282      8.130625
  O      15.699333     34.492748      8.140339
  O      18.356582     34.531643      8.398478
  O      18.175220     29.964575      8.315134
  O      16.885190     27.545066      8.398344
  O      19.687969     32.190194      8.365664
  O      17.093949     28.850451      6.177140
  O      17.318405     35.413277      6.184869
  O      19.595946     33.692490      6.201669
  O      19.542715     30.714162      6.166300
  Si     16.995695     38.401338      7.844102
  O      15.720985     39.263392      8.386905
  O      18.443637     38.973434      8.340938
  O      16.947042     36.854315      8.381252
  O      16.890462     38.348531      6.198127
  O      20.743603     29.682700      8.383735
  O      21.087328     34.386633      8.378133
  H       4.074658     24.986772      8.036591
  H       1.410409     29.602015      8.036749
  H       1.410409     35.007985      8.036749
  H       4.074657     39.623228      8.036591
  H       8.948181     22.173255      8.038302
  H       8.948181     42.436745      8.038302
  H      14.277762     22.173204      8.038282
  H      14.277762     42.436796      8.038282
  H      18.960557     24.876228      8.036406
  H      18.960557     39.733772      8.036406
  H      21.624717     29.491420      8.036583
  H      21.624717     35.118580      8.036583
  H      13.353603     34.156504      5.828473
  H      10.966290     34.732603      5.762637
  H       9.213627     32.922118      5.657160
  H       9.875976     30.346008      5.695979
  H      12.353684     29.828353      5.800883
  H      14.042918     31.727759      5.828792
  H      13.537790     39.651918      5.863584
  H      10.868341     39.112945      5.812931
  H       8.169814     39.393420      5.937520
  H       6.244852     37.560309      6.106086
  H       5.347400     35.298964      6.107675
  H       3.381990     32.932448      5.846797
  H       4.133934     30.241971      5.786152
  H       6.019362     28.228344      5.747107
  H       6.946453     25.664512      5.847262
  H       9.593186     24.945658      5.854264
  H      12.249193     25.533367      5.792139
  H      14.965717     25.067929      5.875975
  H      16.925702     26.897287      5.875326
  H      17.716928     29.463742      5.761862
  H      19.565564     31.623421      5.824315
  H      18.888560     34.262506      5.848525
  H      17.117603     36.282609      5.802482
  H      16.112790     38.826224      5.861523
  P       7.538970     35.355326     10.997183
  O       7.247460     35.176445     12.422639
  O       6.403281     35.194144      9.976858
  O       8.256410     36.757837     10.710397
  O       8.601152     34.244386     10.479898
  C       9.769946     33.974677     11.242139
  C      10.061866     32.475585     11.135619
  O      11.410172     32.270515     10.639672
  C       9.963114     31.699344     12.444027
  O       9.521047     30.346843     12.276685
  C      11.426057     31.624274     12.885848
  O      11.703565     30.633650     13.832542
  C      12.102209     31.411550     11.520358
  N      13.501249     31.738479     11.468772
  C      14.082228     32.988357     11.450767
  N      15.391194     32.955912     11.374796
  C      15.691259     31.610718     11.340692
  C      16.898554     30.904766     11.246928
  N      18.100402     31.531709     11.225795
  N      16.864006     29.563625     11.209164
  C      15.672060     28.954706     11.272470
  N      14.460683     29.501090     11.369101
  C      14.533062     30.832651     11.394223
  H       7.889778     37.174121      9.911301
  H      10.613435     34.528354     10.818879
  H       9.613047     34.286054     12.280502
  H       9.361552     32.076235     10.395835
  H       9.309299     32.192681     13.167576
  H       9.213627     30.224111     11.371276
  H      11.752655     32.585687     13.298210
  H      11.195645     29.857105     13.550982
  H      12.027093     30.354506     11.230410
  H      13.476665     33.882489     11.458907
  H      18.106134     32.509152     10.981637
  H      18.887662     30.975835     10.933302
  H      15.702583     27.869352     11.227660
162
Coordinates from ORCA-job amp_frame12_dry_r2scan E -13470.337569264026
  Si      3.449348     33.862796      7.849133
  Si      3.465837     30.755084      7.837809
  O       2.236010     34.770632      8.477592
  O       2.282027     29.778862      8.419622
  O       3.313810     32.285452      8.346109
  O       3.328752     33.826221      6.203797
  O       3.466428     30.817526      6.187691
  Si      6.132651     26.173102      7.845288
  Si      8.767562     24.545949      7.866326
  O       4.720613     25.597312      8.420202
  O       7.421568     25.314529      8.379156
  O       8.668221     23.015653      8.428321
  O       6.178756     26.150057      6.195296
  O       8.759835     24.603949      6.219002
  Si      6.136248     29.248917      7.724274
  Si      6.180305     35.517273      8.250359
  Si      8.973722     33.924194      7.649533
  Si      8.900799     30.820164      7.628098
  O       4.882880     30.083975      8.332901
  O       4.838885     34.496505      8.327082
  O       7.642667     34.767964      7.852668
  O       7.521661     30.052008      8.027767
  O       6.246192     27.729499      8.326583
  O       8.861368     32.354963      8.155959
  O       5.856810     29.120968      6.106366
  O       5.816159     35.974116      6.602973
  O       9.348421     33.810497      6.030175
  O       9.101725     30.863873      5.999645
  Si      6.271599     38.668183      7.936584
  Si      9.011187     40.068352      7.854765
  O       4.991221     39.607122      8.358955
  O       7.599128     39.522839      8.450608
  O       6.312227     37.197492      8.619940
  O       9.380535     41.605200      8.278677
  O       6.437293     38.513461      6.307807
  O       8.968285     39.883987      6.216519
  Si     11.455792     26.054776      7.801701
  Si     14.132469     24.542100      7.857078
  O      10.112101     25.330661      8.384853
  O      12.821367     25.367599      8.374509
  O      13.919062     23.008048      8.372725
  O      11.399193     25.801001      6.174508
  O      14.161698     24.637600      6.210601
  Si     11.510980     29.224304      7.752844
  Si     11.688557     35.377166      7.740689
  Si     14.282360     33.765698      7.792783
  Si     14.185694     30.703640      7.780171
  O      10.161736     29.979426      8.276468
  O      10.311835     34.688049      8.250260
  O      13.029932     34.646901      8.359925
  O      12.873573     29.908416      8.344817
  O      11.437868     27.643678      8.152824
  O      14.309810     32.226961      8.358621
  O      11.541006     29.386363      6.114826
  O      11.782634     35.165039      6.106288
  O      14.106768     33.630027      6.161203
  O      13.993543     30.806197      6.146784
  Si     11.675273     38.560515      7.808902
  Si     14.373992     40.047857      7.870085
  O      10.299804     39.197619      8.399924
  O      13.021617     39.294190      8.400464
  O      11.750187     36.961860      8.120649
  O      14.533417     41.580059      8.414548
  O      11.730608     38.851234      6.186755
  O      14.387129     39.955378      6.224151
  Si     16.860266     25.990282      7.888864
  O      15.510000     25.227196      8.410480
  O      18.116505     25.111987      8.448898
  O      16.791561     26.005301      6.241173
  Si     16.911420     29.069892      7.806764
  Si     17.048362     35.329152      7.813185
  Si     19.683066     33.745448      7.844697
  Si     19.563660     30.653188      7.808439
  O      15.519455     29.838805      8.131474
  O      15.700941     34.489904      8.145544
  O      18.357935     34.532822      8.401009
  O      18.174592     29.966058      8.313500
  O      16.886794     27.546299      8.399902
  O      19.688110     32.190305      8.364056
  O      17.091347     28.849962      6.177597
  O      17.315740     35.412416      6.187720
  O      19.594620     33.695149      6.201606
  O      19.542154     30.715620      6.163651
  Si     16.994963     38.402075      7.846351
  O      15.718547     39.261744      8.388368
  O      18.441231     38.976852      8.345573
  O      16.946878     36.854761      8.382309
  O      16.892431     38.351197      6.200330
  O      20.742086     29.681617      8.380132
  O      21.088424     34.385312      8.376899
  H       4.074657     24.986772      8.036591
  H       1.410409     29.602015      8.036749
  H       1.410409     35.007985      8.036749
  H       4.074657     39.623228      8.036591
  H       8.948181     22.173255      8.038302
  H       8.948181     42.436745      8.038302
  H      14.277762     22.173204      8.038282
  H      14.277762     42.436796      8.038282
  H      18.960557     24.876228      8.036406
  H      18.960557     39.733772      8.036406
  H      21.624717     29.491420      8.036583
  H      21.624717     35.118580      8.036583
  H      13.347369     34.159456      5.839349
  H      10.966623     34.733248      5.774993
  H       9.212501     32.923295      5.664249
  H       9.870516     30.345913      5.702367
  H      12.352224     29.830102      5.803156
  H      14.039257     31.730168      5.832916
  H      13.533458     39.647109      5.867629
  H      10.867761     39.106215      5.817273
  H       8.168044     39.392336      5.939936
  H       6.242829     37.556258      6.107582
  H       5.345209     35.294254      6.109945
  H       3.388563     32.928677      5.845094
  H       4.134561     30.237973      5.788697
  H       6.024424     28.234188      5.752865
  H       6.947153     25.669537      5.847476
  H       9.591956     24.950174      5.852795
  H      12.248408     25.533737      5.790417
  H      14.968971     25.063538      5.875957
  H      16.926298     26.898778      5.876393
  H      17.712271     29.464611      5.761238
  H      19.564378     31.624638      5.821346
  H      18.885965     34.264205      5.849446
  H      17.116570     36.282589      5.806382
  H      16.113927     38.826632      5.862707
  P       7.540219     35.356565     10.994524
  O       7.245878     35.200948     12.422589
  O       6.401567     35.196624      9.979313
  O       8.280680     36.744331     10.689937
  O       8.586396     34.223217     10.493396
  C       9.747775     33.949060     11.265302
  C      10.040687     32.450353     11.159796
  O      11.384098     32.247703     10.651606
  C       9.955551     31.677272     12.471259
  O       9.524020     30.321390     12.309289
  C      11.421809     31.605637     12.899105
  O      11.712298     30.618628     13.845499
  C      12.087559     31.393411     11.527905
  N      13.483911     31.730663     11.467852
  C      14.053879     32.985523     11.445699
  N      15.362779     32.964536     11.367497
  C      15.674764     31.622340     11.336894
  C      16.888173     30.927408     11.243027
  N      18.083645     31.567328     11.216841
  N      16.867302     29.585655     11.211351
  C      15.680740     28.966453     11.279383
  N      14.464028     29.501360     11.375227
  C      14.524037     30.833805     11.394871
  H       7.903198     37.169889      9.900411
  H      10.595697     34.504157     10.852970
  H       9.578824     34.259451     12.302192
  H       9.334423     32.047771     10.426944
  H       9.308344     32.172985     13.199939
  H       9.108635     30.223006     11.445192
  H      11.749199     32.568755     13.306669
  H      11.219042     29.833257     13.563467
  H      12.015319     30.335849     11.240374
  H      13.440565     33.874306     11.453176
  H      18.077526     32.543055     10.965438
  H      18.875480     31.018358     10.923574
  H      15.721411     27.881223     11.240212
162
Coordinates from ORCA-job amp_frame12_dry_r2scan E -13470.337771664881
  Si      3.449922     33.861131      7.845602
  Si      3.464210     30.754120      7.839012
  O       2.243153     34.781119      8.469710
  O       2.283959     29.769769      8.420017
  O       3.299849     32.284240      8.344057
  O       3.330009     33.825005      6.199557
  O       3.471262     30.815257      6.189195
  Si      6.132474     26.175985      7.846962
  Si      8.765501     24.546440      7.863750
  O       4.720593     25.597801      8.419669
  O       7.421805     25.317213      8.378959
  O       8.656315     23.015060      8.420922
  O       6.180818     26.157530      6.196932
  O       8.758093     24.607371      6.216672
  Si      6.135122     29.251921      7.733122
  Si      6.180916     35.513179      8.249410
  Si      8.977371     33.920724      7.662262
  Si      8.899476     30.817149      7.638021
  O       4.880881     30.087334      8.340204
  O       4.842300     34.486788      8.324768
  O       7.644558     34.763641      7.857852
  O       7.518201     30.056051      8.045764
  O       6.244009     27.731424      8.332745
  O       8.864734     32.352211      8.166527
  O       5.858980     29.126451      6.114784
  O       5.821596     35.964473      6.601052
  O       9.357796     33.806879      6.044108
  O       9.090946     30.856949      6.008584
  Si      6.268879     38.665572      7.936670
  Si      9.009519     40.066873      7.855490
  O       4.990678     39.604832      8.359746
  O       7.597129     39.520257      8.448948
  O       6.313679     37.193165      8.615080
  O       9.378219     41.603887      8.278660
  O       6.429555     38.511488      6.306475
  O       8.967611     39.880971      6.217096
  Si     11.456086     26.051753      7.799760
  Si     14.135315     24.541038      7.857864
  O      10.113135     25.325115      8.382272
  O      12.821491     25.364126      8.370955
  O      13.926559     23.008444      8.379110
  O      11.398175     25.800136      6.172109
  O      14.166391     24.631290      6.211183
  Si     11.510409     29.221628      7.754228
  Si     11.688190     35.378186      7.755601
  Si     14.281601     33.765702      7.798441
  Si     14.183990     30.702947      7.781417
  O      10.160701     29.973190      8.278949
  O      10.311719     34.689884      8.266729
  O      13.031224     34.647437      8.371046
  O      12.874187     29.904223      8.346147
  O      11.439683     27.640221      8.151063
  O      14.306290     32.225661      8.361675
  O      11.538809     29.388231      6.116763
  O      11.780567     35.166754      6.120626
  O      14.101821     33.634551      6.168092
  O      13.990904     30.808687      6.148712
  Si     11.673900     38.559908      7.816321
  Si     14.372984     40.046873      7.870825
  O      10.297469     39.197115      8.403827
  O      13.019993     39.297140      8.405296
  O      11.748975     36.962805      8.136479
  O      14.537721     41.580254      8.412108
  O      11.730216     38.844057      6.192921
  O      14.383436     39.951608      6.225655
  Si     16.861239     25.991588      7.889621
  O      15.510678     25.229803      8.411428
  O      18.116961     25.112188      8.449954
  O      16.794083     26.005841      6.242133
  Si     16.911155     29.070537      7.806452
  Si     17.048220     35.328447      7.815778
  Si     19.683149     33.745458      7.844576
  Si     19.563321     30.653493      7.805747
  O      15.519051     29.839322      8.130671
  O      15.702769     34.486746      8.150098
  O      18.359428     34.533635      8.403689
  O      18.174021     29.967739      8.311262
  O      16.888589     27.547431      8.401300
  O      19.688429     32.190173      8.362812
  O      17.089617     28.848423      6.177511
  O      17.313681     35.411272      6.190000
  O      19.593120     33.697311      6.201923
  O      19.541881     30.718083      6.160745
  Si     16.994460     38.402591      7.848039
  O      15.716572     39.260001      8.389318
  O      18.439151     38.979806      8.349551
  O      16.947034     36.854965      8.382524
  O      16.894858     38.353748      6.202040
  O      20.740124     29.679728      8.375672
  O      21.089752     34.383735      8.375537
  H       4.074658     24.986772      8.036591
  H       1.410409     29.602015      8.036749
  H       1.410409     35.007985      8.036749
  H       4.074657     39.623228      8.036591
  H       8.948181     22.173255      8.038302
  H       8.948181     42.436745      8.038302
  H      14.277762     22.173204      8.038282
  H      14.277762     42.436796      8.038282
  H      18.960557     24.876228      8.036406
  H      18.960557     39.733772      8.036406
  H      21.624717     29.491420      8.036583
  H      21.624717     35.118580      8.036583
  H      13.340491     34.165159      5.851173
  H      10.964759     34.733190      5.790329
  H       9.213911     32.923147      5.673476
  H       9.863411     30.345063      5.710170
  H      12.349622     29.832029      5.804311
  H      14.035051     31.733339      5.836566
  H      13.529993     39.640482      5.870879
  H      10.867927     39.096371      5.820586
  H       8.166834     39.390270      5.940568
  H       6.240431     37.553554      6.105198
  H       5.342419     35.287452      6.111951
  H       3.394230     32.927242      5.841987
  H       4.139886     30.234122      5.793098
  H       6.030625     28.241021      5.759701
  H       6.948607     25.676307      5.848622
  H       9.589811     24.955120      5.850944
  H      12.246778     25.532263      5.787359
  H      14.972839     25.057959      5.875631
  H      16.926899     26.899568      5.877106
  H      17.707576     29.464671      5.759194
  H      19.563024     31.627197      5.818840
  H      18.883341     34.265591      5.850677
  H      17.116947     36.282382      5.809518
  H      16.115192     38.826298      5.863226
  P       7.538288     35.358076     10.991455
  O       7.239375     35.232389     12.422413
  O       6.399020     35.198751      9.979347
  O       8.305471     36.726826     10.662847
  O       8.565747     34.198052     10.511738
  C       9.719691     33.919822     11.294024
  C      10.013716     32.421800     11.189079
  O      11.350656     32.221582     10.665743
  C       9.946058     31.652009     12.503992
  O       9.533785     30.291104     12.344930
  C      11.415803     31.587074     12.915183
  O      11.724059     30.605912     13.861880
  C      12.068635     31.374831     11.537372
  N      13.461643     31.724076     11.466515
  C      14.018223     32.984531     11.440417
  N      15.326766     32.977535     11.358686
  C      15.653167     31.638984     11.330781
  C      16.873883     30.957190     11.235718
  N      18.061600     31.611561     11.202402
  N      16.868682     29.614907     11.210694
  C      15.688783     28.983511     11.284945
  N      14.466405     29.504787     11.380614
  C      14.511323     30.838106     11.394128
  H       7.915322     37.161456      9.883888
  H      10.571773     34.476908     10.893131
  H       9.537553     34.228346     12.329359
  H       9.300376     32.013789     10.465663
  H       9.304966     32.148718     13.238629
  H       8.973651     30.222228     11.563830
  H      11.742887     32.553076     13.315790
  H      11.251213     29.808586     13.580119
  H      12.000199     30.316486     11.253135
  H      13.395402     33.866649     11.448418
  H      18.041379     32.585279     10.943376
  H      18.858162     31.070988     10.906250
  H      15.741412     27.898558     11.252071
162
Coordinates from ORCA-job amp_frame12_dry_r2scan E -13470.337914879105
  Si      3.449144     33.856154      7.841853
  Si      3.464527     30.751831      7.841897
  O       2.247908     34.786458      8.463006
  O       2.285942     29.759625      8.420678
  O       3.282369     32.280874      8.344361
  O       3.326467     33.826412      6.194941
  O       3.485425     30.810347      6.193555
  Si      6.133102     26.179944      7.851630
  Si      8.762439     24.547145      7.861339
  O       4.720573     25.598393      8.419350
  O       7.421982     25.319585      8.381319
  O       8.639410     23.013840      8.410160
  O       6.185482     26.169286      6.201730
  O       8.754757     24.613407      6.214803
  Si      6.136144     29.255800      7.751020
  Si      6.182062     35.504663      8.245992
  Si      8.984606     33.915363      7.685533
  Si      8.897787     30.811720      7.659410
  O       4.877989     30.088815      8.353175
  O       4.844978     34.474269      8.317852
  O       7.647906     34.754468      7.865802
  O       7.512620     30.064166      8.081686
  O       6.242560     27.733216      8.346058
  O       8.871992     32.348261      8.187078
  O       5.869500     29.135231      6.130939
  O       5.835429     35.947335      6.596120
  O       9.379233     33.797652      6.070471
  O       9.071768     30.844379      6.028024
  Si      6.263827     38.661005      7.935987
  Si      9.007469     40.063033      7.855001
  O       4.988551     39.597031      8.363909
  O       7.593507     39.516430      8.444489
  O       6.323549     37.184321      8.604102
  O       9.375062     41.601049      8.275040
  O       6.410395     38.510798      6.302053
  O       8.967186     39.871267      6.216515
  Si     11.456409     26.046498      7.797112
  Si     14.139998     24.538966      7.859531
  O      10.114448     25.316732      8.379357
  O      12.821309     25.357748      8.365406
  O      13.937958     23.008630      8.389399
  O      11.395865     25.797567      6.168504
  O      14.174187     24.619747      6.212630
  Si     11.509967     29.217467      7.757379
  Si     11.686506     35.379740      7.779120
  Si     14.279658     33.766133      7.806614
  Si     14.181596     30.702444      7.783146
  O      10.159749     29.962619      8.287086
  O      10.310227     34.696199      8.298164
  O      13.031588     34.646877      8.388046
  O      12.875605     29.898301      8.348762
  O      11.443200     27.634512      8.147337
  O      14.300290     32.224159      8.365715
  O      11.534382     29.391176      6.120747
  O      11.773967     35.167706      6.144034
  O      14.092530     33.642294      6.178164
  O      13.986295     30.813236      6.151528
  Si     11.672170     38.558183      7.826363
  Si     14.372391     40.044574      7.869745
  O      10.294864     39.196288      8.408323
  O      13.018285     39.302499      8.410269
  O      11.749325     36.964356      8.160856
  O      14.547663     41.580140      8.404850
  O      11.730013     38.830999      6.200787
  O      14.379713     39.943253      6.226149
  Si     16.862068     25.993376      7.890557
  O      15.511362     25.234042      8.413755
  O      18.116747     25.110839      8.450554
  O      16.796105     26.006139      6.243687
  Si     16.911521     29.071245      7.805867
  Si     17.047953     35.327318      7.818632
  Si     19.682922     33.744854      7.845287
  Si     19.563094     30.654156      7.802095
  O      15.518826     29.840242      8.127877
  O      15.704864     34.482892      8.155616
  O      18.361197     34.534200      8.407627
  O      18.173667     29.970277      8.308397
  O      16.891651     27.548719      8.403414
  O      19.688641     32.189856      8.362653
  O      17.088740     28.845183      6.177397
  O      17.311055     35.409373      6.192184
  O      19.590815     33.699266      6.203501
  O      19.542468     30.723334      6.157132
  Si     16.993902     38.403203      7.849478
  O      15.714164     39.257236      8.389883
  O      18.436611     38.983301      8.353935
  O      16.947878     36.855189      8.381519
  O      16.899354     38.357909      6.203705
  O      20.737003     29.676145      8.368716
  O      21.091293     34.381810      8.373820
  H       4.074658     24.986772      8.036591
  H       1.410409     29.602015      8.036749
  H       1.410409     35.007985      8.036749
  H       4.074657     39.623228      8.036591
  H       8.948181     22.173255      8.038302
  H       8.948181     42.436745      8.038302
  H      14.277762     22.173204      8.038282
  H      14.277762     42.436796      8.038282
  H      18.960557     24.876228      8.036406
  H      18.960557     39.733772      8.036406
  H      21.624717     29.491420      8.036583
  H      21.624717     35.118580      8.036583
  H      13.327636     34.174458      5.869685
  H      10.959080     34.727115      5.817721
  H       9.218280     32.920359      5.692542
  H       9.849143     30.342059      5.726070
  H      12.343410     29.836442      5.806160
  H      14.027235     31.739078      5.842214
  H      13.527111     39.628196      5.872811
  H      10.868323     39.077208      5.823423
  H       8.163398     39.386176      5.939587
  H       6.232947     37.552076      6.097667
  H       5.337254     35.276457      6.117449
  H       3.398229     32.929483      5.836593
  H       4.158403     30.229521      5.803821
  H       6.043690     28.251591      5.772588
  H       6.953089     25.688002      5.852752
  H       9.585880     24.962651      5.849083
  H      12.243086     25.527942      5.782421
  H      14.978385     25.048737      5.874889
  H      16.926802     26.899760      5.877496
  H      17.701014     29.463935      5.754724
  H      19.561058     31.632976      5.816520
  H      18.879859     34.266456      5.852697
  H      17.119542     36.281943      5.812408
  H      16.117633     38.825087      5.862369
  P       7.526178     35.359541     10.991400
  O       7.218401     35.277192     12.425762
  O       6.392787     35.197193      9.978025
  O       8.326604     36.701803     10.628513
  O       8.529706     34.163533     10.544939
  C       9.674456     33.880997     11.341196
  C       9.971222     32.384585     11.237870
  O      11.297198     32.188599     10.690395
  C       9.933901     31.620975     12.558628
  O       9.554217     30.252947     12.402533
  C      11.408115     31.565851     12.942374
  O      11.745678     30.594891     13.889151
  C      12.037842     31.352808     11.553340
  N      13.426153     31.716668     11.463879
  C      13.964055     32.984076     11.433322
  N      15.271489     32.996778     11.345269
  C      15.618009     31.663529     11.319326
  C      16.848836     30.999852     11.221913
  N      18.025415     31.673258     11.177537
  N      16.864903     29.657026     11.206404
  C      15.694342     29.009236     11.290387
  N      14.465137     29.511540     11.386183
  C      14.488468     30.845843     11.390608
  H       7.919422     37.145515      9.861954
  H      10.530645     34.441826     10.954648
  H       9.474010     34.186434     12.374274
  H       9.247685     31.963485     10.531883
  H       9.302139     32.120212     13.301882
  H       8.791154     30.210828     11.815476
  H      11.735974     32.536394     13.330528
  H      11.304853     29.779535     13.610087
  H      11.972627     30.293616     11.273262
  H      13.327670     33.856459     11.444409
  H      17.985047     32.644021     10.908688
  H      18.827844     31.144728     10.875383
  H      15.763320     27.924846     11.266929
162
Coordinates from ORCA-job amp_frame12_dry_r2scan E -13470.337880423467
  Si      3.444862     33.854337      7.847204
  Si      3.471874     30.752437      7.839685
  O       2.228144     34.754840      8.481644
  O       2.281980     29.779314      8.418930
  O       3.305384     32.280265      8.352455
  O       3.312228     33.837662      6.201697
  O       3.493146     30.810621      6.193183
  Si      6.134133     26.176403      7.852368
  Si      8.763514     24.546799      7.867247
  O       4.720086     25.598245      8.420157
  O       7.420232     25.314118      8.386125
  O       8.652514     23.013931      8.419955
  O       6.185206     26.160520      6.202804
  O       8.754454     24.611110      6.220737
  Si      6.141702     29.251184      7.745036
  Si      6.181347     35.504778      8.240860
  Si      8.983401     33.919792      7.675778
  Si      8.899045     30.812862      7.655724
  O       4.880239     30.078377      8.343713
  O       4.835947     34.490041      8.311328
  O       7.645778     34.753785      7.856852
  O       7.514974     30.062806      8.072756
  O       6.247610     27.729614      8.343709
  O       8.871281     32.351638      8.178051
  O       5.879432     29.128759      6.123272
  O       5.841674     35.952541      6.591875
  O       9.385402     33.795515      6.062334
  O       9.079824     30.847021      6.024232
  Si      6.264265     38.662744      7.932965
  Si      9.010185     40.061040      7.851033
  O       4.986491     39.590808      8.368156
  O       7.594156     39.518849      8.441620
  O       6.337928     37.184150      8.600133
  O       9.377632     41.600510      8.267906
  O       6.402336     38.519162      6.296709
  O       8.969685     39.863042      6.212899
  Si     11.455216     26.048000      7.800039
  Si     14.137368     24.539125      7.860785
  O      10.111824     25.322771      8.384370
  O      12.819735     25.359095      8.369958
  O      13.928790     23.007112      8.384569
  O      11.395008     25.794507      6.171336
  O      14.170328     24.622061      6.214162
  Si     11.511065     29.219884      7.756474
  Si     11.683907     35.378478      7.764609
  Si     14.278518     33.767005      7.800448
  Si     14.183314     30.704404      7.781830
  O      10.160369     29.966468      8.290172
  O      10.306607     34.701037      8.292882
  O      13.026090     34.643259      8.376498
  O      12.874883     29.903914      8.348095
  O      11.442096     27.637163      8.146051
  O      14.301683     32.226459      8.361595
  O      11.535960     29.387751      6.119044
  O      11.769322     35.162720      6.131867
  O      14.094175     33.639567      6.170403
  O      13.988146     30.812313      6.149425
  Si     11.674146     38.556988      7.816366
  Si     14.375557     40.043753      7.865052
  O      10.299355     39.197007      8.401299
  O      13.021771     39.300932      8.400812
  O      11.754915     36.963231      8.144745
  O      14.550421     41.579162      8.400503
  O      11.731361     38.834403      6.191395
  O      14.387995     39.941207      6.221480
  Si     16.859405     25.991415      7.889821
  O      15.509805     25.231636      8.415539
  O      18.114609     25.107214      8.447418
  O      16.788760     26.004354      6.243428
  Si     16.913051     29.069875      7.806791
  Si     17.048035     35.327706      7.814757
  Si     19.682106     33.743097      7.848253
  Si     19.563832     30.653992      7.806675
  O      15.519544     29.839885      8.126045
  O      15.701310     34.488118      8.148966
  O      18.358749     34.531657      8.405565
  O      18.175128     29.968306      8.312804
  O      16.889987     27.546338      8.402558
  O      19.687709     32.189414      8.368685
  O      17.094081     28.844721      6.178300
  O      17.314504     35.409938      6.188133
  O      19.591946     33.693472      6.206438
  O      19.544469     30.723965      6.162757
  Si     16.994763     38.402018      7.846011
  O      15.717779     39.259038      8.387870
  O      18.440479     38.977518      8.346073
  O      16.949084     36.854623      8.379499
  O      16.897949     38.355119      6.200604
  O      20.738618     29.676065      8.373527
  O      21.089179     34.384258      8.376274
  H       4.074658     24.986772      8.036591
  H       1.410409     29.602015      8.036749
  H       1.410409     35.007985      8.036749
  H       4.074657     39.623228      8.036591
  H       8.948181     22.173255      8.038302
  H       8.948181     42.436745      8.038302
  H      14.277762     22.173204      8.038282
  H      14.277762     42.436796      8.038282
  H      18.960557     24.876228      8.036406
  H      18.960556     39.733772      8.036406
  H      21.624717     29.491420      8.036583
  H      21.624717     35.118580      8.036583
  H      13.330449     34.170940      5.858452
  H      10.954998     34.716137      5.809039
  H       9.221914     32.916353      5.689104
  H       9.852778     30.339082      5.721376
  H      12.342965     29.836197      5.803888
  H      14.029079     31.737950      5.838957
  H      13.536224     39.630119      5.863581
  H      10.868351     39.078755      5.815464
  H       8.162022     39.385616      5.934696
  H       6.228880     37.561596      6.089667
  H       5.337137     35.281684      6.119908
  H       3.380394     32.943390      5.836479
  H       4.173053     30.236833      5.804418
  H       6.040253     28.242522      5.765316
  H       6.955273     25.681731      5.855299
  H       9.586501     24.956297      5.853165
  H      12.241822     25.523417      5.785466
  H      14.973282     25.052951      5.875711
  H      16.923403     26.896708      5.875888
  H      17.706680     29.462187      5.754502
  H      19.562107     31.634455      5.823476
  H      18.883439     34.261899      5.852753
  H      17.123731     36.281556      5.805991
  H      16.116467     38.822892      5.859202
  P       7.503962     35.354627     11.004436
  O       7.190479     35.232830     12.435697
  O       6.389559     35.187572      9.970751
  O       8.264800     36.725195     10.674044
  O       8.540475     34.193995     10.535816
  C       9.696094     33.917985     11.320246
  C       9.994341     32.422763     11.213982
  O      11.327101     32.228648     10.682457
  C       9.944135     31.651827     12.529667
  O       9.561596     30.286351     12.357815
  C      11.413417     31.598971     12.933354
  O      11.738633     30.625845     13.881615
  C      12.054541     31.386397     11.549997
  N      13.447618     31.731990     11.468767
  C      14.003170     32.990865     11.445393
  N      15.310707     32.985612     11.359666
  C      15.638537     31.647039     11.326929
  C      16.860163     30.964497     11.230041
  N      18.047489     31.616244     11.191775
  N      16.853309     29.621458     11.206815
  C      15.672959     28.991122     11.285058
  N      14.453441     29.512558     11.381424
  C      14.496194     30.846248     11.392209
  H       7.874706     37.147626      9.886525
  H      10.544235     34.480081     10.918038
  H       9.511063     34.221339     12.356728
  H       9.281706     31.997078     10.501991
  H       9.297374     32.142412     13.264874
  H       8.893616     30.244155     11.663438
  H      11.738874     32.568934     13.325090
  H      11.279424     29.818628     13.607436
  H      11.982587     30.328299     11.264817
  H      13.377998     33.871464     11.460214
  H      18.024971     32.590629     10.934314
  H      18.842392     31.076933     10.888857
  H      15.724300     27.905669     11.254566
162
Coordinates from ORCA-job amp_frame12_dry_r2scan E -13470.338137933468
  Si      3.449321     33.862235      7.842435
  Si      3.465681     30.757204      7.835426
  O       2.244571     34.783132      8.468061
  O       2.284033     29.775523      8.416568
  O       3.296180     32.286788      8.342693
  O       3.327542     33.833457      6.196784
  O       3.479303     30.817856      6.187091
  Si      6.131560     26.178845      7.847354
  Si      8.762255     24.546893      7.862465
  O       4.719248     25.599964      8.418702
  O       7.420140     25.318810      8.379773
  O       8.648722     23.014509      8.416405
  O       6.180922     26.162117      6.197531
  O       8.753993     24.611606      6.215528
  Si      6.137479     29.254820      7.734316
  Si      6.182444     35.509544      8.244685
  Si      8.982932     33.920848      7.666334
  Si      8.901726     30.815766      7.642363
  O       4.880655     30.089187      8.337483
  O       4.844128     34.482692      8.318387
  O       7.646297     34.757820      7.854709
  O       7.517756     30.060320      8.053043
  O       6.243195     27.733770      8.334709
  O       8.869295     32.351757      8.168461
  O       5.865930     29.129638      6.114551
  O       5.828624     35.957210      6.595855
  O       9.375722     33.806104      6.050660
  O       9.090284     30.855674      6.011845
  Si      6.268533     38.664430      7.930482
  Si      9.011620     40.064316      7.852299
  O       4.992033     39.604132      8.356276
  O       7.597776     39.517855      8.443343
  O       6.319611     37.189824      8.606340
  O       9.378340     41.602579      8.273835
  O       6.424359     38.513275      6.298562
  O       8.972756     39.872629      6.214082
  Si     11.454902     26.048957      7.798381
  Si     14.135778     24.539589      7.859087
  O      10.111694     25.322117      8.381062
  O      12.819816     25.361159      8.369463
  O      13.926937     23.007325      8.381652
  O      11.396344     25.796137      6.170125
  O      14.168082     24.627112      6.212506
  Si     11.511075     29.219631      7.753870
  Si     11.688852     35.378491      7.762674
  Si     14.282021     33.766130      7.802016
  Si     14.183795     30.703190      7.782467
  O      10.160618     29.968470      8.280634
  O      10.312277     34.692349      8.280129
  O      13.031855     34.646565      8.377013
  O      12.874420     29.902998      8.346586
  O      11.440013     27.637478      8.147612
  O      14.305258     32.225479      8.363072
  O      11.539425     29.385771      6.116165
  O      11.780823     35.166749      6.128610
  O      14.100166     33.636790      6.171132
  O      13.990761     30.810110      6.149539
  Si     11.676183     38.558401      7.818283
  Si     14.375771     40.046102      7.869718
  O      10.299989     39.198016      8.402617
  O      13.022357     39.299438      8.405156
  O      11.752942     36.963118      8.143728
  O      14.545006     41.580425      8.407519
  O      11.734120     38.838292      6.194051
  O      14.386559     39.946612      6.224901
  Si     16.860481     25.991063      7.890929
  O      15.509825     25.230122      8.413699
  O      18.116398     25.110299      8.449937
  O      16.791508     26.005107      6.243770
  Si     16.911516     29.069900      7.807580
  Si     17.049828     35.327106      7.816405
  Si     19.684250     33.743490      7.846700
  Si     19.563368     30.652757      7.806205
  O      15.519055     29.838938      8.129865
  O      15.704768     34.485624      8.151097
  O      18.360872     34.532025      8.405817
  O      18.173883     29.968274      8.312261
  O      16.888981     27.546714      8.403259
  O      19.689955     32.188710      8.365673
  O      17.090976     28.846196      6.178578
  O      17.316038     35.409274      6.190047
  O      19.592329     33.694513      6.204323
  O      19.540977     30.720327      6.162065
  Si     16.995647     38.401311      7.847873
  O      15.718889     39.259727      8.389786
  O      18.441206     38.977520      8.347579
  O      16.948994     36.853715      8.382225
  O      16.895433     38.351344      6.202039
  O      20.738475     29.675637      8.373476
  O      21.091450     34.382589      8.375543
  H       4.074657     24.986772      8.036591
  H       1.410409     29.602015      8.036749
  H       1.410409     35.007985      8.036749
  H       4.074657     39.623228      8.036591
  H       8.948181     22.173255      8.038302
  H       8.948181     42.436745      8.038302
  H      14.277762     22.173204      8.038282
  H      14.277762     42.436796      8.038282
  H      18.960557     24.876228      8.036406
  H      18.960557     39.733772      8.036406
  H      21.624717     29.491420      8.036583
  H      21.624717     35.118580      8.036583
  H      13.337240     34.166266      5.856210
  H      10.967182     34.726495      5.799903
  H       9.222302     32.924962      5.677490
  H       9.862607     30.345521      5.711381
  H      12.349309     29.830124      5.802932
  H      14.033315     31.735161      5.838394
  H      13.533914     39.633555      5.870198
  H      10.871505     39.086826      5.819747
  H       8.169614     39.386909      5.936412
  H       6.243765     37.554945      6.097331
  H       5.341063     35.281012      6.113635
  H       3.392915     32.936621      5.836753
  H       4.152003     30.238161      5.794773
  H       6.031671     28.243447      5.758631
  H       6.948387     25.679563      5.849885
  H       9.586791     24.956879      5.849717
  H      12.244057     25.527152      5.784687
  H      14.973867     25.054664      5.876575
  H      16.925549     26.898394      5.878199
  H      17.706058     29.463024      5.757268
  H      19.560222     31.630595      5.822596
  H      18.882807     34.263256      5.853140
  H      17.122146     36.280458      5.808426
  H      16.114857     38.822260      5.862931
  P       7.529839     35.352330     10.992049
  O       7.228229     35.239273     12.424328
  O       6.393169     35.198678      9.975999
  O       8.308947     36.709680     10.648123
  O       8.548037     34.179951     10.521441
  C       9.698727     33.897757     11.308882
  C       9.990893     32.400550     11.195756
  O      11.324962     32.200845     10.664948
  C       9.932253     31.621489     12.506833
  O       9.548149     30.255397     12.326711
  C      11.403268     31.577083     12.916066
  O      11.726286     30.604689     13.866043
  C      12.053081     31.365221     11.537317
  N      13.443634     31.723083     11.460652
  C      13.990643     32.986895     11.433133
  N      15.298917     32.989767     11.349921
  C      15.635391     31.653273     11.322801
  C      16.861369     30.980013     11.226941
  N      18.044188     31.640853     11.186746
  N      16.864265     29.637609     11.206622
  C      15.689419     28.997809     11.285419
  N      14.464575     29.510916     11.380483
  C      14.498902     30.844546     11.389324
  H       7.911563     37.149456      9.875360
  H      10.552776     34.456290     10.915485
  H       9.510346     34.198711     12.345295
  H       9.274170     31.988578     10.478814
  H       9.281730     32.102531     13.243468
  H       8.882099     30.210876     11.631265
  H      11.721773     32.548446     13.310597
  H      11.266687     29.798383     13.588210
  H      11.991503     30.305695     11.255498
  H      13.360679     33.864030     11.440458
  H      18.016176     32.613875     10.925506
  H      18.842987     31.105619     10.886891
  H      15.749779     27.913093     11.256901
162
Coordinates from ORCA-job amp_frame12_dry_r2scan E -13470.338280605880
  Si      3.448876     33.861142      7.841737
  Si      3.465180     30.756296      7.837007
  O       2.246025     34.785493      8.466245
  O       2.284643     29.771878      8.417158
  O       3.291829     32.286078      8.342986
  O       3.326510     33.831121      6.196016
  O       3.481197     30.816359      6.188797
  Si      6.131539     26.180070      7.848420
  Si      8.761323     24.547034      7.861035
  O       4.718961     25.600536      8.418360
  O       7.420187     25.319608      8.380020
  O       8.644177     23.014273      8.413212
  O       6.181777     26.166079      6.198660
  O       8.752356     24.613054      6.214222
  Si      6.137729     29.256143      7.739882
  Si      6.182472     35.508380      8.244585
  Si      8.984625     33.919988      7.673471
  Si      8.900919     30.815285      7.648304
  O       4.879801     30.089869      8.342063
  O       4.844804     34.480111      8.316762
  O       7.647064     34.756526      7.858553
  O       7.516162     30.063017      8.063348
  O       6.242768     27.734316      8.338485
  O       8.871841     32.351249      8.175059
  O       5.868849     29.132749      6.119766
  O       5.830072     35.955703      6.595794
  O       9.379328     33.805405      6.058097
  O       9.083419     30.853791      6.017168
  Si      6.268181     38.664087      7.930481
  Si      9.011604     40.064014      7.851397
  O       4.991499     39.602488      8.357531
  O       7.597257     39.518444      8.442120
  O       6.321803     37.189085      8.604985
  O       9.378964     41.602381      8.271659
  O       6.421473     38.512917      6.298311
  O       8.973101     39.871257      6.213333
  Si     11.454870     26.047790      7.796205
  Si     14.136734     24.539048      7.858507
  O      10.112111     25.320142      8.379175
  O      12.819685     25.359898      8.366862
  O      13.929909     23.007573      8.384118
  O      11.395586     25.795258      6.167936
  O      14.169990     24.623632      6.211905
  Si     11.510418     29.218775      7.752993
  Si     11.688840     35.379169      7.768603
  Si     14.281683     33.766113      7.803299
  Si     14.183054     30.702755      7.780429
  O      10.160477     29.966228      8.281627
  O      10.312428     34.693994      8.287994
  O      13.032299     34.646164      8.381018
  O      12.874532     29.901513      8.344980
  O      11.440588     27.636157      8.145206
  O      14.304012     32.224608      8.362283
  O      11.537103     29.387114      6.115532
  O      11.778477     35.168520      6.134245
  O      14.098804     33.639913      6.172611
  O      13.989818     30.811190      6.147701
  Si     11.676475     38.558222      7.820478
  Si     14.376169     40.045839      7.869299
  O      10.299638     39.198118      8.403228
  O      13.021967     39.301519      8.406243
  O      11.753718     36.963769      8.150159
  O      14.548640     41.580590      8.405188
  O      11.734819     38.834432      6.195699
  O      14.385936     39.944870      6.224772
  Si     16.860828     25.991429      7.890193
  O      15.509623     25.231707      8.413238
  O      18.116031     25.109727      8.449687
  O      16.792783     26.004811      6.243122
  Si     16.911481     29.070049      7.805389
  Si     17.049706     35.326364      7.817133
  Si     19.684349     33.743308      7.846070
  Si     19.563310     30.652716      7.803862
  O      15.518783     29.838856      8.126918
  O      15.705470     34.483844      8.152487
  O      18.361234     34.531686      8.406518
  O      18.173303     29.969168      8.309718
  O      16.889943     27.547273      8.402238
  O      19.690419     32.188328      8.364515
  O      17.090950     28.845247      6.176612
  O      17.314972     35.408245      6.190706
  O      19.591749     33.695367      6.203834
  O      19.541623     30.721510      6.159773
  Si     16.995930     38.401044      7.848286
  O      15.718502     39.258509      8.390004
  O      18.440921     38.978186      8.348754
  O      16.949300     36.853260      8.382290
  O      16.896880     38.351744      6.202470
  O      20.737107     29.673987      8.370577
  O      21.091902     34.381819      8.374642
  H       4.074658     24.986772      8.036591
  H       1.410409     29.602015      8.036749
  H       1.410409     35.007985      8.036749
  H       4.074657     39.623228      8.036591
  H       8.948181     22.173255      8.038302
  H       8.948181     42.436745      8.038302
  H      14.277762     22.173204      8.038282
  H      14.277762     42.436796      8.038282
  H      18.960557     24.876228      8.036406
  H      18.960556     39.733772      8.036406
  H      21.624717     29.491420      8.036583
  H      21.624717     35.118580      8.036583
  H      13.336286     34.171336      5.859460
  H      10.964281     34.728282      5.806422
  H       9.220474     32.926548      5.682242
  H       9.855744     30.344501      5.714879
  H      12.346558     29.831860      5.801718
  H      14.032122     31.736473      5.837274
  H      13.533489     39.630671      5.870555
  H      10.872666     39.082407      5.820210
  H       8.169127     39.387459      5.935091
  H       6.239149     37.555228      6.096521
  H       5.337591     35.282273      6.114871
  H       3.394273     32.934476      5.836295
  H       4.154953     30.237356      5.797508
  H       6.036194     28.247244      5.762928
  H       6.949234     25.684066      5.850306
  H       9.584584     24.959233      5.848061
  H      12.243019     25.526262      5.781995
  H      14.975256     25.051666      5.875409
  H      16.925848     26.898053      5.877037
  H      17.705085     29.462496      5.754573
  H      19.560693     31.631856      5.820568
  H      18.881569     34.263534      5.852988
  H      17.121858     36.279728      5.809379
  H      16.116333     38.822200      5.862722
  P       7.529890     35.353356     10.989868
  O       7.228765     35.251969     12.423097
  O       6.390758     35.198161      9.977126
  O       8.316894     36.703512     10.634892
  O       8.540502     34.171218     10.526907
  C       9.687437     33.886757     11.319132
  C       9.979727     32.389557     11.207007
  O      11.311009     32.188987     10.670365
  C       9.926838     31.613676     12.521059
  O       9.547915     30.246606     12.345494
  C      11.398688     31.565935     12.922352
  O      11.727382     30.594092     13.872042
  C      12.043424     31.354948     11.540727
  N      13.432690     31.717746     11.461018
  C      13.974554     32.983936     11.430818
  N      15.282735     32.992193     11.346173
  C      15.624680     31.657125     11.322048
  C      16.853358     30.989285     11.225901
  N      18.033012     31.656156     11.181855
  N      16.862668     29.646900     11.209246
  C      15.690732     29.002019     11.290870
  N      14.463317     29.509712     11.385419
  C      14.491796     30.843527     11.391111
  H       7.912430     37.144746      9.866800
  H      10.544072     34.445708     10.931060
  H       9.493066     34.187232     12.354689
  H       9.259463     31.975911     10.494238
  H       9.281680     32.098273     13.261068
  H       8.816347     30.207770     11.719216
  H      11.718119     32.537307     13.315604
  H      11.275824     29.783694     13.594193
  H      11.983439     30.295370     11.259985
  H      13.341023     33.858453     11.436438
  H      17.999421     32.628116     10.917104
  H      18.833547     31.124244     10.880878
  H      15.756262     27.917538     11.265746
162
Coordinates from ORCA-job amp_frame12_dry_r2scan E -13470.338507027629
  Si      3.448013     33.861053      7.841862
  Si      3.466233     30.756743      7.836971
  O       2.244839     34.784106      8.467623
  O       2.284443     29.774962      8.415690
  O       3.293432     32.286769      8.344125
  O       3.324197     33.831231      6.196657
  O       3.484237     30.816584      6.189206
  Si      6.131228     26.181020      7.849275
  Si      8.760122     24.547177      7.860379
  O       4.718044     25.601671      8.418117
  O       7.419545     25.319806      8.381059
  O       8.642190     23.014117      8.411795
  O       6.181611     26.168470      6.199659
  O       8.749605     24.614648      6.213618
  Si      6.139758     29.257202      7.742970
  Si      6.182229     35.508386      8.244704
  Si      8.986579     33.921612      7.678820
  Si      8.901004     30.816417      7.652807
  O       4.879808     30.089415      8.342802
  O       4.845013     34.480284      8.314277
  O       7.648494     34.757349      7.862734
  O       7.515629     30.065823      8.069930
  O       6.242707     27.734650      8.340939
  O       8.874916     32.352445      8.179446
  O       5.874756     29.134831      6.122078
  O       5.830858     35.956892      6.596169
  O       9.383854     33.807402      6.063646
  O       9.078971     30.856290      6.020845
  Si      6.269430     38.665479      7.929083
  Si      9.013847     40.063658      7.849623
  O       4.991471     39.602144      8.357598
  O       7.598220     39.520493      8.440580
  O       6.325123     37.190655      8.604721
  O       9.381358     41.602758      8.267552
  O       6.421377     38.514594      6.296947
  O       8.976683     39.867798      6.211958
  Si     11.454239     26.046937      7.794003
  Si     14.136624     24.538387      7.857897
  O      10.111601     25.319614      8.377898
  O      12.818954     25.359178      8.365011
  O      13.929533     23.007197      8.384922
  O      11.394468     25.792366      6.165919
  O      14.170935     24.620774      6.211382
  Si     11.509719     29.218475      7.750752
  Si     11.689324     35.379424      7.771484
  Si     14.281722     33.765967      7.804340
  Si     14.182813     30.702471      7.777862
  O      10.160441     29.965094      8.281696
  O      10.313204     34.695701      8.295415
  O      13.032158     34.644349      8.383094
  O      12.873864     29.901656      8.342094
  O      11.440050     27.635307      8.141627
  O      14.303959     32.223747      8.360558
  O      11.535524     29.386621      6.113126
  O      11.776411     35.170385      6.137486
  O      14.099584     33.641929      6.172815
  O      13.990298     30.811651      6.144831
  Si     11.678910     38.557398      7.820731
  Si     14.378598     40.045732      7.868581
  O      10.302173     39.199485      8.402140
  O      13.023614     39.303401      8.405322
  O      11.757403     36.964012      8.153612
  O      14.553903     41.580901      8.401927
  O      11.737638     38.830261      6.195481
  O      14.388695     39.942580      6.224025
  Si     16.860519     25.991218      7.889673
  O      15.508670     25.232561      8.413084
  O      18.115277     25.108477      8.448957
  O      16.792261     26.004315      6.242666
  Si     16.911649     29.069813      7.803808
  Si     17.050030     35.325167      7.817879
  Si     19.684774     33.742336      7.846729
  Si     19.563467     30.652187      7.802942
  O      15.518482     29.838129      8.124004
  O      15.705975     34.482725      8.153187
  O      18.361163     34.529779      8.407407
  O      18.172830     29.969758      8.308664
  O      16.890374     27.547239      8.401341
  O      19.691821     32.187301      8.365316
  O      17.092556     28.844257      6.175254
  O      17.315472     35.406770      6.191404
  O      19.591435     33.694258      6.204469
  O      19.542296     30.722613      6.159313
  Si     16.997182     38.399752      7.848429
  O      15.720383     39.257878      8.390647
  O      18.442868     38.976337      8.347365
  O      16.950527     36.852006      8.383142
  O      16.897235     38.349385      6.202668
  O      20.735831     29.671007      8.368727
  O      21.092172     34.381652      8.374847
  H       4.074657     24.986772      8.036591
  H       1.410409     29.602015      8.036749
  H       1.410409     35.007985      8.036749
  H       4.074657     39.623228      8.036591
  H       8.948181     22.173255      8.038302
  H       8.948181     42.436745      8.038302
  H      14.277762     22.173204      8.038282
  H      14.277762     42.436796      8.038282
  H      18.960557     24.876228      8.036406
  H      18.960557     39.733772      8.036406
  H      21.624717     29.491420      8.036583
  H      21.624717     35.118580      8.036583
  H      13.337268     34.173474      5.859905
  H      10.962975     34.726829      5.811116
  H       9.219862     32.930127      5.686458
  H       9.848238     30.344345      5.715322
  H      12.344212     29.832563      5.799138
  H      14.032832     31.737044      5.835019
  H      13.536618     39.627558      5.869747
  H      10.875555     39.078121      5.819834
  H       8.171912     39.386498      5.932378
  H       6.236715     37.557797      6.095087
  H       5.336090     35.284049      6.116733
  H       3.393670     32.935337      5.835754
  H       4.160791     30.240073      5.799144
  H       6.039222     28.248883      5.765060
  H       6.949271     25.686982      5.850941
  H       9.582129     24.959294      5.846746
  H      12.241819     25.523922      5.779530
  H      14.975740     25.049660      5.874820
  H      16.925920     26.897199      5.875985
  H      17.706176     29.461575      5.752671
  H      19.560682     31.633484      5.821243
  H      18.881091     34.262469      5.853831
  H      17.121854     36.277995      5.809693
  H      16.117043     38.820679      5.863064
  P       7.528499     35.355018     10.988975
  O       7.229747     35.259939     12.422761
  O       6.386291     35.198003      9.978696
  O       8.317159     36.700525     10.623376
  O       8.534612     34.167296     10.528969
  C       9.680209     33.878886     11.322397
  C       9.969016     32.381190     11.207432
  O      11.297787     32.174807     10.667426
  C       9.917069     31.605848     12.522860
  O       9.544470     30.238613     12.345234
  C      11.387936     31.553019     12.921269
  O      11.718858     30.580989     13.871588
  C      12.031952     31.343517     11.538865
  N      13.420212     31.711809     11.459720
  C      13.956834     32.980419     11.427596
  N      15.265045     32.994194     11.342710
  C      15.612487     31.660405     11.320583
  C      16.843940     30.998193     11.223240
  N      18.020414     31.670301     11.175368
  N      16.858993     29.655968     11.208917
  C      15.690315     29.005666     11.292743
  N      14.460438     29.508125     11.387037
  C      14.483038     30.841988     11.391028
  H       7.903806     37.140184      9.859266
  H      10.538819     34.437504     10.937107
  H       9.484587     34.176712     12.358571
  H       9.245229     31.968348     10.498180
  H       9.274140     32.091529     13.265130
  H       8.742152     30.207219     11.812079
  H      11.706620     32.524092     13.315294
  H      11.270929     29.768504     13.595351
  H      11.975995     30.283644     11.259387
  H      13.319611     33.852232     11.430795
  H      17.982305     32.642214     10.911074
  H      18.822945     31.142246     10.873251
  H      15.761168     27.921517     11.269726
162
Coordinates from ORCA-job amp_frame12_dry_r2scan E -13470.338751250894
  Si      3.444866     33.860568      7.844244
  Si      3.468999     30.757082      7.835979
  O       2.237978     34.774570      8.475289
  O       2.284133     29.782141      8.411735
  O       3.303116     32.287176      8.347519
  O       3.315731     33.830695      6.200318
  O       3.486866     30.818678      6.188503
  Si      6.131055     26.180740      7.849347
  Si      8.759612     24.547152      7.860708
  O       4.716987     25.602807      8.418050
  O       7.418695     25.318795      8.382561
  O       8.645506     23.014291      8.413951
  O       6.180494     26.167481      6.199888
  O       8.746367     24.614744      6.213786
  Si      6.144077     29.257215      7.742083
  Si      6.180610     35.510479      8.245180
  Si      8.987130     33.926519      7.681126
  Si      8.902129     30.820442      7.653897
  O       4.881254     30.086393      8.339526
  O       4.842287     34.485297      8.309015
  O       7.647739     34.760676      7.865441
  O       7.516815     30.068459      8.070441
  O       6.244051     27.734097      8.340508
  O       8.877951     32.356300      8.180709
  O       5.883307     29.134978      6.120243
  O       5.828904     35.964315      6.597320
  O       9.385548     33.813378      6.065511
  O       9.076852     30.866065      6.020925
  Si      6.273013     38.668162      7.926821
  Si      9.017956     40.063758      7.846366
  O       4.991063     39.600316      8.359145
  O       7.600808     39.524462      8.438681
  O       6.331273     37.194478      8.606622
  O       9.385452     41.603730      8.261589
  O       6.424503     38.518552      6.295320
  O       8.982016     39.864341      6.209325
  Si     11.453495     26.046947      7.790597
  Si     14.135509     24.537686      7.856680
  O      10.110633     25.321819      8.376746
  O      12.818183     25.359844      8.363270
  O      13.926150     23.006373      8.384040
  O      11.393425     25.786575      6.163244
  O      14.170904     24.618194      6.210280
  Si     11.509191     29.219366      7.743865
  Si     11.689787     35.379765      7.768190
  Si     14.281745     33.766102      7.802072
  Si     14.183470     30.702506      7.771161
  O      10.161433     29.966386      8.277556
  O      10.313757     34.698488      8.298326
  O      13.030861     34.641334      8.380081
  O      12.872768     29.903965      8.334210
  O      11.438801     27.635720      8.134661
  O      14.305471     32.223146      8.354396
  O      11.534351     29.384605      6.105599
  O      11.773600     35.173120      6.135065
  O      14.102724     33.643824      6.168526
  O      13.992943     30.811376      6.137269
  Si     11.683286     38.556532      7.817208
  Si     14.382824     40.046020      7.867123
  O      10.307164     39.201871      8.398045
  O      13.026615     39.305323      8.401201
  O      11.763919     36.964192      8.151219
  O      14.560518     41.581302      8.397706
  O      11.741948     38.827383      6.191806
  O      14.394947     39.940662      6.221978
  Si     16.859753     25.990501      7.888234
  O      15.507071     25.233057      8.412220
  O      18.113943     25.106691      8.447129
  O      16.790512     26.002992      6.241116
  Si     16.912164     29.069363      7.800484
  Si     17.050466     35.323749      7.817134
  Si     19.685401     33.740991      7.848011
  Si     19.564033     30.651276      7.802765
  O      15.518272     29.836893      8.118332
  O      15.705480     34.482880      8.151087
  O      18.359902     34.526306      8.407111
  O      18.172307     29.970084      8.307492
  O      16.890323     27.547005      8.398494
  O      19.693958     32.185844      8.367140
  O      17.096635     28.843383      6.172248
  O      17.317930     35.405386      6.190857
  O      19.592406     33.691795      6.205355
  O      19.544171     30.723249      6.159850
  Si     16.999361     38.397663      7.847788
  O      15.724045     39.257541      8.391164
  O      18.446633     38.972356      8.343779
  O      16.952300     36.850015      8.383795
  O      16.896718     38.344965      6.202003
  O      20.734756     29.667157      8.368148
  O      21.091529     34.382773      8.376531
  H       4.074658     24.986772      8.036591
  H       1.410409     29.602015      8.036749
  H       1.410409     35.007985      8.036749
  H       4.074657     39.623228      8.036591
  H       8.948181     22.173255      8.038302
  H       8.948181     42.436745      8.038302
  H      14.277762     22.173204      8.038282
  H      14.277762     42.436796      8.038282
  H      18.960557     24.876228      8.036406
  H      18.960557     39.733772      8.036406
  H      21.624717     29.491420      8.036583
  H      21.624717     35.118580      8.036583
  H      13.342177     34.175696      5.853668
  H      10.960416     34.726890      5.810434
  H       9.217571     32.936448      5.688882
  H       9.840325     30.348854      5.710351
  H      12.342011     29.832268      5.791610
  H      14.036214     31.736759      5.827842
  H      13.543352     39.625368      5.867045
  H      10.879559     39.076456      5.817484
  H       8.175951     39.386637      5.927986
  H       6.236495     37.562510      6.094138
  H       5.333361     35.291753      6.118435
  H       3.386814     32.936147      5.836752
  H       4.167226     30.246611      5.798512
  H       6.040677     28.247275      5.764374
  H       6.948616     25.686523      5.851242
  H       9.579801     24.955886      5.845667
  H      12.241002     25.519248      5.776706
  H      14.975347     25.048285      5.874230
  H      16.925661     26.895259      5.873592
  H      17.710877     29.460211      5.749944
  H      19.561759     31.634961      5.823517
  H      18.882503     34.260685      5.854690
  H      17.122591     36.275968      5.808431
  H      16.117239     38.818621      5.863584
  P       7.521720     35.357258     10.989928
  O       7.226315     35.256002     12.423137
  O       6.376005     35.199427      9.980264
  O       8.302621     36.704306     10.621884
  O       8.530618     34.173836     10.524710
  C       9.677555     33.883694     11.316726
  C       9.959804     32.384528     11.203233
  O      11.286639     32.165413     10.663824
  C       9.904150     31.615142     12.523229
  O       9.530784     30.248448     12.349128
  C      11.373887     31.557036     12.922061
  O      11.702817     30.590662     13.879911
  C      12.019215     31.339898     11.541492
  N      13.407710     31.710165     11.462443
  C      13.942743     32.979487     11.423880
  N      15.251121     32.994507     11.338456
  C      15.599914     31.660714     11.321358
  C      16.831995     30.999968     11.223242
  N      18.007483     31.672679     11.170184
  N      16.847670     29.657870     11.212137
  C      15.680410     29.005884     11.299413
  N      14.450003     29.507635     11.394781
  C      14.471292     30.841349     11.395540
  H       7.882277     37.140616      9.859944
  H      10.536717     34.440523     10.929022
  H       9.486388     34.181788     12.353651
  H       9.233125     31.971952     10.497961
  H       9.263682     32.106514     13.264228
  H       8.657452     30.220275     11.941600
  H      11.692842     32.529774     13.311583
  H      11.246628     29.779113     13.615521
  H      11.966470     30.278247     11.268386
  H      13.304572     33.850585     11.422475
  H      17.969294     32.645116     10.908193
  H      18.810838     31.145488     10.869177
  H      15.752707     27.921774     11.278417
162
Coordinates from ORCA-job amp_frame12_dry_r2scan E -13470.338875702053
  Si      3.442901     33.860184      7.847214
  Si      3.471778     30.757201      7.834807
  O       2.230217     34.762614      8.483490
  O       2.283120     29.789855      8.409179
  O       3.315928     32.287005      8.350699
  O       3.309172     33.830570      6.204165
  O       3.486590     30.820862      6.187105
  Si      6.131384     26.178565      7.848578
  Si      8.760831     24.546846      7.863022
  O       4.716695     25.602788      8.418445
  O       7.418199     25.316416      8.383831
  O       8.653810     23.014645      8.419571
  O       6.179408     26.161708      6.199158
  O       8.746547     24.612653      6.215871
  Si      6.146922     29.255034      7.736644
  Si      6.178991     35.513830      8.246158
  Si      8.984900     33.930274      7.677888
  Si      8.903624     30.823738      7.650175
  O       4.883136     30.082225      8.334115
  O       4.838862     34.492673      8.306594
  O       7.645739     34.764246      7.865591
  O       7.519350     30.066898      8.061161
  O       6.246070     27.732399      8.336862
  O       8.876885     32.359278      8.177355
  O       5.886315     29.131460      6.114604
  O       5.826521     35.972491      6.598678
  O       9.380148     33.817720      6.061133
  O       9.082133     30.875063      6.017195
  Si      6.275558     38.670754      7.926533
  Si      9.020186     40.064427      7.845038
  O       4.990698     39.600060      8.360281
  O       7.602352     39.528097      8.439048
  O       6.334098     37.198617      8.610451
  O       9.388189     41.604631      8.258987
  O       6.428608     38.521371      6.295844
  O       8.983966     39.863707      6.208357
  Si     11.453276     26.048278      7.791162
  Si     14.133824     24.537911      7.856539
  O      10.109795     25.325596      8.378603
  O      12.818086     25.361711      8.365358
  O      13.920857     23.005627      8.380676
  O      11.393632     25.783966      6.164411
  O      14.169128     24.620331      6.210227
  Si     11.509854     29.220974      7.741330
  Si     11.689487     35.379295      7.761420
  Si     14.281635     33.766115      7.800611
  Si     14.184866     30.702819      7.770744
  O      10.162690     29.969775      8.274431
  O      10.313367     34.699075      8.293683
  O      13.028972     34.639590      8.375506
  O      12.872226     29.906784      8.332355
  O      11.437655     27.637432      8.133127
  O      14.307802     32.223610      8.353030
  O      11.536859     29.382831      6.102556
  O      11.772434     35.172749      6.129119
  O      14.105309     33.641651      6.165813
  O      13.996222     30.810235      6.136176
  Si     11.685315     38.556388      7.813017
  Si     14.384850     40.046318      7.866506
  O      10.310033     39.203128      8.395109
  O      13.028285     39.304907      8.397700
  O      11.767162     36.963852      8.143816
  O      14.561580     41.581311      8.396851
  O      11.743154     38.829060      6.187950
  O      14.399113     39.940748      6.220744
  Si     16.858903     25.989728      7.888314
  O      15.506303     25.231689      8.412328
  O      18.113122     25.105503      8.445909
  O      16.788166     26.003249      6.241049
  Si     16.912692     29.068913      7.801936
  Si     17.050548     35.323604      7.816687
  Si     19.685475     33.740402      7.849727
  Si     19.564462     30.650780      7.805446
  O      15.518555     29.835971      8.119391
  O      15.703881     34.485106      8.149364
  O      18.358435     34.524320      8.406727
  O      18.172744     29.969356      8.310393
  O      16.889739     27.546134      8.398633
  O      19.694974     32.185377      8.369930
  O      17.098751     28.844199      6.173631
  O      17.319854     35.405272      6.190671
  O      19.593447     33.689360      6.206687
  O      19.544628     30.722425      6.162799
  Si     17.000249     38.396506      7.847032
  O      15.726450     39.258374      8.391407
  O      18.449283     38.969116      8.340049
  O      16.953056     36.849306      8.384870
  O      16.894458     38.341531      6.201310
  O      20.735530     29.666357      8.370956
  O      21.090301     34.384622      8.378679
  H       4.074658     24.986772      8.036591
  H       1.410409     29.602015      8.036749
  H       1.410409     35.007985      8.036749
  H       4.074657     39.623228      8.036591
  H       8.948181     22.173255      8.038302
  H       8.948181     42.436745      8.038302
  H      14.277762     22.173204      8.038282
  H      14.277762     42.436796      8.038282
  H      18.960557     24.876228      8.036406
  H      18.960556     39.733772      8.036406
  H      21.624717     29.491420      8.036583
  H      21.624717     35.118580      8.036583
  H      13.345309     34.171565      5.847931
  H      10.959577     34.725091      5.805322
  H       9.216980     32.938005      5.688235
  H       9.840717     30.352232      5.704735
  H      12.344578     29.830959      5.789594
  H      14.040208     31.735402      5.826402
  H      13.547517     39.626759      5.864868
  H      10.880301     39.079844      5.815607
  H       8.177783     39.386470      5.926681
  H       6.237967     37.565489      6.095412
  H       5.334109     35.298711      6.118244
  H       3.379671     32.936869      5.838441
  H       4.168193     30.251511      5.795408
  H       6.037971     28.242105      5.760465
  H       6.948305     25.681468      5.851152
  H       9.580845     24.951049      5.847116
  H      12.241710     25.517833      5.778098
  H      14.973556     25.051240      5.875064
  H      16.925254     26.895239      5.873752
  H      17.714067     29.460540      5.752211
  H      19.561538     31.634400      5.826876
  H      18.884390     34.258982      5.855521
  H      17.122220     36.274986      5.807417
  H      16.115296     38.816897      5.864238
  P       7.516063     35.359282     10.993562
  O       7.221749     35.240535     12.425264
  O       6.371419     35.199111      9.980816
  O       8.280376     36.717769     10.637749
  O       8.537305     34.191468     10.516942
  C       9.688613     33.903566     11.303142
  C       9.965583     32.402780     11.195181
  O      11.293448     32.174265     10.661912
  C       9.901675     31.640155     12.518722
  O       9.515070     30.275720     12.351793
  C      11.370467     31.576681     12.922883
  O      11.690070     30.614527     13.887666
  C      12.019552     31.349794     11.545650
  N      13.409969     31.714361     11.468249
  C      13.950353     32.981376     11.428661
  N      15.258784     32.990719     11.341757
  C      15.601737     31.655274     11.324243
  C      16.830872     30.989212     11.225108
  N      18.009359     31.656179     11.173265
  N      16.840149     29.647128     11.211740
  C      15.670241     29.000069     11.298817
  N      14.442211     29.507410     11.396687
  C      14.469555     30.840905     11.399307
  H       7.861833     37.148802      9.871597
  H      10.545486     34.457381     10.906597
  H       9.506785     34.206428     12.340314
  H       9.240360     31.990763     10.489153
  H       9.262334     32.139377     13.254691
  H       8.634551     30.252894     11.960068
  H      11.692726     32.550141     13.308240
  H      11.215109     29.809776     13.634916
  H      11.964861     30.286953     11.276746
  H      13.316049     33.855324     11.427724
  H      17.976938     32.629963     10.916062
  H      18.811346     31.125873     10.874347
  H      15.737504     27.915697     11.275310
162
Coordinates from ORCA-job amp_frame12_dry_r2scan E -13470.338968121554
  Si      3.440527     33.858439      7.848833
  Si      3.474442     30.756087      7.833844
  O       2.222347     34.749446      8.490841
  O       2.282552     29.794259      8.407562
  O       3.327769     32.285245      8.353193
  O       3.299913     33.828815      6.206428
  O       3.485772     30.822173      6.185544
  Si      6.132330     26.175688      7.847435
  Si      8.762783     24.546249      7.865755
  O       4.716984     25.602325      8.418706
  O       7.418061     25.313405      8.384784
  O       8.662261     23.014815      8.425358
  O       6.179468     26.154590      6.197974
  O       8.748441     24.609843      6.218347
  Si      6.149410     29.252123      7.730404
  Si      6.177361     35.516691      8.244912
  Si      8.982091     33.932330      7.673872
  Si      8.905708     30.825974      7.646120
  O       4.885048     30.077274      8.329470
  O       4.834854     34.499243      8.301133
  O       7.642194     34.765622      7.862252
  O       7.522050     30.064578      8.051115
  O       6.248857     27.730283      8.332362
  O       8.874851     32.361167      8.173934
  O       5.887388     29.127104      6.108541
  O       5.824630     35.979586      6.597559
  O       9.374150     33.819945      6.056113
  O       9.088676     30.882463      6.013355
  Si      6.277099     38.672515      7.926630
  Si      9.021017     40.065074      7.844177
  O       4.989864     39.598403      8.362605
  O       7.602841     39.531144      8.439205
  O       6.337480     37.201191      8.612247
  O       9.389796     41.605066      8.257556
  O       6.430641     38.524251      6.296412
  O       8.983827     39.863828      6.207680
  Si     11.453578     26.049361      7.793044
  Si     14.132670     24.538224      7.857188
  O      10.109455     25.328766      8.381300
  O      12.818542     25.363248      8.368255
  O      13.916899     23.004998      8.377998
  O      11.394180     25.781899      6.166808
  O      14.167891     24.623128      6.210871
  Si     11.511386     29.222126      7.740589
  Si     11.688750     35.378927      7.756064
  Si     14.281174     33.765957      7.800293
  Si     14.186527     30.702825      7.773011
  O      10.164526     29.972610      8.271069
  O      10.311903     34.699981      8.287854
  O      13.026963     34.638526      8.372464
  O      12.872736     29.908341      8.333100
  O      11.437451     27.638780      8.133039
  O      14.309998     32.224103      8.354069
  O      11.541058     29.381606      6.101523
  O      11.772048     35.171343      6.124339
  O      14.106181     33.638594      6.165053
  O      13.999576     30.809077      6.138059
  Si     11.685912     38.556782      7.809975
  Si     14.385714     40.046333      7.866122
  O      10.311079     39.203447      8.393222
  O      13.028751     39.304516      8.395500
  O      11.768808     36.963738      8.137418
  O      14.561828     41.581178      8.396328
  O      11.742817     38.831833      6.185237
  O      14.401356     39.940414      6.219889
  Si     16.858296     25.989105      7.889412
  O      15.506216     25.229934      8.413224
  O      18.112432     25.104116      8.445051
  O      16.786050     26.004310      6.241985
  Si     16.913426     29.068437      7.805622
  Si     17.050446     35.323799      7.816877
  Si     19.685366     33.740213      7.851660
  Si     19.564865     30.650560      7.808738
  O      15.519230     29.835139      8.123049
  O      15.701999     34.487666      8.148357
  O      18.357085     34.523012      8.407024
  O      18.173635     29.968548      8.314575
  O      16.889697     27.545108      8.400704
  O      19.695818     32.185336      8.372775
  O      17.099948     28.844924      6.177151
  O      17.321608     35.405540      6.191174
  O      19.594284     33.687583      6.208319
  O      19.544413     30.721662      6.166010
  Si     17.000492     38.395848      7.846490
  O      15.727745     39.259210      8.391490
  O      18.450853     38.967021      8.337407
  O      16.953378     36.849207      8.385984
  O      16.892056     38.339146      6.200856
  O      20.736750     29.666578      8.374190
  O      21.089010     34.386620      8.380900
  H       4.074658     24.986772      8.036591
  H       1.410409     29.602015      8.036749
  H       1.410409     35.007985      8.036749
  H       4.074657     39.623228      8.036591
  H       8.948181     22.173255      8.038302
  H       8.948181     42.436745      8.038302
  H      14.277762     22.173204      8.038282
  H      14.277762     42.436796      8.038282
  H      18.960557     24.876228      8.036406
  H      18.960557     39.733772      8.036406
  H      21.624717     29.491420      8.036583
  H      21.624717     35.118580      8.036583
  H      13.345698     34.165880      5.844901
  H      10.959320     34.723240      5.800951
  H       9.219819     32.936443      5.687693
  H       9.844485     30.356545      5.700208
  H      12.349075     29.829913      5.789822
  H      14.042664     31.734248      5.828158
  H      13.549417     39.627606      5.863829
  H      10.879499     39.083491      5.814311
  H       8.177926     39.385355      5.926938
  H       6.241042     37.567271      6.096694
  H       5.333992     35.305656      6.115463
  H       3.370409     32.935592      5.839253
  H       4.167074     30.254045      5.791577
  H       6.035316     28.236377      5.756301
  H       6.949144     25.674671      5.851139
  H       9.583656     24.946177      5.849620
  H      12.242818     25.517069      5.780766
  H      14.972223     25.055143      5.876795
  H      16.924205     26.896493      5.875618
  H      17.715576     29.461399      5.756384
  H      19.560736     31.633715      5.830144
  H      18.886058     34.258002      5.856837
  H      17.121934     36.274566      5.807375
  H      16.112626     38.815205      5.865114
  P       7.507566     35.359917     10.996045
  O       7.210403     35.222752     12.425661
  O       6.366871     35.199079      9.977823
  O       8.257983     36.730083     10.657120
  O       8.541851     34.208625     10.509705
  C       9.696914     33.924919     11.291339
  C       9.969477     32.422594     11.193817
  O      11.297755     32.186818     10.664713
  C       9.901088     31.669689     12.522327
  O       9.502760     30.307319     12.364874
  C      11.369959     31.601279     12.927556
  O      11.681753     30.644699     13.899159
  C      12.019038     31.362485     11.552124
  N      13.411436     31.720116     11.473339
  C      13.956924     32.984749     11.434728
  N      15.265197     32.988913     11.345884
  C      15.602628     31.652137     11.324599
  C      16.829009     30.981130     11.223777
  N      18.010165     31.643145     11.174379
  N      16.832768     29.638976     11.206620
  C      15.660134     28.996815     11.293216
  N      14.434468     29.508951     11.394357
  C      14.467230     30.842326     11.400029
  H       7.842849     37.159251      9.887170
  H      10.551144     34.474767     10.885157
  H       9.523248     34.236538     12.327301
  H       9.245499     32.008044     10.488631
  H       9.264823     32.179178     13.253379
  H       8.609797     30.289311     12.002150
  H      11.698050     32.575806     13.305803
  H      11.186409     29.847587     13.660773
  H      11.959741     30.298740     11.286951
  H      13.326426     33.861491     11.437483
  H      17.982331     32.617900     10.920632
  H      18.810674     31.109941     10.876627
  H      15.722425     27.912236     11.265933
162
Coordinates from ORCA-job amp_frame12_dry_r2scan E -13470.339049244993
  Si      3.438217     33.855990      7.848314
  Si      3.476962     30.754079      7.832616
  O       2.214439     34.735214      8.496798
  O       2.282163     29.796713      8.406860
  O       3.339834     32.282612      8.354234
  O       3.289131     33.825661      6.206571
  O       3.483328     30.821665      6.183520
  Si      6.133612     26.172064      7.845867
  Si      8.765454     24.545489      7.868519
  O       4.717527     25.601658      8.418847
  O       7.418186     25.309758      8.385277
  O       8.672546     23.015122      8.431918
  O       6.179575     26.145895      6.196416
  O       8.751236     24.605575      6.220944
  Si      6.151034     29.248269      7.723003
  Si      6.175347     35.519585      8.242743
  Si      8.977876     33.933159      7.669144
  Si      8.907271     30.827814      7.640863
  O       4.886938     30.071836      8.325005
  O       4.830511     34.505820      8.293666
  O       7.638253     34.767171      7.858980
  O       7.524661     30.060935      8.038452
  O       6.252063     27.727641      8.326988
  O       8.871122     32.362252      8.170666
  O       5.886048     29.121452      6.101757
  O       5.823963     35.987734      6.595710
  O       9.364480     33.820121      6.050074
  O       9.095873     30.889821      6.008621
  Si      6.277667     38.674145      7.927835
  Si      9.020734     40.065953      7.844215
  O       4.989040     39.597713      8.364686
  O       7.602411     39.534143      8.440572
  O       6.338448     37.203268      8.614648
  O       9.391356     41.605534      8.256951
  O       6.432058     38.526658      6.298072
  O       8.981660     39.865549      6.207833
  Si     11.454106     26.050746      7.794672
  Si     14.131507     24.539001      7.857128
  O      10.109343     25.332376      8.383847
  O      12.819265     25.365193      8.371017
  O      13.912972     23.004853      8.374188
  O      11.394971     25.780482      6.169064
  O      14.166436     24.626687      6.210793
  Si     11.513011     29.223376      7.739217
  Si     11.686979     35.378503      7.750056
  Si     14.280073     33.765995      7.798147
  Si     14.188085     30.702890      7.773879
  O      10.166571     29.976065      8.266225
  O      10.309628     34.700292      8.279895
  O      13.024287     34.637697      8.368244
  O      12.873662     29.909673      8.333090
  O      11.437585     27.640507      8.132745
  O      14.311730     32.224804      8.353853
  O      11.545182     29.380883      6.100040
  O      11.769722     35.169176      6.118593
  O      14.105555     33.636785      6.163061
  O      14.003015     30.808294      6.138767
  Si     11.685108     38.557675      7.807056
  Si     14.385432     40.046154      7.865421
  O      10.310529     39.202790      8.392430
  O      13.028222     39.303665      8.393722
  O      11.768752     36.963626      8.129996
  O      14.560562     41.580766      8.396306
  O      11.740892     38.836057      6.182808
  O      14.401857     39.940635      6.218969
  Si     16.857755     25.988516      7.889541
  O      15.506418     25.228069      8.413196
  O      18.111570     25.102768      8.443778
  O      16.784540     26.005241      6.242039
  Si     16.914081     29.067973      7.808006
  Si     17.049905     35.324347      7.816165
  Si     19.684829     33.740327      7.852371
  Si     19.565195     30.650506      7.810863
  O      15.519800     29.834513      8.125608
  O      15.699327     34.490690      8.146202
  O      18.355366     34.521976      8.406306
  O      18.174483     29.967650      8.317398
  O      16.889653     27.544143      8.401687
  O      19.695954     32.185547      8.374139
  O      17.100685     28.845724      6.179422
  O      17.322751     35.406534      6.190947
  O      19.595310     33.686737      6.208852
  O      19.544886     30.720596      6.167822
  Si     17.000032     38.395511      7.845458
  O      15.727879     39.259827      8.390926
  O      18.451511     38.965545      8.334792
  O      16.953192     36.849465      8.386542
  O      16.889631     38.338057      6.200025
  O      20.737894     29.667476      8.376924
  O      21.087146     34.388734      8.382498
  H       4.074657     24.986772      8.036591
  H       1.410409     29.602015      8.036749
  H       1.410409     35.007985      8.036749
  H       4.074657     39.623228      8.036591
  H       8.948181     22.173255      8.038302
  H       8.948181     42.436745      8.038302
  H      14.277762     22.173204      8.038282
  H      14.277762     42.436796      8.038282
  H      18.960557     24.876228      8.036406
  H      18.960557     39.733772      8.036406
  H      21.624717     29.491420      8.036583
  H      21.624717     35.118580      8.036583
  H      13.346120     34.164360      5.841092
  H      10.954622     34.725202      5.795675
  H       9.222611     32.931768      5.687417
  H       9.849154     30.360556      5.695401
  H      12.353873     29.828678      5.789271
  H      14.045631     31.733516      5.828628
  H      13.549438     39.629609      5.862505
  H      10.877439     39.088883      5.812946
  H       8.175848     39.386030      5.928254
  H       6.241294     37.569330      6.098052
  H       5.336576     35.314050      6.110152
  H       3.359843     32.932702      5.838661
  H       4.163174     30.254212      5.786448
  H       6.032154     28.229725      5.751369
  H       6.950696     25.667702      5.850463
  H       9.586431     24.941821      5.851978
  H      12.244150     25.516664      5.783326
  H      14.970517     25.059832      5.877469
  H      16.922949     26.897753      5.876519
  H      17.717070     29.462163      5.759605
  H      19.561403     31.632339      5.831161
  H      18.887782     34.257528      5.856716
  H      17.121378     36.275024      5.806812
  H      16.109887     38.814327      5.865174
  P       7.498650     35.358442     10.999135
  O       7.198351     35.197078     12.426018
  O       6.363367     35.196154      9.975407
  O       8.230472     36.744693     10.684472
  O       8.549695     34.228748     10.500541
  C       9.707988     33.950387     11.278307
  C       9.976784     32.446599     11.195505
  O      11.306088     32.205349     10.671287
  C       9.904106     31.705375     12.529958
  O       9.492968     30.345372     12.384510
  C      11.372964     31.629740     12.935493
  O      11.675203     30.677506     13.913193
  C      12.020715     31.378066     11.561274
  N      13.415845     31.724733     11.481111
  C      13.969506     32.985758     11.445209
  N      15.277535     32.981832     11.353722
  C      15.606253     31.643051     11.327910
  C      16.828319     30.964276     11.225764
  N      18.013666     31.618973     11.179598
  N      16.823755     29.622080     11.203801
  C      15.646697     28.987573     11.288842
  N      14.424624     29.507108     11.393358
  C      14.465833     30.840311     11.402848
  H       7.820645     37.173552      9.910652
  H      10.560155     34.494227     10.861065
  H       9.541886     34.274458     12.311771
  H       9.254417     32.028164     10.491260
  H       9.272078     32.227160     13.255592
  H       8.591412     30.332877     12.043652
  H      11.709116     32.604697     13.306003
  H      11.156290     29.890756     13.690074
  H      11.953064     30.314008     11.299027
  H      13.344890     33.866697     11.452611
  H      17.992110     32.594406     10.927963
  H      18.811110     31.080893     10.882300
  H      15.701464     27.902651     11.257313
162
Coordinates from ORCA-job amp_frame12_dry_r2scan E -13470.339118426691
  Si      3.435617     33.853168      7.845698
  Si      3.478565     30.751321      7.832381
  O       2.207200     34.721598      8.500984
  O       2.281386     29.797031      8.408919
  O       3.349625     32.279662      8.353971
  O       3.277044     33.821451      6.204672
  O       3.479690     30.818491      6.182550
  Si      6.135065     26.168633      7.844653
  Si      8.768122     24.544472      7.871268
  O       4.718247     25.600915      8.418947
  O       7.418460     25.306113      8.385572
  O       8.681311     23.015073      8.437776
  O       6.180405     26.138375      6.195227
  O       8.754772     24.601279      6.223603
  Si      6.151694     29.244532      7.717149
  Si      6.174291     35.521178      8.237012
  Si      8.974243     33.931897      7.662146
  Si      8.908604     30.827999      7.636420
  O       4.887995     30.066461      8.322754
  O       4.825995     34.511841      8.282731
  O       7.634271     34.765765      7.851151
  O       7.526390     30.057645      8.027801
  O       6.255502     27.725068      8.322489
  O       8.867776     32.362100      8.167166
  O       5.882759     29.116280      6.096749
  O       5.824723     35.994968      6.590475
  O       9.357162     33.817209      6.042581
  O       9.102749     30.892631      6.004781
  Si      6.277039     38.675451      7.928659
  Si      9.019583     40.066898      7.844754
  O       4.987642     39.595688      8.368153
  O       7.601185     39.536244      8.441445
  O       6.340009     37.203556      8.613638
  O       9.391897     41.605923      8.257912
  O       6.430961     38.530462      6.298855
  O       8.978813     39.868098      6.208269
  Si     11.454769     26.051868      7.797351
  Si     14.130771     24.539785      7.857774
  O      10.109433     25.334964      8.386761
  O      12.820028     25.366483      8.374178
  O      13.910883     23.004941      8.371699
  O      11.395774     25.780312      6.172100
  O      14.164970     24.630421      6.211394
  Si     11.514798     29.224103      7.740252
  Si     11.685580     35.378081      7.744922
  Si     14.279061     33.765724      7.797189
  Si     14.189470     30.702798      7.777002
  O      10.168297     29.978486      8.262792
  O      10.306880     34.700693      8.269986
  O      13.022014     34.637627      8.365221
  O      12.875083     29.909929      8.335754
  O      11.438474     27.641743      8.134446
  O      14.313091     32.225509      8.355908
  O      11.549485     29.380873      6.101141
  O      11.770470     35.165965      6.113471
  O      14.104469     33.633594      6.162926
  O      14.005809     30.807443      6.141950
  Si     11.683332     38.558868      7.805032
  Si     14.384350     40.045815      7.864688
  O      10.308756     39.201525      8.392528
  O      13.027046     39.302664      8.392961
  O      11.767299     36.963517      8.123647
  O      14.558619     41.580285      8.396633
  O      11.738324     38.840953      6.181340
  O      14.400776     39.940735      6.218266
  Si     16.857425     25.988032      7.890229
  O      15.506988     25.226311      8.413698
  O      18.110909     25.101376      8.442920
  O      16.783310     26.006536      6.242699
  Si     16.914572     29.067542      7.811618
  Si     17.049171     35.325021      7.816103
  Si     19.684113     33.740815      7.852947
  Si     19.565363     30.650701      7.813057
  O      15.520499     29.834188      8.130188
  O      15.696824     34.493508      8.145395
  O      18.353933     34.521640      8.406148
  O      18.175566     29.966662      8.320613
  O      16.889955     27.543119      8.403749
  O      19.695585     32.186128      8.374989
  O      17.100025     28.846607      6.182765
  O      17.322882     35.407513      6.191197
  O      19.595802     33.686787      6.209417
  O      19.544313     30.719456      6.169592
  Si     16.999264     38.395680      7.844807
  O      15.727010     39.260235      8.390057
  O      18.450973     38.965627      8.333953
  O      16.952773     36.850173      8.386991
  O      16.888232     38.338072      6.199546
  O      20.739329     29.669439      8.379601
  O      21.085436     34.390614      8.383827
  H       4.074658     24.986772      8.036591
  H       1.410409     29.602015      8.036749
  H       1.410409     35.007985      8.036749
  H       4.074657     39.623228      8.036591
  H       8.948181     22.173255      8.038302
  H       8.948181     42.436745      8.038302
  H      14.277762     22.173204      8.038282
  H      14.277762     42.436796      8.038282
  H      18.960557     24.876228      8.036406
  H      18.960557     39.733772      8.036406
  H      21.624717     29.491420      8.036583
  H      21.624717     35.118580      8.036583
  H      13.343712     34.158621      5.839701
  H      10.955605     34.722283      5.790165
  H       9.227777     32.924588      5.685172
  H       9.855591     30.361803      5.693162
  H      12.358824     29.828004      5.791101
  H      14.046231     31.732663      5.831429
  H      13.547588     39.631563      5.861865
  H      10.874723     39.093858      5.811810
  H       8.172991     39.387185      5.930294
  H       6.240765     37.572428      6.097988
  H       5.339736     35.322218      6.101502
  H       3.347696     32.928130      5.837517
  H       4.157534     30.250661      5.782928
  H       6.029694     28.224270      5.747478
  H       6.952767     25.661528      5.850228
  H       9.589975     24.938023      5.854963
  H      12.245381     25.517202      5.786594
  H      14.969053     25.064095      5.878645
  H      16.921976     26.899540      5.878393
  H      17.716867     29.463128      5.763654
  H      19.561314     31.630753      5.831920
  H      18.888747     34.257867      5.856880
  H      17.120215     36.275639      5.806861
  H      16.108063     38.813936      5.865026
  P       7.485729     35.353143     10.999687
  O       7.176906     35.165942     12.422203
  O       6.360217     35.190945      9.966072
  O       8.199730     36.755626     10.713466
  O       8.555597     34.246994     10.490548
  C       9.716503     33.974629     11.266269
  C       9.984069     32.470257     11.197923
  O      11.314936     32.227446     10.677949
  C       9.909056     31.739282     12.537903
  O       9.487327     30.381518     12.403335
  C      11.377810     31.653923     12.942019
  O      11.671507     30.701527     13.921642
  C      12.023002     31.394017     11.567610
  N      13.420792     31.728897     11.486408
  C      13.983491     32.985987     11.455589
  N      15.291324     32.973299     11.363087
  C      15.610480     31.632426     11.331024
  C      16.827872     30.945289     11.227488
  N      18.017946     31.591893     11.186213
  N      16.814189     29.603169     11.200043
  C      15.632324     28.976944     11.282544
  N      14.414158     29.504478     11.389071
  C      14.464475     30.837420     11.403359
  H       7.796168     37.182887      9.934913
  H      10.567075     34.512833     10.838909
  H       9.555605     34.310740     12.296790
  H       9.263504     32.045744     10.495207
  H       9.282443     32.272386     13.260071
  H       8.575553     30.374573     12.090754
  H      11.722514     32.627641     13.308103
  H      11.132023     29.925499     13.709696
  H      11.945688     30.330645     11.305501
  H      13.365266     33.871386     11.468199
  H      18.003243     32.567950     10.936443
  H      18.811556     31.048573     10.887981
  H      15.679076     27.891760     11.246131
162
Coordinates from ORCA-job amp_frame12_dry_r2scan E -13470.339167717639
  Si      3.433997     33.851102      7.841856
  Si      3.479053     30.748963      7.832231
  O       2.203567     34.713626      8.501986
  O       2.280869     29.795731      8.411384
  O       3.354385     32.277555      8.352297
  O       3.268435     33.817744      6.201527
  O       3.476276     30.813937      6.182157
  Si      6.136002     26.166277      7.844186
  Si      8.770189     24.543798      7.873075
  O       4.718809     25.600143      8.419327
  O       7.418794     25.303586      8.385554
  O       8.688265     23.015126      8.442134
  O       6.180526     26.133616      6.194826
  O       8.757373     24.597705      6.225469
  Si      6.151141     29.241794      7.713847
  Si      6.173498     35.521519      8.231907
  Si      8.971151     33.930339      7.655540
  Si      8.908696     30.827987      7.633275
  O       4.888385     30.063295      8.322146
  O       4.823467     34.514620      8.273883
  O       7.632286     34.765625      7.845614
  O       7.527181     30.054831      8.019612
  O       6.257772     27.723208      8.320071
  O       8.864332     32.361831      8.164931
  O       5.878326     29.112275      6.094306
  O       5.826908     35.998869      6.585719
  O       9.350953     33.812462      6.035982
  O       9.107660     30.894178      6.002188
  Si      6.275724     38.675869      7.929546
  Si      9.018073     40.067514      7.846615
  O       4.987249     39.596192      8.369224
  O       7.600118     39.535827      8.443684
  O       6.336713     37.202519      8.612885
  O       9.391346     41.606230      8.260923
  O       6.430486     38.533054      6.299582
  O       8.975898     39.871617      6.209860
  Si     11.455180     26.053143      7.798855
  Si     14.130071     24.540692      7.857445
  O      10.109490     25.337218      8.388454
  O      12.820380     25.367582      8.375969
  O      13.909541     23.005429      8.369114
  O      11.396295     25.781288      6.173810
  O      14.163067     24.633610      6.211054
  Si     11.515625     29.224957      7.740346
  Si     11.683920     35.378023      7.738659
  Si     14.278133     33.766149      7.792451
  Si     14.190087     30.703280      7.775811
  O      10.169209     29.980845      8.260351
  O      10.304793     34.700375      8.260178
  O      13.020270     34.638312      8.359458
  O      12.876155     29.910672      8.335698
  O      11.439371     27.643176      8.135718
  O      14.313431     32.226738      8.353754
  O      11.550655     29.381048      6.101260
  O      11.769197     35.163872      6.106801
  O      14.103335     33.633182      6.159034
  O      14.007250     30.806987      6.140884
  Si     11.681214     38.560135      7.802900
  Si     14.382806     40.045664      7.863614
  O      10.306828     39.200077      8.393378
  O      13.025926     39.301191      8.392069
  O      11.764851     36.963455      8.116878
  O      14.555253     41.579743      8.397840
  O      11.735700     38.846448      6.179922
  O      14.399027     39.942303      6.217441
  Si     16.857150     25.987746      7.889298
  O      15.507383     25.225275      8.412869
  O      18.110499     25.101018      8.442120
  O      16.782844     26.006637      6.241846
  Si     16.914581     29.067390      7.811353
  Si     17.048454     35.325986      7.813688
  Si     19.683262     33.741473      7.851624
  Si     19.565355     30.651028      7.812954
  O      15.520749     29.834688      8.130565
  O      15.694678     34.496020      8.141878
  O      18.352564     34.521825      8.403962
  O      18.176099     29.965880      8.320451
  O      16.889647     27.542708      8.402964
  O      19.694204     32.186829      8.373534
  O      17.099591     28.847156      6.182417
  O      17.323054     35.409247      6.189129
  O      19.596681     33.687733      6.208197
  O      19.544624     30.718289      6.169187
  Si     16.998323     38.396301      7.843471
  O      15.725533     39.260356      8.388370
  O      18.449634     38.966452      8.333565
  O      16.952117     36.850955      8.385549
  O      16.888114     38.339904      6.198325
  O      20.740221     29.671665      8.380815
  O      21.083739     34.391913      8.384024
  H       4.074657     24.986772      8.036591
  H       1.410409     29.602015      8.036749
  H       1.410409     35.007985      8.036749
  H       4.074657     39.623228      8.036591
  H       8.948181     22.173255      8.038302
  H       8.948181     42.436745      8.038302
  H      14.277762     22.173204      8.038282
  H      14.277762     42.436796      8.038282
  H      18.960557     24.876228      8.036406
  H      18.960557     39.733772      8.036406
  H      21.624717     29.491420      8.036583
  H      21.624717     35.118580      8.036583
  H      13.344040     34.160511      5.835257
  H      10.951506     34.726192      5.782988
  H       9.230196     32.916504      5.683344
  H       9.860845     30.362382      5.692573
  H      12.360501     29.826943      5.790606
  H      14.047366     31.732016      5.829489
  H      13.545423     39.634897      5.860447
  H      10.872146     39.099269      5.810391
  H       8.170014     39.390200      5.932518
  H       6.239932     37.575261      6.096867
  H       5.347121     35.325293      6.093016
  H       3.339573     32.923868      5.835900
  H       4.152571     30.245530      5.781031
  H       6.027267     28.220516      5.745276
  H       6.953627     25.657982      5.849968
  H       9.591961     24.935902      5.856746
  H      12.246090     25.518079      5.788534
  H      14.967082     25.067335      5.878165
  H      16.920929     26.899930      5.877911
  H      17.717496     29.463249      5.764114
  H      19.562696     31.629027      5.830268
  H      18.889879     34.258583      5.854867
  H      17.120246     36.277326      5.804794
  H      16.107873     38.815248      5.863384
  P       7.478625     35.346556     11.000973
  O       7.167917     35.134983     12.419980
  O       6.358880     35.185041      9.962672
  O       8.174096     36.763503     10.739459
  O       8.563709     34.261416     10.480016
  C       9.726319     33.993370     11.254592
  C       9.993277     32.488906     11.196353
  O      11.325724     32.246208     10.679901
  C       9.915755     31.763926     12.539650
  O       9.486182     30.407895     12.411174
  C      11.383944     31.669135     12.943217
  O      11.670564     30.712968     13.921420
  C      12.027376     31.405606     11.568438
  N      13.427309     31.730195     11.487817
  C      13.998301     32.983784     11.461789
  N      15.306012     32.963019     11.369736
  C      15.616424     31.620289     11.332819
  C      16.829557     30.925776     11.228086
  N      18.023929     31.565042     11.191030
  N      16.807495     29.583975     11.195150
  C      15.621418     28.964998     11.274444
  N      14.406740     29.499788     11.382723
  C      14.465295     30.832376     11.401712
  H       7.776048     37.191542      9.958518
  H      10.576117     34.525944     10.819303
  H       9.569265     34.338154     12.282826
  H       9.273658     32.060130     10.495135
  H       9.293055     32.304008     13.260186
  H       8.571030     30.405624     12.108594
  H      11.735213     32.640537     13.309123
  H      11.117261     29.945549     13.713644
  H      11.941264     30.343251     11.305413
  H      13.385745     33.873064     11.477532
  H      18.015353     32.541709     10.943266
  H      18.813696     31.017240     10.890625
  H      15.661311     27.879673     11.233817
162
Coordinates from ORCA-job amp_frame12_dry_r2scan E -13470.339207135316
  Si      3.433769     33.851181      7.839544
  Si      3.477735     30.748252      7.833850
  O       2.204117     34.713914      8.500870
  O       2.279406     29.795038      8.415860
  O       3.353364     32.277681      8.351260
  O       3.266034     33.816203      6.199596
  O       3.473264     30.809842      6.184045
  Si      6.135986     26.166163      7.844557
  Si      8.770499     24.543489      7.873552
  O       4.718766     25.600068      8.419583
  O       7.418726     25.303133      8.385263
  O       8.689311     23.014928      8.443220
  O       6.180283     26.134091      6.195220
  O       8.758209     24.596609      6.226045
  Si      6.149474     29.241475      7.714634
  Si      6.174462     35.521012      8.227989
  Si      8.970599     33.928369      7.649792
  Si      8.908369     30.826952      7.632633
  O       4.887424     30.063109      8.324420
  O       4.823376     34.515204      8.269703
  O       7.632259     34.763651      7.840339
  O       7.526592     30.054190      8.017544
  O       6.258277     27.723033      8.320569
  O       8.863462     32.361153      8.163548
  O       5.873586     29.111731      6.095623
  O       5.829681     35.999921      6.582029
  O       9.350262     33.808080      6.031046
  O       9.109519     30.891353      6.001687
  Si      6.274348     38.676318      7.929309
  Si      9.017017     40.067953      7.847959
  O       4.987418     39.597895      8.368817
  O       7.599554     39.534443      8.444669
  O       6.333413     37.201618      8.610587
  O       9.390245     41.606482      8.264246
  O       6.429827     38.534390      6.299124
  O       8.974377     39.874482      6.210838
  Si     11.455148     26.053659      7.799955
  Si     14.129718     24.541063      7.857378
  O      10.109334     25.337536      8.389102
  O      12.820141     25.367556      8.376771
  O      13.909826     23.005785      8.368420
  O      11.396309     25.783083      6.174690
  O      14.161442     24.635354      6.210997
  Si     11.515764     29.225003      7.741747
  Si     11.683855     35.377998      7.734819
  Si     14.278240     33.766315      7.789917
  Si     14.190141     30.703631      7.775587
  O      10.169074     29.981212      8.260771
  O      10.304149     34.699893      8.253237
  O      13.020332     34.639658      8.356128
  O      12.876709     29.910654      8.336580
  O      11.440210     27.643568      8.137883
  O      14.313223     32.227544      8.353120
  O      11.550432     29.381043      6.102605
  O      11.771639     35.162475      6.102494
  O      14.103796     33.632378      6.157063
  O      14.007597     30.806534      6.140740
  Si     11.679850     38.560918      7.801714
  Si     14.381639     40.045767      7.862999
  O      10.305594     39.199306      8.393980
  O      13.025400     39.299873      8.391882
  O      11.762551     36.963324      8.113142
  O      14.552301     41.579480      8.399413
  O      11.734400     38.850168      6.179285
  O      14.397471     39.944080      6.217101
  Si     16.857092     25.987577      7.888712
  O      15.507574     25.224840      8.412338
  O      18.110649     25.101360      8.442204
  O      16.782874     26.006396      6.241332
  Si     16.914167     29.067353      7.811071
  Si     17.048141     35.326511      7.812422
  Si     19.682845     33.742046      7.850558
  Si     19.565106     30.651277      7.812486
  O      15.520839     29.835394      8.131319
  O      15.694182     34.496907      8.140691
  O      18.352297     34.522594      8.402872
  O      18.176314     29.965297      8.319891
  O      16.889230     27.542516      8.402396
  O      19.692906     32.187349      8.371963
  O      17.098374     28.847662      6.181937
  O      17.322462     35.409913      6.187792
  O      19.596806     33.688839      6.207296
  O      19.543847     30.717477      6.168666
  Si     16.997818     38.396986      7.842870
  O      15.724334     39.260401      8.387050
  O      18.448162     38.967916      8.334575
  O      16.951621     36.851539      8.384274
  O      16.889212     38.341609      6.197679
  O      20.740712     29.673481      8.381028
  O      21.083289     34.392066      8.383678
  H       4.074658     24.986772      8.036591
  H       1.410409     29.602015      8.036749
  H       1.410409     35.007985      8.036749
  H       4.074657     39.623228      8.036591
  H       8.948181     22.173255      8.038302
  H       8.948181     42.436745      8.038302
  H      14.277762     22.173204      8.038282
  H      14.277762     42.436796      8.038282
  H      18.960557     24.876228      8.036406
  H      18.960557     39.733772      8.036406
  H      21.624717     29.491420      8.036583
  H      21.624717     35.118580      8.036583
  H      13.343876     34.158979      5.833138
  H      10.955277     34.723845      5.777528
  H       9.231317     32.911241      5.679999
  H       9.864527     30.360426      5.694500
  H      12.360577     29.825620      5.790945
  H      14.047279     31.731216      5.828403
  H      13.543604     39.637836      5.859685
  H      10.870879     39.102765      5.809531
  H       8.168073     39.393427      5.933634
  H       6.240156     37.576578      6.095685
  H       5.353918     35.325219      6.087133
  H       3.336498     32.921457      5.836053
  H       4.149284     30.240818      5.783206
  H       6.025551     28.220954      5.745421
  H       6.953141     25.658363      5.850049
  H       9.592437     24.935905      5.857502
  H      12.245967     25.519245      5.789450
  H      14.965943     25.067812      5.877667
  H      16.920982     26.899724      5.877473
  H      17.717061     29.463187      5.763926
  H      19.563066     31.627883      5.829069
  H      18.890114     34.259565      5.853594
  H      17.120399     36.278086      5.803357
  H      16.109351     38.816759      5.861820
  P       7.474868     35.341880     11.000319
  O       7.161360     35.117460     12.416743
  O       6.359923     35.181354      9.957288
  O       8.159915     36.766385     10.751053
  O       8.568885     34.268685     10.473924
  C       9.731800     34.001771     11.248822
  C       9.999176     32.497502     11.193069
  O      11.332827     32.256135     10.678785
  C       9.919599     31.772742     12.536862
  O       9.486811     30.417612     12.407626
  C      11.387149     31.671152     12.940584
  O      11.670344     30.709388     13.914929
  C      12.030307     31.409672     11.565403
  N      13.431386     31.728804     11.486493
  C      14.007449     32.980304     11.463497
  N      15.315196     32.954529     11.373348
  C      15.620365     31.610630     11.334862
  C      16.830932     30.911723     11.230009
  N      18.028130     31.546288     11.195812
  N      16.803576     29.570230     11.193880
  C      15.615047     28.955484     11.270636
  N      14.402424     29.494829     11.378908
  C      14.465972     30.827106     11.400588
  H       7.762839     37.191213      9.968318
  H      10.582088     34.531420     10.810478
  H       9.575654     34.348755     12.276343
  H       9.279932     32.066346     10.492646
  H       9.298806     32.314284     13.258159
  H       8.567979     30.418443     12.116284
  H      11.741337     32.639879     13.310464
  H      11.113871     29.945211     13.703849
  H      11.939254     30.348345     11.300170
  H      13.398171     33.871824     11.479444
  H      18.023540     32.523327     10.949271
  H      18.815174     30.995846     10.892933
  H      15.650992     27.870118     11.227359
162
Coordinates from ORCA-job amp_frame12_dry_r2scan E -13470.339237492717
  Si      3.433880     33.851903      7.838327
  Si      3.475812     30.748258      7.835592
  O       2.206536     34.717926      8.499032
  O       2.277956     29.794713      8.419773
  O       3.349134     32.278625      8.350547
  O       3.266555     33.815653      6.198606
  O       3.471475     30.806273      6.186451
  Si      6.135407     26.167182      7.845364
  Si      8.770034     24.543577      7.873115
  O       4.718511     25.600089      8.419986
  O       7.418571     25.303847      8.384757
  O       8.688278     23.014862      8.442840
  O       6.179399     26.137050      6.196009
  O       8.757887     24.596696      6.225705
  Si      6.147686     29.242432      7.717466
  Si      6.175397     35.519847      8.226503
  Si      8.971098     33.927448      7.646255
  Si      8.907504     30.826476      7.633747
  O       4.886154     30.064586      8.327321
  O       4.824364     34.513812      8.268945
  O       7.633534     34.763000      7.838459
  O       7.525423     30.054781      8.018577
  O       6.257716     27.723638      8.322663
  O       8.863709     32.361169      8.163741
  O       5.869926     29.112878      6.098637
  O       5.832612     35.998011      6.580273
  O       9.351876     33.804507      6.028621
  O       9.109087     30.888874      6.002633
  Si      6.273423     38.676067      7.929197
  Si      9.016327     40.067976      7.850117
  O       4.988229     39.600678      8.367046
  O       7.599703     39.531497      8.446592
  O       6.328327     37.200438      8.609499
  O       9.388238     41.606605      8.268649
  O       6.430491     38.534500      6.298871
  O       8.973788     39.876784      6.212619
  Si     11.454863     26.054144      7.799951
  Si     14.129420     24.541236      7.856963
  O      10.109050     25.337592      8.388626
  O      12.819498     25.367245      8.376469
  O      13.910357     23.006080      8.368166
  O      11.396152     25.785060      6.174358
  O      14.160017     24.636215      6.210612
  Si     11.515153     29.225215      7.742485
  Si     11.684153     35.378355      7.731209
  Si     14.278656     33.766791      7.787127
  Si     14.189746     30.704332      7.774041
  O      10.168287     29.981184      8.262590
  O      10.304358     34.699802      8.248791
  O      13.020934     34.641251      8.352505
  O      12.876490     29.911236      8.336085
  O      11.440815     27.643919      8.139329
  O      14.312424     32.228458      8.351351
  O      11.548352     29.381248      6.103144
  O      11.773504     35.162509      6.098456
  O      14.105325     33.632631      6.154323
  O      14.007269     30.806265      6.139160
  Si     11.679179     38.561488      7.800774
  Si     14.380842     40.046198      7.862915
  O      10.305351     39.199280      8.394831
  O      13.025472     39.298643      8.391691
  O      11.760749     36.963380      8.110124
  O      14.549198     41.579445      8.401599
  O      11.733769     38.853369      6.178893
  O      14.396697     39.946633      6.217213
  Si     16.857042     25.987586      7.887875
  O      15.507420     25.224952      8.411548
  O      18.111083     25.102354      8.442617
  O      16.783179     26.005730      6.240563
  Si     16.913480     29.067550      7.809773
  Si     17.047916     35.327005      7.811100
  Si     19.682494     33.742618      7.849650
  Si     19.564717     30.651581      7.811911
  O      15.520673     29.836477      8.130709
  O      15.694236     34.497282      8.139597
  O      18.352269     34.523720      8.401781
  O      18.176212     29.964833      8.318836
  O      16.888360     27.542672      8.401007
  O      19.691345     32.187865      8.370558
  O      17.097658     28.848177      6.180545
  O      17.321873     35.410418      6.186298
  O      19.596783     33.689816      6.206507
  O      19.543108     30.717026      6.168230
  Si     16.997576     38.397762      7.842634
  O      15.723526     39.260533      8.386150
  O      18.446833     38.969432      8.335983
  O      16.951152     36.852016      8.382839
  O      16.890809     38.343426      6.197288
  O      20.741044     29.675129      8.381002
  O      21.083228     34.391870      8.383215
  H       4.074657     24.986772      8.036591
  H       1.410409     29.602015      8.036749
  H       1.410409     35.007985      8.036749
  H       4.074657     39.623228      8.036591
  H       8.948181     22.173255      8.038302
  H       8.948181     42.436745      8.038302
  H      14.277762     22.173204      8.038282
  H      14.277762     42.436796      8.038282
  H      18.960557     24.876228      8.036406
  H      18.960557     39.733772      8.036406
  H      21.624717     29.491420      8.036583
  H      21.624717     35.118580      8.036583
  H      13.345594     34.159628      5.830313
  H      10.957624     34.724219      5.772498
  H       9.230118     32.907854      5.678032
  H       9.865897     30.359136      5.697237
  H      12.358511     29.824656      5.790095
  H      14.047483     31.730500      5.825802
  H      13.542951     39.641166      5.858960
  H      10.870101     39.105427      5.809198
  H       8.167912     39.395340      5.934858
  H       6.242155     37.576794      6.094860
  H       5.361971     35.320747      6.084016
  H       3.336246     32.920224      5.836691
  H       4.148400     30.237143      5.787009
  H       6.024177     28.223166      5.746770
  H       6.951374     25.660466      5.850136
  H       9.591863     24.936550      5.857151
  H      12.245654     25.520389      5.789293
  H      14.965006     25.067228      5.876685
  H      16.921265     26.898893      5.876350
  H      17.717005     29.463194      5.762769
  H      19.563235     31.627271      5.828318
  H      18.890032     34.260203      5.852417
  H      17.120824     36.278715      5.801744
  H      16.111563     38.818619      5.860378
  P       7.474969     35.339352     11.001024
  O       7.163407     35.106269     12.416175
  O       6.361451     35.178784      9.956542
  O       8.149814     36.769256     10.757576
  O       8.574682     34.274276     10.469876
  C       9.737811     34.007168     11.244805
  C      10.004901     32.502828     11.188506
  O      11.339112     32.261265     10.676086
  C       9.922709     31.776810     12.532003
  O       9.487152     30.422495     12.399975
  C      11.389612     31.670550     12.936766
  O      11.670822     30.704887     13.908434
  C      12.033301     31.411039     11.561792
  N      13.435179     31.726643     11.484464
  C      14.015023     32.976562     11.462347
  N      15.322841     32.946810     11.374600
  C      15.624040     31.601960     11.336202
  C      16.832615     30.899692     11.231262
  N      18.032020     31.530329     11.199322
  N      16.800905     29.558522     11.192855
  C      15.610654     28.946943     11.267940
  N      14.399658     29.489937     11.376464
  C      14.467121     30.821898     11.399925
  H       7.751872     37.191154      9.974066
  H      10.588360     34.534871     10.804697
  H       9.583021     34.353503     12.272583
  H       9.285509     32.070875     10.488757
  H       9.302531     32.317910     13.254162
  H       8.566577     30.425956     12.114190
  H      11.744962     32.637183     13.310731
  H      11.115889     29.941068     13.692086
  H      11.939125     30.350246     11.295471
  H      13.408055     33.869688     11.476915
  H      18.030888     32.507910     10.954893
  H      18.817042     30.978051     10.894430
  H      15.643624     27.861585     11.222553
162
Coordinates from ORCA-job amp_frame12_dry_r2scan E -13470.339253763914
  Si      3.433852     33.852531      7.838492
  Si      3.474476     30.748636      7.836509
  O       2.208125     34.721036      8.498281
  O       2.276840     29.795598      8.421935
  O       3.346086     32.279501      8.350556
  O       3.267560     33.815689      6.198779
  O       3.470587     30.804801      6.187840
  Si      6.134865     26.168179      7.845508
  Si      8.769473     24.543770      7.872332
  O       4.718288     25.600299      8.420009
  O       7.418392     25.304662      8.384073
  O       8.686930     23.014911      8.441999
  O       6.178637     26.139334      6.196087
  O       8.757337     24.597172      6.224921
  Si      6.146812     29.243501      7.719012
  Si      6.175965     35.519002      8.226723
  Si      8.972027     33.927565      7.644755
  Si      8.907129     30.826591      7.634397
  O       4.885422     30.065899      8.328507
  O       4.825038     34.512770      8.269696
  O       7.634559     34.762800      7.838246
  O       7.524645     30.055755      8.019381
  O       6.257116     27.724335      8.323776
  O       8.864654     32.361579      8.163864
  O       5.868278     29.114164      6.100114
  O       5.833970     35.996791      6.580339
  O       9.353689     33.803426      6.027723
  O       9.108196     30.888032      6.003004
  Si      6.273335     38.675491      7.929420
  Si      9.015983     40.067784      7.851315
  O       4.988886     39.602453      8.365555
  O       7.600106     39.529342      8.448016
  O       6.325290     37.199799      8.609857
  O       9.386624     41.606468      8.271354
  O       6.431632     38.533252      6.299185
  O       8.973218     39.877954      6.213596
  Si     11.454631     26.054362      7.799416
  Si     14.129225     24.541185      7.856644
  O      10.108812     25.337602      8.387786
  O      12.818994     25.366988      8.375898
  O      13.910421     23.006100      8.368072
  O      11.396113     25.785970      6.173614
  O      14.159431     24.636497      6.210316
  Si     11.514654     29.225386      7.742445
  Si     11.684845     35.378571      7.728633
  Si     14.279277     33.766993      7.786012
  Si     14.189556     30.704733      7.773370
  O      10.167666     29.980895      8.263862
  O      10.305042     34.700240      8.246849
  O      13.021683     34.642191      8.350326
  O      12.875971     29.911861      8.335434
  O      11.441097     27.644051      8.139598
  O      14.311982     32.228885      8.350594
  O      11.547095     29.381383      6.102909
  O      11.775158     35.162710      6.095829
  O      14.107377     33.632493      6.152849
  O      14.007356     30.805985      6.138361
  Si     11.679236     38.561739      7.799678
  Si     14.380611     40.046675      7.863092
  O      10.305751     39.199658      8.394718
  O      13.025758     39.297943      8.391170
  O      11.760198     36.963489      8.107703
  O      14.547296     41.579532      8.403220
  O      11.733627     38.855405      6.178173
  O      14.396924     39.948699      6.217349
  Si     16.857014     25.987549      7.887647
  O      15.507182     25.224985      8.411231
  O      18.111443     25.103027      8.443071
  O      16.783416     26.005301      6.240332
  Si     16.913090     29.067631      7.809551
  Si     17.047913     35.327223      7.810737
  Si     19.682413     33.742927      7.849622
  Si     19.564433     30.651771      7.812128
  O      15.520629     29.837095      8.130634
  O      15.694624     34.497233      8.139556
  O      18.352518     34.524668      8.401528
  O      18.176180     29.964430      8.318957
  O      16.887664     27.542699      8.400455
  O      19.690418     32.188167      8.370443
  O      17.097597     28.848479      6.180286
  O      17.321570     35.410327      6.185750
  O      19.596682     33.689967      6.206460
  O      19.542441     30.716967      6.168594
  Si     16.997616     38.398204      7.842663
  O      15.723425     39.260829      8.385834
  O      18.446352     38.970100      8.336805
  O      16.950841     36.852247      8.382137
  O      16.891722     38.344171      6.197148
  O      20.741402     29.676174      8.381353
  O      21.083542     34.391557      8.383034
  H       4.074657     24.986772      8.036591
  H       1.410409     29.602015      8.036749
  H       1.410409     35.007985      8.036749
  H       4.074657     39.623228      8.036591
  H       8.948181     22.173255      8.038302
  H       8.948181     42.436745      8.038302
  H      14.277762     22.173204      8.038282
  H      14.277762     42.436796      8.038282
  H      18.960557     24.876228      8.036406
  H      18.960557     39.733772      8.036406
  H      21.624717     29.491420      8.036583
  H      21.624717     35.118580      8.036583
  H      13.347712     34.159223      5.828451
  H      10.960408     34.722784      5.769615
  H       9.228648     32.907347      5.676802
  H       9.865896     30.359103      5.698226
  H      12.357322     29.824126      5.789303
  H      14.048481     31.729928      5.824427
  H      13.543346     39.643779      5.858358
  H      10.869749     39.107657      5.809055
  H       8.167357     39.396815      5.935345
  H       6.243976     37.575543      6.095365
  H       5.365679     35.318235      6.083620
  H       3.336441     32.920093      5.837187
  H       4.148753     30.236140      5.789513
  H       6.023251     28.225044      5.747137
  H       6.949856     25.661863      5.849809
  H       9.591319     24.936939      5.856347
  H      12.245617     25.520922      5.788820
  H      14.964786     25.066588      5.876171
  H      16.921681     26.898302      5.875872
  H      17.716981     29.463459      5.762540
  H      19.562984     31.627240      5.828753
  H      18.889976     34.260245      5.852143
  H      17.121017     36.278627      5.801029
  H      16.113083     38.819856      5.859707
  P       7.475221     35.339203     11.002014
  O       7.165725     35.100563     12.416444
  O       6.362439     35.177507      9.956292
  O       8.141656     36.773133     10.761737
  O       8.579191     34.280039     10.467788
  C       9.742751     34.012408     11.241875
  C      10.008988     32.507600     11.185536
  O      11.343429     32.264244     10.675038
  C       9.924222     31.781731     12.529269
  O       9.485600     30.428294     12.396375
  C      11.390686     31.673325     12.935451
  O      11.670215     30.707756     13.907830
  C      12.035261     31.412906     11.561267
  N      13.437751     31.726282     11.484749
  C      14.020066     32.975083     11.462797
  N      15.327865     32.942666     11.375555
  C      15.626439     31.597180     11.337607
  C      16.833600     30.892540     11.232516
  N      18.034461     31.520442     11.201791
  N      16.798925     29.551553     11.192453
  C      15.607526     28.942228     11.266706
  N      14.397650     29.487697     11.376088
  C      14.467865     30.819445     11.400741
  H       7.742559     37.192113      9.977233
  H      10.593076     34.539262     10.800383
  H       9.589831     34.358243     12.270007
  H       9.289904     32.075414     10.485739
  H       9.304192     32.323402     13.250947
  H       8.563757     30.433871     12.114773
  H      11.746678     32.639360     13.310344
  H      11.116697     29.943408     13.689617
  H      11.939619     30.352109     11.295136
  H      13.414660     33.869282     11.476795
  H      18.035733     32.498429     10.959098
  H      18.818221     30.966893     10.895953
  H      15.638291     27.856883     11.219709
162
Coordinates from ORCA-job amp_frame12_dry_r2scan E -13470.339267117939
  Si      3.433545     33.852808      7.838620
  Si      3.473372     30.748875      7.836822
  O       2.209444     34.723679      8.497728
  O       2.276015     29.796503      8.423292
  O       3.343492     32.280018      8.350420
  O       3.267906     33.815494      6.198805
  O       3.469824     30.803869      6.188403
  Si      6.134475     26.168984      7.845280
  Si      8.769087     24.544003      7.871539
  O       4.718250     25.600396      8.419867
  O       7.418333     25.305423      8.383283
  O       8.685629     23.015012      8.441046
  O       6.178181     26.140902      6.195755
  O       8.757099     24.597698      6.224076
  Si      6.146319     29.244438      7.719675
  Si      6.176166     35.518074      8.226880
  Si      8.972949     33.927992      7.644020
  Si      8.906971     30.826914      7.634874
  O       4.884971     30.067021      8.328736
  O       4.825423     34.511613      8.270098
  O       7.635096     34.762727      7.838225
  O       7.524003     30.056739      8.019860
  O       6.256498     27.724957      8.324207
  O       8.865626     32.362103      8.164033
  O       5.867427     29.115216      6.100652
  O       5.834403     35.995375      6.580328
  O       9.355092     33.802948      6.027271
  O       9.107209     30.887794      6.003201
  Si      6.273569     38.674478      7.929563
  Si      9.015543     40.067505      7.852228
  O       4.989420     39.603375      8.364311
  O       7.600499     39.527120      8.449205
  O       6.322825     37.198880      8.610256
  O       9.384637     41.606122      8.273897
  O       6.432885     38.531945      6.299474
  O       8.972421     39.879111      6.214322
  Si     11.454556     26.054527      7.798995
  Si     14.129195     24.541091      7.856581
  O      10.108729     25.337595      8.387022
  O      12.818734     25.366794      8.375468
  O      13.910462     23.006030      8.368228
  O      11.396270     25.786532      6.173059
  O      14.159402     24.636661      6.210257
  Si     11.514237     29.225622      7.742543
  Si     11.685595     35.378744      7.726145
  Si     14.279952     33.767043      7.785614
  Si     14.189446     30.704960      7.773521
  O      10.167126     29.980542      8.265049
  O      10.305869     34.700893      8.245394
  O      13.022391     34.642880      8.348501
  O      12.875364     29.912554      8.335166
  O      11.441359     27.644136      8.139721
  O      14.311711     32.229131      8.350507
  O      11.546279     29.381777      6.102874
  O      11.776371     35.162900      6.093493
  O      14.109638     33.631961      6.151977
  O      14.007451     30.805568      6.138393
  Si     11.679387     38.561962      7.798399
  Si     14.380381     40.047240      7.863457
  O      10.306188     39.200121      8.394145
  O      13.025920     39.297408      8.390472
  O      11.759962     36.963685      8.105049
  O      14.545444     41.579674      8.404917
  O      11.733332     38.857343      6.177227
  O      14.397370     39.950909      6.217534
  Si     16.857084     25.987525      7.887912
  O      15.507074     25.224931      8.411314
  O      18.111879     25.103650      8.443697
  O      16.783800     26.005030      6.240546
  Si     16.912866     29.067683      7.810165
  Si     17.047947     35.327482      7.810761
  Si     19.682389     33.743227      7.849933
  Si     19.564181     30.652010      7.812826
  O      15.520709     29.837588      8.131170
  O      15.695094     34.497088      8.139953
  O      18.352911     34.525802      8.401548
  O      18.176301     29.963983      8.319864
  O      16.887062     27.542671      8.400519
  O      19.689595     32.188517      8.370930
  O      17.097767     28.848679      6.180908
  O      17.321336     35.410197      6.185616
  O      19.596573     33.689823      6.206674
  O      19.541812     30.717096      6.169354
  Si     16.997650     38.398696      7.842813
  O      15.723425     39.261297      8.385725
  O      18.446057     38.970618      8.337606
  O      16.950445     36.852564      8.381652
  O      16.892307     38.344794      6.197108
  O      20.741965     29.677381      8.382145
  O      21.083993     34.391189      8.382953
  H       4.074658     24.986772      8.036591
  H       1.410409     29.602015      8.036749
  H       1.410409     35.007985      8.036749
  H       4.074657     39.623228      8.036591
  H       8.948181     22.173255      8.038302
  H       8.948181     42.436745      8.038302
  H      14.277762     22.173204      8.038282
  H      14.277762     42.436796      8.038282
  H      18.960557     24.876228      8.036406
  H      18.960557     39.733772      8.036406
  H      21.624717     29.491420      8.036583
  H      21.624717     35.118580      8.036583
  H      13.350162     34.158446      5.826998
  H      10.961918     34.722412      5.767370
  H       9.226972     32.907468      5.675911
  H       9.865414     30.359474      5.698643
  H      12.356649     29.824148      5.789250
  H      14.049448     31.729328      5.824105
  H      13.543944     39.646449      5.857900
  H      10.869089     39.109669      5.808956
  H       8.167377     39.396819      5.935730
  H       6.245733     37.574135      6.095611
  H       5.367452     35.316002      6.083448
  H       3.336016     32.919961      5.836995
  H       4.149077     30.235650      5.791043
  H       6.022712     28.226431      5.747024
  H       6.948926     25.662786      5.849346
  H       9.591192     24.937284      5.855625
  H      12.245946     25.521458      5.788664
  H      14.965034     25.066229      5.876158
  H      16.922112     26.897972      5.876011
  H      17.716715     29.464081      5.763145
  H      19.562538     31.627453      5.829678
  H      18.889840     34.260002      5.852269
  H      17.120887     36.278484      5.800859
  H      16.114168     38.821088      5.859471
  P       7.475218     35.339896     11.003059
  O       7.168139     35.095540     12.416924
  O       6.363015     35.176208      9.956368
  O       8.132921     36.778053     10.766496
  O       8.583802     34.287201     10.465656
  C       9.748051     34.019706     11.238363
  C      10.013010     32.514312     11.183879
  O      11.347433     32.268249     10.675151
  C       9.926046     31.790575     12.528744
  O       9.483688     30.438186     12.397444
  C      11.392259     31.680542     12.935864
  O      11.669829     30.717248     13.910925
  C      12.037186     31.416812     11.562539
  N      13.440346     31.727648     11.486038
  C      14.025116     32.975259     11.464074
  N      15.332857     32.940209     11.376883
  C      15.628725     31.594133     11.338407
  C      16.834399     30.887004     11.232930
  N      18.036655     31.512199     11.203535
  N      16.796835     29.546128     11.191343
  C      15.604216     28.939248     11.265165
  N      14.395489     29.487164     11.375634
  C      14.468566     30.818729     11.401479
  H       7.733013     37.194919      9.981006
  H      10.597670     34.545836     10.794900
  H       9.597592     34.366479     12.266516
  H       9.294476     32.081669     10.484026
  H       9.306649     32.334521     13.249063
  H       8.560529     30.445824     12.120307
  H      11.749560     32.646743     13.309209
  H      11.116520     29.952449     13.693651
  H      11.940101     30.355814     11.297381
  H      13.421391     33.870603     11.478467
  H      18.040308     32.490548     10.962427
  H      18.819321     30.957247     10.897416
  H      15.632528     27.853912     11.216453
162
Coordinates from ORCA-job amp_frame12_dry_r2scan E -13470.339273249128
  Si      3.433557     33.853083      7.838728
  Si      3.472550     30.749173      7.836851
  O       2.210887     34.726428      8.497002
  O       2.275516     29.797142      8.424058
  O       3.341544     32.280398      8.350236
  O       3.268692     33.815573      6.198702
  O       3.469079     30.803696      6.188408
  Si      6.134264     26.169585      7.844867
  Si      8.768790     24.544230      7.870866
  O       4.718300     25.600517      8.419553
  O       7.418340     25.306094      8.382627
  O       8.684106     23.015102      8.439917
  O       6.178143     26.141784      6.195259
  O       8.757066     24.598299      6.223356
  Si      6.145946     29.245164      7.719666
  Si      6.176306     35.517400      8.227183
  Si      8.973617     33.928317      7.643971
  Si      8.906879     30.827061      7.634963
  O       4.884685     30.068025      8.328515
  O       4.825944     34.510522      8.270828
  O       7.635282     34.762624      7.838323
  O       7.523469     30.057464      8.020166
  O       6.255808     27.725521      8.324137
  O       8.866294     32.362345      8.164052
  O       5.866948     29.115966      6.100569
  O       5.834038     35.994516      6.580660
  O       9.355523     33.803153      6.027094
  O       9.106198     30.887383      6.003132
  Si      6.273878     38.673520      7.929547
  Si      9.015094     40.067334      7.852333
  O       4.989823     39.603747      8.363206
  O       7.600651     39.525744      8.449566
  O       6.321452     37.198176      8.610648
  O       9.383157     41.605727      8.275266
  O       6.433822     38.530323      6.299655
  O       8.971368     39.880240      6.214315
  Si     11.454576     26.054514      7.798781
  Si     14.129327     24.540981      7.856669
  O      10.108789     25.337303      8.386496
  O      12.818750     25.366680      8.375200
  O      13.910587     23.005944      8.368569
  O      11.396458     25.786781      6.172783
  O      14.159825     24.636571      6.210335
  Si     11.513920     29.225718      7.742748
  Si     11.686258     35.378697      7.724533
  Si     14.280571     33.766923      7.785706
  Si     14.189356     30.704911      7.774036
  O      10.166701     29.980141      8.265772
  O      10.306732     34.701181      8.244627
  O      13.023068     34.643239      8.347513
  O      12.874904     29.912928      8.335196
  O      11.441483     27.644067      8.139765
  O      14.311633     32.229098      8.350804
  O      11.545915     29.382140      6.103069
  O      11.777107     35.162642      6.092148
  O      14.111282     33.631393      6.151724
  O      14.007404     30.805211      6.138861
  Si     11.679465     38.562067      7.797236
  Si     14.380114     40.047711      7.863691
  O      10.306318     39.200326      8.393139
  O      13.025870     39.297057      8.389784
  O      11.759850     36.963809      8.102932
  O      14.544028     41.579786      8.406222
  O      11.733037     38.858600      6.176255
  O      14.397665     39.952702      6.217568
  Si     16.857244     25.987454      7.888347
  O      15.507158     25.224778      8.411583
  O      18.112292     25.104118      8.444327
  O      16.784346     26.004746      6.240921
  Si     16.912808     29.067640      7.810903
  Si     17.048095     35.327690      7.810818
  Si     19.682492     33.743375      7.850064
  Si     19.564005     30.652179      7.813313
  O      15.520834     29.837838      8.131679
  O      15.695708     34.496689      8.140417
  O      18.353506     34.526854      8.401523
  O      18.176458     29.963616      8.320707
  O      16.886680     27.542584      8.400833
  O      19.689037     32.188753      8.371397
  O      17.097935     28.848611      6.181679
  O      17.321135     35.410085      6.185559
  O      19.596509     33.689530      6.206709
  O      19.541432     30.717283      6.169812
  Si     16.997619     38.399124      7.842818
  O      15.723398     39.261756      8.385593
  O      18.445919     38.970899      8.338125
  O      16.950043     36.852859      8.381207
  O      16.892563     38.345339      6.196980
  O      20.742412     29.678336      8.382768
  O      21.084589     34.390603      8.382643
  H       4.074658     24.986772      8.036591
  H       1.410409     29.602015      8.036749
  H       1.410409     35.007985      8.036749
  H       4.074657     39.623228      8.036591
  H       8.948181     22.173255      8.038302
  H       8.948181     42.436745      8.038302
  H      14.277762     22.173204      8.038282
  H      14.277762     42.436796      8.038282
  H      18.960557     24.876228      8.036406
  H      18.960557     39.733772      8.036406
  H      21.624717     29.491420      8.036583
  H      21.624717     35.118580      8.036583
  H      13.352122     34.157890      5.826245
  H      10.962800     34.721520      5.766429
  H       9.225557     32.908258      5.675028
  H       9.864803     30.359706      5.698548
  H      12.356507     29.824396      5.789796
  H      14.050367     31.728917      5.824471
  H      13.544340     39.648472      5.857541
  H      10.868627     39.111572      5.808767
  H       8.166564     39.397615      5.935569
  H       6.246403     37.572500      6.095850
  H       5.367210     35.315101      6.083720
  H       3.336169     32.920211      5.836455
  H       4.148857     30.235651      5.791598
  H       6.022453     28.227301      5.746759
  H       6.948801     25.663481      5.848920
  H       9.591216     24.937931      5.855100
  H      12.246311     25.521867      5.788670
  H      14.965621     25.065946      5.876386
  H      16.922432     26.897729      5.876402
  H      17.716275     29.464554      5.763817
  H      19.562278     31.627708      5.830261
  H      18.889699     34.259643      5.852348
  H      17.120686     36.278415      5.800907
  H      16.114746     38.822159      5.859375
  P       7.475748     35.341135     11.003758
  O       7.170224     35.093259     12.417425
  O       6.363915     35.175374      9.956646
  O       8.127754     36.782182     10.769691
  O       8.587633     34.293077     10.464325
  C       9.752292     34.025769     11.235958
  C      10.016150     32.520001     11.183714
  O      11.350571     32.271989     10.676058
  C       9.927919     31.798440     12.529609
  O       9.483198     30.446746     12.400430
  C      11.394038     31.687638     12.937183
  O      11.670130     30.726750     13.914795
  C      12.039016     31.420755     11.564446
  N      13.442682     31.729627     11.487887
  C      14.029202     32.976355     11.466340
  N      15.336849     32.939508     11.378346
  C      15.630792     31.593051     11.339086
  C      16.835384     30.884085     11.233384
  N      18.038624     31.507416     11.204809
  N      16.795863     29.543239     11.190706
  C      15.602294     28.938204     11.264141
  N      14.394399     29.487820     11.375481
  C      14.469550     30.819277     11.402191
  H       7.727103     37.197734      9.983662
  H      10.601492     34.551380     10.791185
  H       9.603438     34.374075     12.263867
  H       9.298267     32.087057     10.483496
  H       9.309108     32.344675     13.248622
  H       8.559873     30.455584     12.123919
  H      11.752570     32.654302     13.308268
  H      11.116651     29.961576     13.699305
  H      11.940969     30.359638     11.299976
  H      13.426760     33.872560     11.481735
  H      18.043851     32.485889     10.964256
  H      18.820484     30.951311     10.898687
  H      15.628755     27.852846     11.214556
162
Coordinates from ORCA-job amp_frame12_dry_r2scan E -13470.339280156104
  Si      3.433851     33.853428      7.838485
  Si      3.471869     30.749548      7.836813
  O       2.212715     34.729671      8.495833
  O       2.275191     29.797528      8.424599
  O       3.339794     32.280797      8.349865
  O       3.269697     33.815887      6.198242
  O       3.468406     30.803794      6.188180
  Si      6.134153     26.170142      7.844565
  Si      8.768495     24.544474      7.870336
  O       4.718375     25.600644      8.419208
  O       7.418387     25.306772      8.382211
  O       8.682183     23.015157      8.438566
  O       6.178435     26.142525      6.194911
  O       8.757112     24.599098      6.222807
  Si      6.145583     29.245829      7.719675
  Si      6.176557     35.516790      8.227245
  Si      8.974182     33.928434      7.644234
  Si      8.906736     30.826968      7.635213
  O       4.884388     30.069063      8.328345
  O       4.826719     34.509303      8.271407
  O       7.635393     34.762462      7.838132
  O       7.522897     30.058103      8.020999
  O       6.254969     27.726094      8.324095
  O       8.866760     32.362374      8.164151
  O       5.866777     29.116644      6.100540
  O       5.833408     35.993634      6.580784
  O       9.355730     33.803319      6.027087
  O       9.105069     30.886384      6.003327
  Si      6.274191     38.672726      7.929216
  Si      9.014754     40.067249      7.852132
  O       4.990155     39.603713      8.362224
  O       7.600652     39.524883      8.449390
  O       6.320914     37.197542      8.610622
  O       9.381973     41.605366      8.276103
  O       6.434490     38.529121      6.299498
  O       8.970653     39.881207      6.214063
  Si     11.454632     26.054380      7.798825
  Si     14.129581     24.540839      7.856924
  O      10.108944     25.336703      8.386218
  O      12.818936     25.366576      8.375078
  O      13.910892     23.005847      8.369186
  O      11.396602     25.786951      6.172784
  O      14.160506     24.636206      6.210578
  Si     11.513617     29.225716      7.743319
  Si     11.686870     35.378555      7.723576
  Si     14.281151     33.766699      7.786093
  Si     14.189205     30.704701      7.774839
  O      10.166308     29.979711      8.266499
  O      10.307608     34.701163      8.244196
  O      13.023729     34.643429      8.347075
  O      12.874591     29.913017      8.335633
  O      11.441514     27.643875      8.139975
  O      14.311626     32.228926      8.351392
  O      11.545656     29.382568      6.103723
  O      11.777565     35.162202      6.091495
  O      14.112448     33.630743      6.151927
  O      14.007005     30.804897      6.139680
  Si     11.679510     38.562117      7.796458
  Si     14.379861     40.048123      7.863906
  O      10.306283     39.200344      8.392191
  O      13.025771     39.296842      8.389324
  O      11.759846     36.963882      8.101443
  O      14.542929     41.579916      8.407330
  O      11.732829     38.859346      6.175551
  O      14.397777     39.954141      6.217612
  Si     16.857458     25.987335      7.888892
  O      15.507382     25.224571      8.412001
  O      18.112723     25.104513      8.445010
  O      16.785007     26.004389      6.241411
  Si     16.912817     29.067535      7.811619
  Si     17.048328     35.327875      7.810843
  Si     19.682674     33.743392      7.850014
  Si     19.563868     30.652288      7.813626
  O      15.520966     29.837993      8.132146
  O      15.696467     34.496069      8.140927
  O      18.354277     34.527881      8.401411
  O      18.176629     29.963277      8.321410
  O      16.886412     27.542461      8.401265
  O      19.688583     32.188909      8.371795
  O      17.097981     28.848345      6.182435
  O      17.320905     35.410035      6.185492
  O      19.596416     33.689153      6.206590
  O      19.541165     30.717475      6.170053
  Si     16.997555     38.399535      7.842759
  O      15.723358     39.262210      8.385472
  O      18.445848     38.971099      8.338562
  O      16.949650     36.853151      8.380747
  O      16.892689     38.345951      6.196845
  O      20.742776     29.679139      8.383250
  O      21.085320     34.389798      8.382103
  H       4.074658     24.986772      8.036591
  H       1.410409     29.602015      8.036749
  H       1.410409     35.007985      8.036749
  H       4.074657     39.623228      8.036591
  H       8.948181     22.173255      8.038302
  H       8.948181     42.436745      8.038302
  H      14.277762     22.173204      8.038282
  H      14.277762     42.436796      8.038282
  H      18.960557     24.876228      8.036406
  H      18.960557     39.733772      8.036406
  H      21.624717     29.491420      8.036583
  H      21.624717     35.118580      8.036583
  H      13.353445     34.157141      5.826034
  H      10.962869     34.721334      5.766177
  H       9.224444     32.909012      5.674212
  H       9.864124     30.359430      5.698678
  H      12.356412     29.824975      5.790941
  H      14.050520     31.728622      5.825325
  H      13.544498     39.649976      5.857419
  H      10.868303     39.112652      5.808556
  H       8.166576     39.397343      5.935296
  H       6.246623     37.571312      6.095615
  H       5.366169     35.314449      6.083909
  H       3.336725     32.920684      5.835603
  H       4.148302     30.235611      5.791768
  H       6.022606     28.227988      5.746834
  H       6.949247     25.664316      5.848756
  H       9.591304     24.938917      5.854822
  H      12.246585     25.522269      5.788801
  H      14.966409     25.065535      5.876802
  H      16.922794     26.897457      5.876963
  H      17.715658     29.464826      5.764388
  H      19.562102     31.627956      5.830602
  H      18.889498     34.259235      5.852380
  H      17.120480     36.278468      5.801047
  H      16.115043     38.823168      5.859396
  P       7.476448     35.342467     11.004099
  O       7.171590     35.092118     12.417655
  O       6.365018     35.174806      9.956835
  O       8.124652     36.785596     10.772049
  O       8.590994     34.298104     10.463296
  C       9.755815     34.030926     11.234379
  C      10.018663     32.525019     11.184401
  O      11.353121     32.275713     10.677200
  C       9.929885     31.805399     12.531186
  O       9.484065     30.454071     12.404108
  C      11.395987     31.694015     12.938739
  O      11.671074     30.734971     13.918210
  C      12.040707     31.424578     11.566292
  N      13.444759     31.731800     11.489627
  C      14.032600     32.977839     11.468401
  N      15.340182     32.939676     11.379831
  C      15.632644     31.592942     11.339440
  C      16.836414     30.882552     11.233520
  N      18.040397     31.504485     11.205512
  N      16.795450     29.541706     11.190329
  C      15.601144     28.938104     11.263772
  N      14.393899     29.489008     11.375536
  C      14.470599     30.820410     11.402683
  H       7.723223     37.200571      9.985961
  H      10.604905     34.555958     10.788795
  H       9.607849     34.381020     12.261875
  H       9.301361     32.091731     10.483843
  H       9.311729     32.353706     13.249230
  H       8.560474     30.463439     12.128491
  H      11.755694     32.661117     13.307596
  H      11.117198     29.969611     13.704577
  H      11.941816     30.363453     11.302231
  H      13.431205     33.874739     11.484834
  H      18.046785     32.482939     10.964887
  H      18.821625     30.947368     10.899572
  H      15.626152     27.852723     11.213593
162
Coordinates from ORCA-job amp_frame12_dry_r2scan E -13470.339284658536
  Si      3.434459     33.853942      7.838134
  Si      3.471378     30.750057      7.836883
  O       2.214618     34.732943      8.494491
  O       2.274924     29.797899      8.425042
  O       3.338541     32.281335      8.349523
  O       3.271008     33.816482      6.197751
  O       3.467800     30.804099      6.188021
  Si      6.134083     26.170644      7.844438
  Si      8.768192     24.544703      7.869912
  O       4.718396     25.600815      8.418907
  O       7.418431     25.307396      8.382025
  O       8.680300     23.015200      8.437245
  O       6.178781     26.143222      6.194788
  O       8.757052     24.599921      6.222398
  Si      6.145220     29.246403      7.719819
  Si      6.176990     35.516409      8.227264
  Si      8.974530     33.928401      7.644187
  Si      8.906513     30.826728      7.635341
  O       4.884080     30.070040      8.328366
  O       4.827717     34.508275      8.272053
  O       7.635607     34.762429      7.837596
  O       7.522397     30.058610      8.021998
  O       6.254145     27.726628      8.324165
  O       8.866986     32.362296      8.163983
  O       5.866711     29.117235      6.100692
  O       5.832728     35.993307      6.580998
  O       9.355586     33.803409      6.026731
  O       9.104083     30.885010      6.003502
  Si      6.274433     38.672291      7.928852
  Si      9.014590     40.067302      7.851704
  O       4.990398     39.603518      8.361457
  O       7.600559     39.524697      8.448938
  O       6.321121     37.197194      8.610609
  O       9.381411     41.605155      8.276328
  O       6.434947     38.528167      6.299288
  O       8.970176     39.882074      6.213621
  Si     11.454649     26.054222      7.798848
  Si     14.129797     24.540691      7.857103
  O      10.109099     25.336022      8.386017
  O      12.819145     25.366554      8.374933
  O      13.911143     23.005763      8.369740
  O      11.396644     25.787076      6.172776
  O      14.161116     24.635666      6.210754
  Si     11.513356     29.225671      7.743764
  Si     11.687391     35.378355      7.722701
  Si     14.281651     33.766504      7.786145
  Si     14.189047     30.704482      7.775288
  O      10.166028     29.979493      8.266913
  O      10.308390     34.700832      8.243471
  O      13.024318     34.643586      8.346604
  O      12.874464     29.912907      8.335949
  O      11.441409     27.643687      8.140074
  O      14.311657     32.228774      8.351680
  O      11.545448     29.382879      6.104279
  O      11.777971     35.161512      6.090882
  O      14.113174     33.630268      6.151950
  O      14.006525     30.804709      6.140161
  Si     11.679526     38.562155      7.795770
  Si     14.379693     40.048427      7.863933
  O      10.306155     39.200142      8.391285
  O      13.025705     39.296665      8.388903
  O      11.759922     36.963870      8.100128
  O      14.542127     41.580014      8.408151
  O      11.732847     38.859882      6.174892
  O      14.397830     39.955183      6.217544
  Si     16.857624     25.987164      7.889265
  O      15.507610     25.224327      8.412298
  O      18.113080     25.104824      8.445580
  O      16.785589     26.003937      6.241751
  Si     16.912851     29.067390      7.811902
  Si     17.048616     35.328029      7.810574
  Si     19.682885     33.743282      7.849706
  Si     19.563790     30.652310      7.813686
  O      15.521065     29.838110      8.132173
  O      15.697237     34.495399      8.141042
  O      18.355044     34.528713      8.401038
  O      18.176752     29.962978      8.321705
  O      16.886170     27.542328      8.401473
  O      19.688215     32.188966      8.371966
  O      17.097990     28.847986      6.182754
  O      17.320758     35.410104      6.185167
  O      19.596365     33.688732      6.206260
  O      19.541064     30.717525      6.170061
  Si     16.997487     38.399854      7.842548
  O      15.723322     39.262576      8.385258
  O      18.445834     38.971174      8.338785
  O      16.949326     36.853364      8.380201
  O      16.892796     38.346568      6.196626
  O      20.743009     29.679696      8.383542
  O      21.086031     34.388928      8.381394
  H       4.074658     24.986772      8.036591
  H       1.410409     29.602015      8.036749
  H       1.410409     35.007985      8.036749
  H       4.074657     39.623228      8.036591
  H       8.948181     22.173255      8.038302
  H       8.948181     42.436745      8.038302
  H      14.277762     22.173204      8.038282
  H      14.277762     42.436796      8.038282
  H      18.960557     24.876228      8.036406
  H      18.960557     39.733772      8.036406
  H      21.624717     29.491420      8.036583
  H      21.624717     35.118580      8.036583
  H      13.354443     34.156779      5.825671
  H      10.963088     34.720663      5.765861
  H       9.223582     32.909567      5.673177
  H       9.863646     30.358781      5.698846
  H      12.356340     29.825448      5.791882
  H      14.050636     31.728444      5.825825
  H      13.544578     39.651015      5.857258
  H      10.868396     39.113738      5.808117
  H       8.166237     39.397970      5.934847
  H       6.246451     37.570454      6.095455
  H       5.364901     35.314506      6.084164
  H       3.337815     32.921355      5.834939
  H       4.147589     30.235696      5.791797
  H       6.022883     28.228535      5.747203
  H       6.949802     25.665221      5.848771
  H       9.591223     24.940015      5.854611
  H      12.246637     25.522546      5.788728
  H      14.967063     25.065010      5.877078
  H      16.923038     26.897083      5.877341
  H      17.715225     29.464769      5.764508
  H      19.562094     31.628020      5.830619
  H      18.889362     34.258780      5.852158
  H      17.120446     36.278646      5.800902
  H      16.115197     38.823971      5.859304
  P       7.477350     35.343364     11.004268
  O       7.172549     35.090809     12.417608
  O       6.366380     35.174397      9.956947
  O       8.122867     36.788131     10.774145
  O       8.594164     34.302189     10.462260
  C       9.759005     34.034898     11.233206
  C      10.021094     32.529031     11.184560
  O      11.355850     32.279279     10.677716
  C       9.931797     31.810215     12.531641
  O       9.485465     30.459081     12.405522
  C      11.397793     31.697963     12.939359
  O      11.671904     30.739158     13.919216
  C      12.042510     31.427548     11.567050
  N      13.446886     31.733337     11.490781
  C      14.035907     32.978799     11.470059
  N      15.343431     32.939494     11.380943
  C      15.634617     31.592506     11.339835
  C      16.837714     30.880924     11.233938
  N      18.042349     31.501657     11.206329
  N      16.795493     29.540108     11.190364
  C      15.600548     28.937687     11.263529
  N      14.393872     29.489717     11.375464
  C      14.471854     30.821061     11.402918
  H       7.720805     37.202845      9.988212
  H      10.608300     34.559259     10.787218
  H       9.611380     34.386302     12.260350
  H       9.304314     32.095633     10.483510
  H       9.314066     32.359697     13.249240
  H       8.562403     30.468787     12.128120
  H      11.758370     32.665054     13.307389
  H      11.117198     29.974241     13.706273
  H      11.942762     30.366594     11.302780
  H      13.435452     33.876319     11.487195
  H      18.049752     32.480032     10.965413
  H      18.822991     30.943632     10.900531
  H      15.624443     27.852276     11.213325
162
Coordinates from ORCA-job amp_frame12_dry_r2scan E -13470.339286241537
  Si      3.435304     33.854676      7.837712
  Si      3.471044     30.750778      7.837022
  O       2.216746     34.736568      8.492915
  O       2.274708     29.798384      8.425275
  O       3.337462     32.282113      8.349212
  O       3.272602     33.817339      6.197272
  O       3.467490     30.804680      6.187955
  Si      6.133979     26.171230      7.844510
  Si      8.767788     24.544952      7.869477
  O       4.718326     25.601048      8.418668
  O       7.418451     25.308108      8.382021
  O       8.678206     23.015233      8.435788
  O       6.179081     26.144210      6.194900
  O       8.756744     24.600935      6.222002
  Si      6.144955     29.247069      7.720340
  Si      6.177616     35.516196      8.227296
  Si      8.974885     33.928326      7.643991
  Si      8.906279     30.826445      7.635684
  O       4.883751     30.071095      8.328611
  O       4.829002     34.507222      8.272792
  O       7.636021     34.762522      7.836803
  O       7.521972     30.059204      8.023619
  O       6.253271     27.727216      8.324500
  O       8.867215     32.362250      8.163770
  O       5.867048     29.118028      6.101201
  O       5.832050     35.993164      6.581257
  O       9.355692     33.803323      6.026308
  O       9.103095     30.883421      6.003924
  Si      6.274657     38.672184      7.928424
  Si      9.014683     40.067420      7.851297
  O       4.990550     39.603123      8.360944
  O       7.600480     39.524973      8.448367
  O       6.322048     37.197109      8.610550
  O       9.381302     41.605091      8.276220
  O       6.435263     38.527749      6.298963
  O       8.970320     39.882542      6.213228
  Si     11.454609     26.054010      7.798754
  Si     14.129984     24.540480      7.857219
  O      10.109237     25.335216      8.385772
  O      12.819321     25.366536      8.374662
  O      13.911380     23.005650      8.370340
  O      11.396562     25.787128      6.172644
  O      14.161686     24.634834      6.210876
  Si     11.513130     29.225567      7.744092
  Si     11.687914     35.378239      7.722060
  Si     14.282112     33.766345      7.786064
  Si     14.188872     30.704280      7.775486
  O      10.165875     29.979398      8.267210
  O      10.309141     34.700376      8.242747
  O      13.024905     34.643770      8.346223
  O      12.874482     29.912585      8.336172
  O      11.441166     27.643451      8.140011
  O      14.311654     32.228646      8.351791
  O      11.545225     29.383082      6.104705
  O      11.778399     35.161033      6.090417
  O      14.113698     33.629957      6.151925
  O      14.005939     30.804611      6.140382
  Si     11.679641     38.562203      7.795432
  Si     14.379714     40.048659      7.863973
  O      10.306117     39.199902      8.390675
  O      13.025779     39.296635      8.388714
  O      11.760242     36.963849      8.099334
  O      14.541734     41.580148      8.408751
  O      11.733180     38.860120      6.174519
  O      14.397922     39.955795      6.217550
  Si     16.857737     25.986982      7.889537
  O      15.507787     25.224104      8.412510
  O      18.113404     25.105114      8.446100
  O      16.786073     26.003454      6.241999
  Si     16.912891     29.067242      7.811896
  Si     17.048945     35.328121      7.810246
  Si     19.683121     33.743060      7.849351
  Si     19.563764     30.652251      7.813671
  O      15.521134     29.838219      8.131916
  O      15.698062     34.494625      8.141015
  O      18.355803     34.529363      8.400619
  O      18.176822     29.962732      8.321763
  O      16.885930     27.542214      8.401551
  O      19.687949     32.188930      8.372095
  O      17.098002     28.847599      6.182779
  O      17.320699     35.410206      6.184801
  O      19.596275     33.688236      6.205916
  O      19.541057     30.717485      6.170040
  Si     16.997481     38.400057      7.842364
  O      15.723400     39.262869      8.385141
  O      18.445931     38.971131      8.338896
  O      16.949098     36.853475      8.379744
  O      16.892903     38.347105      6.196479
  O      20.743138     29.679973      8.383724
  O      21.086761     34.388017      8.380620
  H       4.074658     24.986772      8.036591
  H       1.410409     29.602015      8.036749
  H       1.410409     35.007985      8.036749
  H       4.074657     39.623228      8.036591
  H       8.948181     22.173255      8.038302
  H       8.948181     42.436745      8.038302
  H      14.277762     22.173204      8.038282
  H      14.277762     42.436796      8.038282
  H      18.960557     24.876228      8.036406
  H      18.960557     39.733772      8.036406
  H      21.624717     29.491420      8.036583
  H      21.624717     35.118580      8.036583
  H      13.355064     34.156387      5.825316
  H      10.963252     34.720571      5.765442
  H       9.222836     32.909899      5.672220
  H       9.863159     30.357910      5.699242
  H      12.356106     29.825935      5.792544
  H      14.050358     31.728345      5.826055
  H      13.544652     39.651608      5.857275
  H      10.868833     39.114093      5.807627
  H       8.166743     39.397848      5.934441
  H       6.246267     37.570121      6.095202
  H       5.363426     35.314751      6.084633
  H       3.339532     32.922203      5.834497
  H       4.147167     30.236092      5.791870
  H       6.023437     28.229242      5.747961
  H       6.950202     25.666296      5.848936
  H       9.590919     24.941176      5.854350
  H      12.246437     25.522654      5.788349
  H      14.967640     25.064211      5.877243
  H      16.923348     26.896633      5.877586
  H      17.715001     29.464460      5.764318
  H      19.562152     31.627987      5.830595
  H      18.889267     34.258315      5.851884
  H      17.120591     36.278841      5.800649
  H      16.115296     38.824587      5.859263
  P       7.478478     35.344089     11.004276
  O       7.173442     35.089975     12.417370
  O       6.367820     35.174270      9.957054
  O       8.122358     36.789841     10.775270
  O       8.596948     34.305284     10.461453
  C       9.761583     34.037507     11.232691
  C      10.022958     32.531741     11.184239
  O      11.358055     32.281895     10.677585
  C       9.933129     31.812696     12.531116
  O       9.486749     30.461651     12.404679
  C      11.398956     31.699360     12.939111
  O      11.672263     30.739608     13.918259
  C      12.043879     31.429252     11.566825
  N      13.448454     31.734183     11.491200
  C      14.038165     32.979327     11.470636
  N      15.345685     32.939354     11.381607
  C      15.636124     31.592205     11.340075
  C      16.838851     30.879979     11.234210
  N      18.043863     31.500019     11.206842
  N      16.795906     29.539212     11.190564
  C      15.600634     28.937401     11.263694
  N      14.394271     29.490089     11.375490
  C      14.472935     30.821400     11.403004
  H       7.719330     37.204656      9.989909
  H      10.611315     34.561212     10.786751
  H       9.613871     34.389455     12.259643
  H       9.306473     32.098522     10.482767
  H       9.315620     32.362464     13.248768
  H       8.563536     30.471606     12.127724
  H      11.760024     32.666085     13.307580
  H      11.116558     29.975515     13.705031
  H      11.943476     30.368525     11.302040
  H      13.438286     33.877232     11.487907
  H      18.051923     32.478346     10.965744
  H      18.824187     30.941459     10.901191
  H      15.623985     27.851985     11.213375
162
Coordinates from ORCA-job amp_frame12_dry_r2scan E -13470.339289178724
  Si      3.436302     33.855594      7.837401
  Si      3.470860     30.751680      7.837239
  O       2.218861     34.740190      8.491337
  O       2.274459     29.799180      8.425379
  O       3.336718     32.283104      8.349040
  O       3.274389     33.818325      6.196978
  O       3.467383     30.805476      6.188042
  Si      6.133828     26.171859      7.844677
  Si      8.767334     24.545213      7.868995
  O       4.718174     25.601332      8.418487
  O       7.418446     25.308862      8.382087
  O       8.676241     23.015287      8.434362
  O       6.179216     26.145398      6.195123
  O       8.756213     24.602004      6.221569
  Si      6.144792     29.247789      7.721067
  Si      6.178398     35.516181      8.227458
  Si      8.975197     33.928310      7.643263
  Si      8.906046     30.826245      7.635973
  O       4.883442     30.072134      8.328955
  O       4.830462     34.506305      8.273736
  O       7.636617     34.762853      7.835700
  O       7.521688     30.059843      8.025391
  O       6.252459     27.727817      8.324949
  O       8.867426     32.362354      8.163274
  O       5.867625     29.118989      6.101885
  O       5.831285     35.993518      6.581775
  O       9.355822     33.803085      6.025445
  O       9.102233     30.881885      6.004294
  Si      6.274861     38.672319      7.928184
  Si      9.014925     40.067604      7.850931
  O       4.990585     39.602563      8.360763
  O       7.600443     39.525622      8.447903
  O       6.323494     37.197269      8.610804
  O       9.381616     41.605168      8.275896
  O       6.435505     38.527590      6.298788
  O       8.970654     39.882838      6.212869
  Si     11.454510     26.053832      7.798458
  Si     14.130065     24.540246      7.857184
  O      10.109329     25.334471      8.385407
  O      12.819420     25.366591      8.374245
  O      13.911409     23.005520      8.370756
  O      11.396402     25.787161      6.172310
  O      14.162097     24.633929      6.210858
  Si     11.512971     29.225474      7.744123
  Si     11.688485     35.378217      7.721035
  Si     14.282559     33.766250      7.785597
  Si     14.188739     30.704159      7.775358
  O      10.165893     29.979575      8.267284
  O      10.309871     34.699899      8.241424
  O      13.025503     34.644097      8.345470
  O      12.874607     29.912171      8.336163
  O      11.440772     27.643268      8.139716
  O      14.311609     32.228619      8.351601
  O      11.545046     29.383153      6.104790
  O      11.779066     35.160607      6.089483
  O      14.114251     33.629768      6.151549
  O      14.005459     30.804568      6.140245
  Si     11.679812     38.562328      7.794990
  Si     14.379870     40.048844      7.863939
  O      10.306173     39.199634      8.390136
  O      13.025950     39.296645      8.388476
  O      11.760748     36.963838      8.098309
  O      14.541488     41.580278      8.409237
  O      11.733727     38.860549      6.174071
  O      14.398155     39.956223      6.217530
  Si     16.857766     25.986798      7.889679
  O      15.507871     25.223857      8.412570
  O      18.113688     25.105416      8.446547
  O      16.786384     26.002997      6.242122
  Si     16.912927     29.067101      7.811699
  Si     17.049268     35.328195      7.809809
  Si     19.683328     33.742790      7.849003
  Si     19.563782     30.652146      7.813729
  O      15.521196     29.838359      8.131462
  O      15.698859     34.493864      8.140717
  O      18.356472     34.529894      8.400118
  O      18.176866     29.962483      8.321740
  O      16.885621     27.542109      8.401495
  O      19.687705     32.188861      8.372236
  O      17.098106     28.847280      6.182608
  O      17.320752     35.410371      6.184349
  O      19.596177     33.687635      6.205599
  O      19.541136     30.717292      6.170141
  Si     16.997517     38.400163      7.842158
  O      15.723561     39.263116      8.385035
  O      18.446101     38.970977      8.338853
  O      16.948913     36.853509      8.379350
  O      16.893029     38.347552      6.196338
  O      20.743266     29.680132      8.383985
  O      21.087445     34.387146      8.379840
  H       4.074657     24.986772      8.036591
  H       1.410409     29.602015      8.036749
  H       1.410409     35.007985      8.036749
  H       4.074657     39.623228      8.036591
  H       8.948181     22.173255      8.038302
  H       8.948181     42.436745      8.038302
  H      14.277762     22.173204      8.038282
  H      14.277762     42.436796      8.038282
  H      18.960557     24.876228      8.036406
  H      18.960557     39.733772      8.036406
  H      21.624717     29.491420      8.036583
  H      21.624717     35.118580      8.036583
  H      13.355792     34.156187      5.824556
  H      10.964015     34.720116      5.764386
  H       9.222166     32.909927      5.671145
  H       9.862731     30.356976      5.699603
  H      12.355858     29.826243      5.792694
  H      14.050338     31.728249      5.825838
  H      13.544848     39.652112      5.857225
  H      10.869528     39.114630      5.806945
  H       8.167050     39.398243      5.934052
  H       6.246013     37.570059      6.095209
  H       5.361880     35.315431      6.085424
  H       3.341669     32.923092      5.834450
  H       4.147064     30.236877      5.792030
  H       6.024037     28.230107      5.748833
  H       6.950302     25.667453      5.849085
  H       9.590384     24.942292      5.853956
  H      12.246070     25.522668      5.787652
  H      14.968014     25.063376      5.877227
  H      16.923597     26.896171      5.877669
  H      17.715107     29.464024      5.764001
  H      19.562257     31.627778      5.830629
  H      18.889245     34.257752      5.851508
  H      17.120826     36.279028      5.800184
  H      16.115378     38.824997      5.859153
  P       7.479812     35.344635     11.004343
  O       7.174734     35.088283     12.417011
  O       6.369501     35.174173      9.957111
  O       8.121387     36.791630     10.776741
  O       8.600201     34.308657     10.460338
  C       9.764684     34.040205     11.231809
  C      10.025380     32.534473     11.182735
  O      11.360943     32.284623     10.676698
  C       9.934404     31.814443     12.529005
  O       9.487205     30.463703     12.401280
  C      11.399903     31.699369     12.937785
  O      11.671814     30.737593     13.915424
  C      12.045451     31.430444     11.565589
  N      13.450284     31.734337     11.491013
  C      14.040913     32.979084     11.470635
  N      15.348432     32.938173     11.381920
  C      15.637912     31.590796     11.340492
  C      16.840184     30.877765     11.234914
  N      18.045673     31.496896     11.207964
  N      16.796249     29.537088     11.191040
  C      15.600552     28.936044     11.263700
  N      14.394580     29.489598     11.375292
  C      14.474131     30.820840     11.402984
  H       7.717312     37.206468      9.991950
  H      10.614852     34.563193     10.785825
  H       9.617023     34.392099     12.258755
  H       9.309152     32.101780     10.480685
  H       9.316954     32.363996     13.246892
  H       8.564302     30.474450     12.123308
  H      11.761392     32.665272     13.307955
  H      11.114307     29.975100     13.701070
  H      11.944151     30.370028     11.299956
  H      13.441721     33.877446     11.487653
  H      18.054643     32.475246     10.967027
  H      18.825651     30.937759     10.902487
  H      15.623299     27.850623     11.213421
162
Coordinates from ORCA-job amp_frame12_dry_r2scan E -13470.339291429529
  Si      3.437132     33.856442      7.837296
  Si      3.470831     30.752526      7.837373
  O       2.220574     34.743162      8.490073
  O       2.274316     29.799985      8.425184
  O       3.336171     32.284028      8.348999
  O       3.275952     33.819111      6.196908
  O       3.467679     30.806363      6.188172
  Si      6.133643     26.172430      7.844843
  Si      8.766908     24.545433      7.868528
  O       4.717990     25.601587      8.418395
  O       7.418414     25.309544      8.382134
  O       8.674705     23.015342      8.433218
  O       6.179150     26.146586      6.195321
  O       8.755580     24.602932      6.221134
  Si      6.144816     29.248476      7.721853
  Si      6.179064     35.516322      8.227796
  Si      8.975508     33.928411      7.642508
  Si      8.905924     30.826245      7.636358
  O       4.883244     30.072978      8.329269
  O       4.831752     34.505508      8.274723
  O       7.637183     34.763278      7.834762
  O       7.521607     30.060458      8.027104
  O       6.251867     27.728330      8.325397
  O       8.867670     32.362636      8.162885
  O       5.868442     29.120040      6.102563
  O       5.830520     35.994008      6.582474
  O       9.356170     33.802768      6.024705
  O       9.101527     30.881005      6.004670
  Si      6.275003     38.672557      7.928168
  Si      9.015221     40.067751      7.850764
  O       4.990485     39.601943      8.360979
  O       7.600485     39.526307      8.447675
  O       6.324958     37.197573      8.611239
  O       9.382119     41.605331      8.275567
  O       6.435565     38.527783      6.298760
  O       8.971149     39.882745      6.212692
  Si     11.454392     26.053684      7.798029
  Si     14.130073     24.540028      7.857023
  O      10.109370     25.333906      8.384973
  O      12.819428     25.366644      8.373740
  O      13.911310     23.005400      8.370973
  O      11.396201     25.787122      6.171852
  O      14.162339     24.633141      6.210712
  Si     11.512910     29.225372      7.743892
  Si     11.688992     35.378376      7.720199
  Si     14.282886     33.766210      7.785081
  Si     14.188663     30.704116      7.775021
  O      10.166079     29.979851      8.267215
  O      10.310432     34.699658      8.240228
  O      13.026017     34.644487      8.344779
  O      12.874773     29.911726      8.335951
  O      11.440332     27.643116      8.139270
  O      14.311484     32.228631      8.351265
  O      11.544901     29.383065      6.104544
  O      11.779737     35.160632      6.088605
  O      14.114739     33.629762      6.151093
  O      14.005150     30.804565      6.139882
  Si     11.680025     38.562504      7.794731
  Si     14.380122     40.048953      7.863943
  O      10.306348     39.199529      8.389906
  O      13.026161     39.296787      8.388376
  O      11.761347     36.963909      8.097652
  O      14.541535     41.580398      8.409481
  O      11.734280     38.860946      6.173822
  O      14.398446     39.956354      6.217571
  Si     16.857740     25.986702      7.889686
  O      15.507854     25.223694      8.412474
  O      18.113898     25.105715      8.446846
  O      16.786505     26.002718      6.242110
  Si     16.912944     29.067024      7.811445
  Si     17.049481     35.328207      7.809532
  Si     19.683454     33.742575      7.848840
  Si     19.563832     30.652036      7.813872
  O      15.521240     29.838474      8.131011
  O      15.699446     34.493255      8.140411
  O      18.356890     34.530197      8.399799
  O      18.176870     29.962322      8.321687
  O      16.885349     27.542067      8.401373
  O      19.687572     32.188782      8.372388
  O      17.098305     28.847124      6.182381
  O      17.320886     35.410495      6.184080
  O      19.596074     33.687120      6.205462
  O      19.541294     30.717060      6.170348
  Si     16.997598     38.400143      7.842060
  O      15.723782     39.263252      8.385049
  O      18.446302     38.970775      8.338727
  O      16.948810     36.853461      8.379200
  O      16.893118     38.347759      6.196290
  O      20.743363     29.680131      8.384263
  O      21.087927     34.386546      8.379304
  H       4.074658     24.986772      8.036591
  H       1.410409     29.602015      8.036749
  H       1.410409     35.007985      8.036749
  H       4.074657     39.623228      8.036591
  H       8.948181     22.173255      8.038302
  H       8.948181     42.436745      8.038302
  H      14.277762     22.173204      8.038282
  H      14.277762     42.436796      8.038282
  H      18.960557     24.876228      8.036406
  H      18.960557     39.733772      8.036406
  H      21.624717     29.491420      8.036583
  H      21.624717     35.118580      8.036583
  H      13.356308     34.156071      5.823881
  H      10.964837     34.720163      5.763261
  H       9.221647     32.909706      5.670530
  H       9.862205     30.356412      5.699886
  H      12.355544     29.826363      5.792334
  H      14.050321     31.728183      5.825388
  H      13.545068     39.652398      5.857265
  H      10.870128     39.114794      5.806444
  H       8.167574     39.398141      5.933878
  H       6.245861     37.570275      6.095352
  H       5.360544     35.316023      6.086485
  H       3.343786     32.923740      5.834728
  H       4.147554     30.237932      5.792253
  H       6.024623     28.231080      5.749559
  H       6.950029     25.668408      5.849121
  H       9.589805     24.943052      5.853500
  H      12.245662     25.522585      5.786853
  H      14.968204     25.062677      5.877082
  H      16.923852     26.895841      5.877595
  H      17.715483     29.463676      5.763763
  H      19.562367     31.627531      5.830771
  H      18.889296     34.257318      5.851235
  H      17.121043     36.279104      5.799800
  H      16.115437     38.825154      5.859095
  P       7.481097     35.345290     11.004486
  O       7.176379     35.087478     12.416876
  O       6.370848     35.174291      9.957316
  O       8.120825     36.793029     10.777272
  O       8.602698     34.311158     10.459691
  C       9.767055     34.042065     11.231257
  C      10.027160     32.536236     11.181152
  O      11.362912     32.286114     10.675717
  C       9.935010     31.815154     12.526817
  O       9.486731     30.464806     12.397553
  C      11.400196     31.698465     12.936334
  O      11.670822     30.734878     13.912676
  C      12.046348     31.430703     11.564229
  N      13.451351     31.734005     11.490441
  C      14.042489     32.978543     11.469982
  N      15.350033     32.937065     11.381936
  C      15.638975     31.589553     11.340798
  C      16.841008     30.876112     11.235403
  N      18.046749     31.494740     11.208849
  N      16.796511     29.535498     11.191317
  C      15.600596     28.934854     11.263676
  N      14.394815     29.488883     11.375074
  C      14.474852     30.820072     11.402958
  H       7.715385     37.207963      9.993197
  H      10.617482     34.564598     10.785213
  H       9.619578     34.393401     12.258368
  H       9.310906     32.104273     10.478742
  H       9.317554     32.364306     13.244975
  H       8.563215     30.476506     12.121654
  H      11.761956     32.663562     13.308324
  H      11.111547     29.973918     13.697311
  H      11.944393     30.370494     11.297972
  H      13.443627     33.877129     11.486503
  H      18.056292     32.473203     10.968451
  H      18.826622     30.935398     10.903488
  H      15.623054     27.849453     11.213055
162
Coordinates from ORCA-job amp_frame12_dry_r2scan E -13470.339294910773
  Si      3.437708     33.857056      7.837439
  Si      3.470905     30.753142      7.837420
  O       2.221644     34.745039      8.489307
  O       2.274271     29.800632      8.424854
  O       3.335901     32.284682      8.349090
  O       3.277184     33.819562      6.197044
  O       3.468174     30.807136      6.188304
  Si      6.133484     26.172807      7.844926
  Si      8.766622     24.545573      7.868200
  O       4.717837     25.601767      8.418366
  O       7.418370     25.309999      8.382137
  O       8.673885     23.015387      8.432575
  O       6.178976     26.147425      6.195404
  O       8.755079     24.603519      6.220819
  Si      6.144925     29.248963      7.722424
  Si      6.179515     35.516554      8.228283
  Si      8.975703     33.928561      7.641771
  Si      8.905879     30.826391      7.636628
  O       4.883176     30.073481      8.329466
  O       4.832654     34.504985      8.275740
  O       7.637561     34.763696      7.834078
  O       7.521701     30.060845      8.028256
  O       6.251583     27.728655      8.325666
  O       8.867802     32.362981      8.162585
  O       5.869148     29.120918      6.103000
  O       5.829735     35.994631      6.583346
  O       9.356386     33.802451      6.024061
  O       9.101097     30.880764      6.004858
  Si      6.275050     38.672765      7.928428
  Si      9.015404     40.067854      7.850719
  O       4.990268     39.601344      8.361540
  O       7.600532     39.526912      8.447684
  O       6.326138     37.197899      8.611840
  O       9.382698     41.605518      8.275251
  O       6.435397     38.528077      6.298953
  O       8.971388     39.882499      6.212618
  Si     11.454286     26.053621      7.797677
  Si     14.130009     24.539908      7.856794
  O      10.109370     25.333616      8.384637
  O      12.819385     25.366733      8.373342
  O      13.911057     23.005330      8.370879
  O      11.396033     25.787134      6.171485
  O      14.162376     24.632772      6.210493
  Si     11.512942     29.225302      7.743613
  Si     11.689369     35.378612      7.719532
  Si     14.283061     33.766192      7.784622
  Si     14.188654     30.704131      7.774729
  O      10.166361     29.980222      8.267102
  O      10.310765     34.699648      8.239113
  O      13.026389     34.644884      8.344199
  O      12.874926     29.911357      8.335760
  O      11.439900     27.643054      8.138932
  O      14.311321     32.228670      8.350990
  O      11.544836     29.382885      6.104213
  O      11.780371     35.160830      6.087810
  O      14.115082     33.629791      6.150669
  O      14.005042     30.804565      6.139571
  Si     11.680157     38.562722      7.794486
  Si     14.380321     40.048988      7.863905
  O      10.306498     39.199537      8.389849
  O      13.026286     39.296953      8.388299
  O      11.761820     36.964034      8.097101
  O      14.541675     41.580457      8.409514
  O      11.734586     38.861443      6.173632
  O      14.398680     39.956343      6.217575
  Si     16.857685     25.986691      7.889607
  O      15.507790     25.223576      8.412280
  O      18.114015     25.105961      8.446981
  O      16.786463     26.002660      6.242020
  Si     16.912941     29.067000      7.811312
  Si     17.049551     35.328194      7.809405
  Si     19.683474     33.742471      7.848814
  Si     19.563890     30.651958      7.814095
  O      15.521276     29.838547      8.130790
  O      15.699742     34.492898      8.140147
  O      18.357047     34.530346      8.399640
  O      18.176868     29.962222      8.321706
  O      16.885148     27.542060      8.401280
  O      19.687499     32.188743      8.372500
  O      17.098514     28.847151      6.182268
  O      17.321002     35.410580      6.183971
  O      19.595990     33.686761      6.205450
  O      19.541495     30.716797      6.170615
  Si     16.997657     38.400054      7.841998
  O      15.723944     39.263286      8.385073
  O      18.446448     38.970585      8.338511
  O      16.948737     36.853391      8.379227
  O      16.893135     38.347764      6.196254
  O      20.743478     29.680124      8.384591
  O      21.088162     34.386248      8.379012
  H       4.074658     24.986772      8.036591
  H       1.410409     29.602015      8.036749
  H       1.410409     35.007985      8.036749
  H       4.074657     39.623228      8.036591
  H       8.948181     22.173255      8.038302
  H       8.948181     42.436745      8.038302
  H      14.277762     22.173204      8.038282
  H      14.277762     42.436796      8.038282
  H      18.960557     24.876228      8.036406
  H      18.960557     39.733772      8.036406
  H      21.624717     29.491420      8.036583
  H      21.624717     35.118580      8.036583
  H      13.356651     34.156069      5.823393
  H      10.965755     34.720152      5.762249
  H       9.221380     32.909291      5.670275
  H       9.861705     30.356144      5.699983
  H      12.355306     29.826303      5.791803
  H      14.050471     31.728122      5.824981
  H      13.545229     39.652607      5.857244
  H      10.870400     39.115022      5.806140
  H       8.167660     39.398130      5.933879
  H       6.245526     37.570585      6.095674
  H       5.359591     35.316537      6.087628
  H       3.345502     32.924050      5.835215
  H       4.148315     30.238958      5.792451
  H       6.025022     28.231941      5.749900
  H       6.949629     25.669020      5.849022
  H       9.589349     24.943461      5.853137
  H      12.245356     25.522576      5.786254
  H      14.968193     25.062400      5.876878
  H      16.924021     26.895724      5.877454
  H      17.715990     29.463505      5.763796
  H      19.562484     31.627234      5.830934
  H      18.889367     34.257006      5.851036
  H      17.121113     36.279090      5.799527
  H      16.115430     38.825076      5.859010
  P       7.482215     35.345985     11.004722
  O       7.178223     35.087028     12.416970
  O       6.371929     35.174419      9.957557
  O       8.120065     36.794412     10.777667
  O       8.604702     34.313226     10.459232
  C       9.769112     34.043784     11.230536
  C      10.028921     32.537776     11.179596
  O      11.364721     32.287355     10.674900
  C       9.935596     31.815920     12.524801
  O       9.485782     30.466076     12.394393
  C      11.400508     31.697822     12.935016
  O      11.669809     30.732917     13.910521
  C      12.047191     31.430861     11.563016
  N      13.452382     31.733474     11.489800
  C      14.044121     32.977748     11.469484
  N      15.351677     32.935601     11.381990
  C      15.639988     31.587949     11.341173
  C      16.841721     30.873968     11.236059
  N      18.047760     31.491999     11.210066
  N      16.796563     29.533400     11.191593
  C      15.600339     28.933307     11.263374
  N      14.394790     29.487890     11.374637
  C      14.475461     30.819019     11.402872
  H       7.713401     37.209237      9.994084
  H      10.619535     34.566139     10.784248
  H       9.622059     34.394521     12.257872
  H       9.312608     32.106595     10.476808
  H       9.318132     32.364844     13.243054
  H       8.562325     30.478900     12.118390
  H      11.762607     32.662232     13.308470
  H      11.108854     29.973326     13.694505
  H      11.944597     30.370822     11.296204
  H      13.445601     33.876564     11.485644
  H      18.057905     32.470605     10.970315
  H      18.827517     30.932435     10.904816
  H      15.622354     27.847914     11.212469
162
Coordinates from ORCA-job amp_frame12_dry_r2scan E -13470.339295911790
  Si      3.438037     33.857393      7.837693
  Si      3.471017     30.753495      7.837318
  O       2.222294     34.746168      8.488839
  O       2.274396     29.800894      8.424350
  O       3.335585     32.285007      8.349191
  O       3.278159     33.819733      6.197218
  O       3.468895     30.807781      6.188324
  Si      6.133370     26.173018      7.844937
  Si      8.766452     24.545641      7.868009
  O       4.717745     25.601857      8.418376
  O       7.418325     25.310259      8.382108
  O       8.673486     23.015404      8.432276
  O       6.178821     26.147919      6.195388
  O       8.754760     24.603838      6.220623
  Si      6.145075     29.249280      7.722805
  Si      6.179707     35.516764      8.228899
  Si      8.975816     33.928714      7.641465
  Si      8.905880     30.826610      7.636955
  O       4.883205     30.073741      8.329561
  O       4.833221     34.504475      8.276734
  O       7.637695     34.764006      7.833825
  O       7.521864     30.061038      8.029097
  O       6.251490     27.728831      8.325793
  O       8.867830     32.363299      8.162627
  O       5.869759     29.121613      6.103230
  O       5.828900     35.995071      6.584320
  O       9.356527     33.802220      6.023876
  O       9.100725     30.881053      6.005036
  Si      6.275006     38.672865      7.928812
  Si      9.015462     40.067884      7.850741
  O       4.989977     39.600786      8.362303
  O       7.600549     39.527343      8.447779
  O       6.326943     37.198145      8.612408
  O       9.383209     41.605673      8.274953
  O       6.434998     38.528385      6.299235
  O       8.971424     39.882110      6.212609
  Si     11.454211     26.053584      7.797454
  Si     14.129956     24.539870      7.856557
  O      10.109366     25.333460      8.384432
  O      12.819345     25.366804      8.373048
  O      13.910821     23.005316      8.370656
  O      11.395891     25.787148      6.171259
  O      14.162350     24.632702      6.210257
  Si     11.512999     29.225229      7.743390
  Si     11.689589     35.378868      7.719400
  Si     14.283091     33.766165      7.784396
  Si     14.188655     30.704145      7.774496
  O      10.166642     29.980517      8.267023
  O      10.310896     34.699831      8.238567
  O      13.026631     34.645183      8.344016
  O      12.875036     29.911050      8.335599
  O      11.439512     27.643014      8.138738
  O      14.311134     32.228655      8.350822
  O      11.544747     29.382651      6.103934
  O      11.780787     35.161167      6.087510
  O      14.115161     33.629874      6.150457
  O      14.004991     30.804594      6.139356
  Si     11.680213     38.562911      7.794424
  Si     14.380441     40.048960      7.863854
  O      10.306589     39.199655      8.389966
  O      13.026310     39.297169      8.388328
  O      11.762138     36.964195      8.096995
  O      14.541976     41.580468      8.409323
  O      11.734629     38.861775      6.173626
  O      14.398783     39.956178      6.217555
  Si     16.857655     25.986752      7.889465
  O      15.507741     25.223527      8.412034
  O      18.114071     25.106171      8.446998
  O      16.786391     26.002726      6.241872
  Si     16.912920     29.067016      7.811217
  Si     17.049517     35.328145      7.809401
  Si     19.683436     33.742460      7.848840
  Si     19.563947     30.651911      7.814253
  O      15.521294     29.838559      8.130688
  O      15.699827     34.492707      8.139998
  O      18.357039     34.530377      8.399607
  O      18.176854     29.962198      8.321675
  O      16.885054     27.542092      8.401184
  O      19.687493     32.188724      8.372494
  O      17.098698     28.847257      6.182191
  O      17.321066     35.410606      6.183989
  O      19.595940     33.686598      6.205476
  O      19.541754     30.716579      6.170776
  Si     16.997686     38.399932      7.841955
  O      15.724027     39.263225      8.385098
  O      18.446523     38.970438      8.338266
  O      16.948697     36.853313      8.379339
  O      16.893078     38.347628      6.196210
  O      20.743563     29.680098      8.384851
  O      21.088215     34.386164      8.378898
  H       4.074658     24.986772      8.036591
  H       1.410409     29.602015      8.036749
  H       1.410409     35.007985      8.036749
  H       4.074657     39.623228      8.036591
  H       8.948181     22.173255      8.038302
  H       8.948181     42.436745      8.038302
  H      14.277762     22.173204      8.038282
  H      14.277762     42.436796      8.038282
  H      18.960557     24.876228      8.036406
  H      18.960557     39.733772      8.036406
  H      21.624717     29.491420      8.036583
  H      21.624717     35.118580      8.036583
  H      13.356659     34.156194      5.823346
  H      10.966346     34.720346      5.761852
  H       9.221300     32.908893      5.670511
  H       9.861083     30.356190      5.700011
  H      12.355056     29.826142      5.791303
  H      14.050529     31.728129      5.824739
  H      13.545261     39.652619      5.857242
  H      10.870343     39.115056      5.806142
  H       8.167524     39.397955      5.934009
  H       6.245118     37.570877      6.096030
  H       5.358913     35.316691      6.088803
  H       3.346926     32.924122      5.835651
  H       4.149286     30.239800      5.792579
  H       6.025342     28.232653      5.749969
  H       6.949291     25.669318      5.848887
  H       9.589089     24.943612      5.852928
  H      12.245163     25.522626      5.785924
  H      14.968134     25.062417      5.876682
  H      16.924151     26.895740      5.877268
  H      17.716480     29.463488      5.763967
  H      19.562632     31.626983      5.831004
  H      18.889440     34.256880      5.850913
  H      17.121055     36.279022      5.799418
  H      16.115343     38.824865      5.858942
  P       7.483091     35.346878     11.005066
  O       7.179858     35.087940     12.417443
  O       6.372562     35.174696      9.958036
  O       8.120024     36.795430     10.777298
  O       8.605674     34.314311     10.459458
  C       9.770216     34.044816     11.230355
  C      10.029938     32.538637     11.178967
  O      11.365528     32.287888     10.674633
  C       9.935990     31.816494     12.524011
  O       9.485145     30.467013     12.393107
  C      11.400783     31.697588     12.934426
  O      11.669347     30.732269     13.909748
  C      12.047595     31.430851     11.562416
  N      13.452874     31.733098     11.489300
  C      14.044873     32.977240     11.469185
  N      15.352447     32.934783     11.382113
  C      15.640460     31.587072     11.341326
  C      16.842055     30.872819     11.236316
  N      18.048232     31.490573     11.210766
  N      16.796591     29.532253     11.191509
  C      15.600191     28.932467     11.262938
  N      14.394747     29.487297     11.374146
  C      14.475746     30.818392     11.402704
  H       7.711961     37.210247      9.994326
  H      10.620467     34.567298     10.783871
  H       9.623579     34.395111     12.257886
  H       9.313410     32.108110     10.476019
  H       9.318629     32.365443     13.242286
  H       8.561237     30.480591     12.118684
  H      11.763219     32.661668     13.308426
  H      11.107410     29.973380     13.693776
  H      11.944651     30.370899     11.295297
  H      13.446445     33.876115     11.485220
  H      18.058636     32.469311     10.971572
  H      18.827994     30.930983     10.905562
  H      15.621922     27.847084     11.211628
162
Coordinates from ORCA-job amp_frame12_dry_r2scan E -13470.339295979904
  Si      3.438945     33.858306      7.837800
  Si      3.470775     30.754404      7.837556
  O       2.224375     34.749825      8.487324
  O       2.274139     29.801798      8.424399
  O       3.334545     32.285983      8.349266
  O       3.280218     33.820270      6.197217
  O       3.469227     30.808646      6.188603
  Si      6.133078     26.173742      7.844880
  Si      8.765899     24.545851      7.867280
  O       4.717499     25.602256      8.418165
  O       7.418197     25.311024      8.381823
  O       8.671842     23.015477      8.431024
  O       6.178566     26.149263      6.195318
  O       8.754010     24.604621      6.219908
  Si      6.144972     29.250194      7.723646
  Si      6.180480     35.516809      8.229716
  Si      8.976174     33.928884      7.640088
  Si      8.905715     30.826794      7.637297
  O       4.882962     30.074787      8.330037
  O       4.834716     34.503346      8.278261
  O       7.638171     34.764391      7.832623
  O       7.521764     30.061741      8.030758
  O       6.250871     27.729483      8.326120
  O       8.868156     32.363797      8.162189
  O       5.870312     29.123114      6.103901
  O       5.827489     35.995866      6.585821
  O       9.356374     33.801622      6.022482
  O       9.099546     30.880354      6.005193
  Si      6.275125     38.672922      7.929288
  Si      9.015464     40.068045      7.850616
  O       4.989690     39.599972      8.363003
  O       7.600488     39.528054      8.447873
  O       6.328290     37.198408      8.613454
  O       9.383739     41.605847      8.274712
  O       6.434839     38.528370      6.299702
  O       8.971143     39.882264      6.212444
  Si     11.453963     26.053476      7.796730
  Si     14.129850     24.539703      7.855987
  O      10.109317     25.332891      8.383678
  O      12.819238     25.366882      8.372166
  O      13.910404     23.005252      8.370349
  O      11.395572     25.787317      6.170499
  O      14.162540     24.632192      6.209691
  Si     11.512900     29.225128      7.743017
  Si     11.690334     35.379173      7.717612
  Si     14.283537     33.766014      7.783634
  Si     14.188612     30.704034      7.774172
  O      10.166933     29.980983      8.266880
  O      10.311643     34.699922      8.236163
  O      13.027315     34.645788      8.342637
  O      12.875146     29.910540      8.335245
  O      11.438854     27.642876      8.138203
  O      14.310809     32.228614      8.350461
  O      11.544460     29.382530      6.103534
  O      11.781920     35.161267      6.085637
  O      14.116201     33.629640      6.149675
  O      14.004943     30.804379      6.139023
  Si     11.680277     38.563344      7.793542
  Si     14.380537     40.049160      7.863690
  O      10.306628     39.199605      8.389506
  O      13.026325     39.297330      8.387877
  O      11.762654     36.964440      8.095182
  O      14.541788     41.580552      8.409646
  O      11.734646     38.863105      6.172908
  O      14.399074     39.956795      6.217393
  Si     16.857627     25.986637      7.889318
  O      15.507657     25.223248      8.411588
  O      18.114273     25.106545      8.447257
  O      16.786676     26.002521      6.241700
  Si     16.912911     29.066913      7.811254
  Si     17.049677     35.328165      7.809186
  Si     19.683510     33.742340      7.848750
  Si     19.563960     30.651829      7.814722
  O      15.521385     29.838683      8.130553
  O      15.700420     34.492032      8.139771
  O      18.357517     34.530943      8.399315
  O      18.176934     29.961845      8.322005
  O      16.884649     27.541952      8.401038
  O      19.687157     32.188728      8.372736
  O      17.099028     28.847321      6.182249
  O      17.321075     35.410687      6.183765
  O      19.595832     33.686014      6.205388
  O      19.541982     30.716195      6.171245
  Si     16.997677     38.399929      7.841752
  O      15.724080     39.263330      8.384918
  O      18.446591     38.970291      8.338056
  O      16.948423     36.853313      8.379163
  O      16.893146     38.347799      6.196011
  O      20.743891     29.680443      8.385526
  O      21.088734     34.385517      8.378311
  H       4.074657     24.986772      8.036591
  H       1.410409     29.602015      8.036749
  H       1.410409     35.007985      8.036749
  H       4.074657     39.623228      8.036591
  H       8.948181     22.173255      8.038302
  H       8.948181     42.436745      8.038302
  H      14.277762     22.173204      8.038282
  H      14.277762     42.436796      8.038282
  H      18.960556     24.876228      8.036406
  H      18.960557     39.733772      8.036406
  H      21.624717     29.491420      8.036583
  H      21.624717     35.118580      8.036583
  H      13.357858     34.156023      5.822272
  H      10.967640     34.720404      5.759839
  H       9.220437     32.908245      5.669530
  H       9.859804     30.355467      5.700004
  H      12.354605     29.826172      5.790742
  H      14.051012     31.727819      5.824227
  H      13.545485     39.653659      5.856879
  H      10.870229     39.116134      5.805535
  H       8.167234     39.398036      5.934012
  H       6.244510     37.570890      6.096648
  H       5.357984     35.317135      6.090298
  H       3.349549     32.924522      5.836039
  H       4.150138     30.241097      5.793111
  H       6.025659     28.234193      5.750443
  H       6.948791     25.670434      5.848589
  H       9.588363     24.944281      5.852179
  H      12.244712     25.522780      5.784933
  H      14.968321     25.061955      5.876183
  H      16.924652     26.895487      5.877077
  H      17.717257     29.463326      5.764345
  H      19.562767     31.626535      5.831288
  H      18.889466     34.256287      5.850607
  H      17.121039     36.279020      5.799064
  H      16.115433     38.825001      5.858674
  P       7.485305     35.348351     11.005413
  O       7.183680     35.085788     12.417457
  O       6.374909     35.174273      9.958359
  O       8.116620     36.799495     10.779412
  O       8.610833     34.320304     10.457547
  C       9.775634     34.050426     11.227698
  C      10.034290     32.543958     11.176571
  O      11.369982     32.292100     10.673471
  C       9.938215     31.821671     12.521421
  O       9.483519     30.473505     12.389792
  C      11.402552     31.698644     12.932372
  O      11.667988     30.731278     13.906548
  C      12.049661     31.432346     11.560378
  N      13.455624     31.731959     11.488425
  C      14.049920     32.975059     11.469694
  N      15.357499     32.930285     11.383903
  C      15.643113     31.582114     11.342456
  C      16.843510     30.865762     11.238165
  N      18.050893     31.481255     11.214874
  N      16.795676     29.525353     11.191779
  C      15.598112     28.927677     11.261301
  N      14.393549     29.484546     11.371976
  C      14.476929     30.815474     11.401978
  H       7.705999     37.213238      9.997038
  H      10.625875     34.572011     10.780203
  H       9.630173     34.401120     12.255240
  H       9.317872     32.114231     10.473061
  H       9.322086     32.371944     13.239704
  H       8.558191     30.489960     12.120376
  H      11.767068     32.661326     13.307985
  H      11.102380     29.975139     13.690417
  H      11.944649     30.372941     11.291818
  H      13.453017     33.874960     11.485887
  H      18.063426     32.460282     10.977061
  H      18.829909     30.920545     10.909829
  H      15.617981     27.842326     11.208976
162
Coordinates from ORCA-job amp_frame12_dry_r2scan E -13470.339296770318
  Si      3.438712     33.858000      7.837857
  Si      3.470806     30.754102      7.837427
  O       2.223875     34.748927      8.487648
  O       2.274337     29.801271      8.424277
  O       3.334539     32.285612      8.349239
  O       3.279981     33.820065      6.197212
  O       3.469333     30.808439      6.188471
  Si      6.133157     26.173516      7.844847
  Si      8.766061     24.545760      7.867494
  O       4.717594     25.602115      8.418231
  O       7.418218     25.310763      8.381833
  O       8.672374     23.015441      8.431461
  O       6.178638     26.148801      6.195276
  O       8.754271     24.604276      6.220112
  Si      6.144952     29.249933      7.723370
  Si      6.180213     35.516744      8.229615
  Si      8.976018     33.928838      7.640434
  Si      8.905744     30.826772      7.637144
  O       4.883064     30.074532      8.329922
  O       4.834307     34.503478      8.278170
  O       7.637876     34.764211      7.832934
  O       7.521836     30.061427      8.030203
  O       6.251067     27.729292      8.325960
  O       8.867979     32.363662      8.162347
  O       5.870040     29.122730      6.103660
  O       5.827531     35.995624      6.585667
  O       9.356273     33.801793      6.022844
  O       9.099774     30.880691      6.005048
  Si      6.275030     38.672806      7.929283
  Si      9.015360     40.067982      7.850650
  O       4.989659     39.600028      8.363156
  O       7.600445     39.527815      8.447848
  O       6.327874     37.198219      8.613159
  O       9.383597     41.605795      8.274742
  O       6.434597     38.528421      6.299661
  O       8.971030     39.882198      6.212490
  Si     11.454001     26.053524      7.796921
  Si     14.129864     24.539811      7.856008
  O      10.109322     25.333054      8.383882
  O      12.819263     25.366891      8.372336
  O      13.910454     23.005329      8.370221
  O      11.395620     25.787345      6.170701
  O      14.162421     24.632549      6.209707
  Si     11.512911     29.225150      7.743078
  Si     11.690101     35.379114      7.718160
  Si     14.283368     33.766021      7.783815
  Si     14.188621     30.704041      7.774140
  O      10.166879     29.980909      8.266894
  O      10.311367     34.700011      8.236732
  O      13.027107     34.645604      8.343030
  O      12.875112     29.910658      8.335223
  O      11.438943     27.642935      8.138395
  O      14.310844     32.228569      8.350498
  O      11.544419     29.382512      6.103614
  O      11.781649     35.161271      6.086184
  O      14.115828     33.629661      6.149860
  O      14.004922     30.804445      6.139037
  Si     11.680186     38.563270      7.793778
  Si     14.380436     40.049090      7.863670
  O      10.306536     39.199650      8.389676
  O      13.026237     39.297307      8.388008
  O      11.762402     36.964414      8.095650
  O      14.541900     41.580497      8.409431
  O      11.734425     38.862858      6.173129
  O      14.398884     39.956612      6.217364
  Si     16.857658     25.986678      7.889210
  O      15.507701     25.223311      8.411538
  O      18.114199     25.106481      8.447107
  O      16.786653     26.002562      6.241606
  Si     16.912911     29.066942      7.811132
  Si     17.049589     35.328154      7.809219
  Si     19.683459     33.742432      7.848731
  Si     19.563960     30.651870      7.814588
  O      15.521362     29.838624      8.130496
  O      15.700178     34.492253      8.139809
  O      18.357357     34.530828      8.399368
  O      18.176917     29.961912      8.321839
  O      16.884756     27.541986      8.400923
  O      19.687197     32.188759      8.372562
  O      17.099001     28.847361      6.182122
  O      17.321012     35.410668      6.183799
  O      19.595890     33.686261      6.205361
  O      19.542042     30.716246      6.171067
  Si     16.997636     38.399929      7.841738
  O      15.723984     39.263248      8.384885
  O      18.446499     38.970361      8.338043
  O      16.948458     36.853324      8.379163
  O      16.893077     38.347721      6.195981
  O      20.743852     29.680462      8.385419
  O      21.088530     34.385740      8.378485
  H       4.074658     24.986772      8.036591
  H       1.410409     29.602015      8.036749
  H       1.410409     35.007985      8.036749
  H       4.074657     39.623228      8.036591
  H       8.948181     22.173255      8.038302
  H       8.948181     42.436745      8.038302
  H      14.277762     22.173204      8.038282
  H      14.277762     42.436796      8.038282
  H      18.960557     24.876228      8.036406
  H      18.960557     39.733772      8.036406
  H      21.624717     29.491420      8.036583
  H      21.624717     35.118580      8.036583
  H      13.357421     34.156092      5.822646
  H      10.967255     34.720518      5.760464
  H       9.220728     32.908395      5.669784
  H       9.859983     30.355709      5.699887
  H      12.354603     29.826094      5.790826
  H      14.050816     31.727928      5.824316
  H      13.545290     39.653451      5.856902
  H      10.869995     39.115944      5.805824
  H       8.167121     39.397945      5.934084
  H       6.244374     37.570968      6.096495
  H       5.358186     35.316858      6.090058
  H       3.349061     32.924352      5.835932
  H       4.150031     30.240623      5.792987
  H       6.025535     28.233843      5.750196
  H       6.948971     25.670076      5.848647
  H       9.588598     24.944048      5.852422
  H      12.244851     25.522849      5.785271
  H      14.968221     25.062278      5.876199
  H      16.924540     26.895549      5.876988
  H      17.717224     29.463430      5.764287
  H      19.562840     31.626590      5.831131
  H      18.889475     34.256538      5.850657
  H      17.120955     36.279047      5.799186
  H      16.115378     38.824978      5.858682
  P       7.484841     35.348125     11.005476
  O       7.182911     35.086880     12.417746
  O       6.374339     35.174377      9.958504
  O       8.117811     36.798472     10.778738
  O       8.609439     34.318656     10.458300
  C       9.774395     34.049226     11.228403
  C      10.033576     32.542910     11.177346
  O      11.369280     32.291571     10.673952
  C       9.938060     31.820626     12.522211
  O       9.484153     30.472194     12.390894
  C      11.402533     31.698534     12.932936
  O      11.668692     30.731676     13.907356
  C      12.049471     31.432189     11.560865
  N      13.455326     31.732189     11.488693
  C      14.049342     32.975418     11.470172
  N      15.356916     32.930961     11.384139
  C      15.642834     31.582866     11.342381
  C      16.843367     30.866754     11.237876
  N      18.050627     31.482506     11.214413
  N      16.795813     29.526324     11.191483
  C      15.598382     28.928387     11.261215
  N      14.393727     29.484998     11.372073
  C      14.476839     30.815956     11.402059
  H       7.707616     37.212435      9.996296
  H      10.624443     34.571316     10.781076
  H       9.628751     34.399931     12.255938
  H       9.317208     32.113051     10.473833
  H       9.321744     32.370693     13.240509
  H       8.560004     30.488055     12.117417
  H      11.766742     32.661547     13.307998
  H      11.104113     29.974764     13.691276
  H      11.944836     30.372762     11.292308
  H      13.452248     33.875189     11.486571
  H      18.062873     32.461505     10.976445
  H      18.829706     30.921940     10.909259
  H      15.618403     27.843030     11.208768
162
Coordinates from ORCA-job amp_frame12_dry_r2scan E -13470.339299593128
  Si      3.438153     33.857124      7.838069
  Si      3.471108     30.753310      7.836898
  O       2.222437     34.746234      8.488592
  O       2.275037     29.799878      8.423497
  O       3.334720     32.284566      8.349239
  O       3.279400     33.819584      6.197270
  O       3.470104     30.808150      6.187976
  Si      6.133370     26.172844      7.844805
  Si      8.766490     24.545505      7.868222
  O       4.717767     25.601815      8.418413
  O       7.418204     25.309955      8.382024
  O       8.673913     23.015318      8.432765
  O       6.178839     26.147406      6.195222
  O       8.754941     24.603402      6.220812
  Si      6.145072     29.249166      7.722615
  Si      6.179472     35.516704      8.229743
  Si      8.975576     33.928759      7.641799
  Si      8.905881     30.826792      7.637009
  O       4.883453     30.073720      8.329504
  O       4.833253     34.503775      8.278066
  O       7.637208     34.763917      7.834196
  O       7.522150     30.060501      8.028849
  O       6.251666     27.728714      8.325548
  O       8.867438     32.363343      8.163117
  O       5.869675     29.121661      6.102956
  O       5.827576     35.995039      6.585646
  O       9.356075     33.802285      6.024280
  O       9.100531     30.882035      6.004905
  Si      6.274778     38.672709      7.929349
  Si      9.015234     40.067789      7.850599
  O       4.989513     39.600245      8.363714
  O       7.600342     39.527560      8.447714
  O       6.327142     37.198057      8.612632
  O       9.383664     41.605709      8.274232
  O       6.433793     38.528636      6.299635
  O       8.970928     39.881570      6.212513
  Si     11.454062     26.053642      7.797592
  Si     14.129835     24.540114      7.856115
  O      10.109289     25.333507      8.384628
  O      12.819293     25.366926      8.372951
  O      13.910377     23.005494      8.369722
  O      11.395674     25.787327      6.171405
  O      14.162015     24.633624      6.209811
  Si     11.512990     29.225193      7.743335
  Si     11.689399     35.378926      7.720005
  Si     14.282826     33.766035      7.784390
  Si     14.188673     30.704062      7.774205
  O      10.166810     29.980770      8.266975
  O      10.310552     34.700323      8.238862
  O      13.026486     34.645014      8.344361
  O      12.875047     29.910954      8.335326
  O      11.439054     27.643085      8.138982
  O      14.310965     32.228462      8.350717
  O      11.544441     29.382314      6.103903
  O      11.780662     35.161268      6.088005
  O      14.114553     33.629718      6.150456
  O      14.004965     30.804622      6.139219
  Si     11.680039     38.563009      7.794483
  Si     14.380319     40.048798      7.863459
  O      10.306409     39.199819      8.390202
  O      13.026075     39.297380      8.388328
  O      11.761940     36.964327      8.097248
  O      14.542780     41.580321      8.408383
  O      11.733922     38.861846      6.173756
  O      14.398485     39.955698      6.217152
  Si     16.857681     25.986780      7.888965
  O      15.507768     25.223443      8.411470
  O      18.113895     25.106133      8.446594
  O      16.786399     26.002812      6.241408
  Si     16.912910     29.066989      7.810952
  Si     17.049368     35.328027      7.809216
  Si     19.683333     33.742589      7.848707
  Si     19.563980     30.651897      7.814276
  O      15.521276     29.838375      8.130499
  O      15.699466     34.492889      8.139794
  O      18.356847     34.530305      8.399489
  O      18.176848     29.962130      8.321492
  O      16.885110     27.542038      8.400765
  O      19.687444     32.188750      8.372149
  O      17.098903     28.847463      6.181918
  O      17.320929     35.410505      6.183812
  O      19.596083     33.686766      6.205321
  O      19.542189     30.716297      6.170655
  Si     16.997578     38.399766      7.841577
  O      15.723838     39.262917      8.384759
  O      18.446403     38.970309      8.337654
  O      16.948669     36.853229      8.379175
  O      16.892779     38.347212      6.195800
  O      20.743660     29.680217      8.385080
  O      21.087922     34.386408      8.378991
  H       4.074658     24.986772      8.036591
  H       1.410409     29.602015      8.036749
  H       1.410409     35.007985      8.036749
  H       4.074657     39.623228      8.036591
  H       8.948181     22.173255      8.038302
  H       8.948181     42.436745      8.038302
  H      14.277762     22.173204      8.038282
  H      14.277762     42.436796      8.038282
  H      18.960556     24.876228      8.036406
  H      18.960557     39.733772      8.036406
  H      21.624717     29.491420      8.036583
  H      21.624717     35.118580      8.036583
  H      13.355937     34.156296      5.823846
  H      10.965992     34.720640      5.762600
  H       9.221586     32.908764      5.671049
  H       9.860339     30.356511      5.699699
  H      12.354680     29.825772      5.791092
  H      14.050326     31.728221      5.824694
  H      13.544946     39.652241      5.856852
  H      10.869466     39.115016      5.806556
  H       8.166854     39.397558      5.934171
  H       6.243813     37.571227      6.096342
  H       5.358686     35.316082      6.089874
  H       3.348166     32.924022      5.835610
  H       4.150262     30.239675      5.792486
  H       6.025335     28.232822      5.749484
  H       6.949455     25.668915      5.848894
  H       9.589263     24.943304      5.853205
  H      12.245123     25.522956      5.786288
  H      14.967873     25.063247      5.876301
  H      16.924240     26.895822      5.876815
  H      17.717128     29.463660      5.764237
  H      19.562862     31.626658      5.830778
  H      18.889527     34.256998      5.850762
  H      17.120765     36.278961      5.799362
  H      16.114998     38.824437      5.858619
  P       7.483618     35.347977     11.005587
  O       7.180772     35.090767     12.418500
  O       6.372657     35.175060      9.958953
  O       8.121313     36.795963     10.776248
  O       8.605279     34.314071     10.460578
  C       9.770425     34.045446     11.230775
  C      10.030849     32.539458     11.179798
  O      11.366399     32.289245     10.675348
  C       9.937107     31.817315     12.524841
  O       9.486097     30.467981     12.394341
  C      11.401992     31.698061     12.934662
  O      11.670622     30.733120     13.910149
  C      12.048191     31.431134     11.562344
  N      13.453693     31.732334     11.489155
  C      14.046678     32.976016     11.470548
  N      15.354239     32.932631     11.383775
  C      15.641240     31.584769     11.341741
  C      16.842282     30.869540     11.236820
  N      18.049059     31.486283     11.212587
  N      16.795767     29.529042     11.190820
  C      15.598820     28.930192     11.261275
  N      14.393806     29.485896     11.372535
  C      14.475903     30.816939     11.402062
  H       7.711363     37.210794      9.994213
  H      10.620101     34.568819     10.784189
  H       9.624051     34.396036     12.258305
  H       9.314373     32.109220     10.476547
  H       9.320259     32.366773     13.243229
  H       8.562957     30.481804     12.117298
  H      11.765225     32.662192     13.307775
  H      11.109023     29.973844     13.694751
  H      11.944543     30.371553     11.294170
  H      13.448878     33.875315     11.487210
  H      18.060280     32.465155     10.973926
  H      18.828482     30.926215     10.907347
  H      15.619496     27.844808     11.209052
162
Coordinates from ORCA-job amp_frame12_dry_r2scan E -13470.339299790630
  Si      3.438228     33.857020      7.838181
  Si      3.471202     30.753226      7.836703
  O       2.222470     34.746186      8.488487
  O       2.275349     29.799405      8.423042
  O       3.334429     32.284396      8.349200
  O       3.279944     33.819600      6.197301
  O       3.470599     30.808322      6.187813
  Si      6.133393     26.172736      7.844871
  Si      8.766558     24.545463      7.868425
  O       4.717783     25.601748      8.418494
  O       7.418196     25.309825      8.382133
  O       8.674144     23.015275      8.433018
  O       6.178888     26.147203      6.195289
  O       8.755075     24.603308      6.221011
  Si      6.145111     29.249065      7.722615
  Si      6.179348     35.516715      8.230166
  Si      8.975436     33.928763      7.642217
  Si      8.905897     30.826833      7.637195
  O       4.883578     30.073708      8.329478
  O       4.833261     34.503486      8.278680
  O       7.637103     34.763992      7.834597
  O       7.522301     30.060228      8.028851
  O       6.251717     27.728623      8.325562
  O       8.867236     32.363314      8.163491
  O       5.869728     29.121552      6.102935
  O       5.827145     35.994999      6.586194
  O       9.355973     33.802354      6.024740
  O       9.100695     30.882378      6.005076
  Si      6.274673     38.672724      7.929557
  Si      9.015236     40.067741      7.850627
  O       4.989342     39.600123      8.364211
  O       7.600287     39.527660      8.447717
  O       6.327217     37.198110      8.612789
  O       9.383861     41.605736      8.273962
  O       6.433425     38.528703      6.299807
  O       8.970970     39.881268      6.212563
  Si     11.454046     26.053707      7.797852
  Si     14.129788     24.540216      7.856110
  O      10.109288     25.333549      8.384880
  O      12.819301     25.366999      8.373148
  O      13.910237     23.005538      8.369460
  O      11.395664     25.787468      6.171650
  O      14.161803     24.634021      6.209811
  Si     11.513008     29.225215      7.743566
  Si     11.689256     35.378892      7.720558
  Si     14.282701     33.766043      7.784589
  Si     14.188682     30.704092      7.774308
  O      10.166856     29.980884      8.267192
  O      10.310361     34.700395      8.239375
  O      13.026386     34.644929      8.344773
  O      12.875066     29.910979      8.335487
  O      11.438909     27.643145      8.139317
  O      14.310985     32.228456      8.350887
  O      11.544397     29.382230      6.104131
  O      11.780491     35.161242      6.088511
  O      14.114224     33.629706      6.150670
  O      14.004893     30.804687      6.139366
  Si     11.680006     38.562968      7.794723
  Si     14.380310     40.048700      7.863398
  O      10.306395     39.199886      8.390456
  O      13.026040     39.297436      8.388475
  O      11.761872     36.964316      8.097689
  O      14.543144     41.580275      8.408011
  O      11.733786     38.861592      6.173980
  O      14.398364     39.955350      6.217103
  Si     16.857678     25.986807      7.888876
  O      15.507787     25.223425      8.411403
  O      18.113836     25.106107      8.446474
  O      16.786311     26.002883      6.241332
  Si     16.912900     29.067003      7.810907
  Si     17.049316     35.327993      7.809224
  Si     19.683295     33.742626      7.848670
  Si     19.564016     30.651886      7.814251
  O      15.521269     29.838337      8.130550
  O      15.699318     34.493017      8.139816
  O      18.356753     34.530211      8.399490
  O      18.176859     29.962143      8.321414
  O      16.885153     27.542045      8.400701
  O      19.687472     32.188747      8.372013
  O      17.098862     28.847548      6.181855
  O      17.320848     35.410459      6.183818
  O      19.596092     33.686863      6.205282
  O      19.542308     30.716175      6.170599
  Si     16.997556     38.399688      7.841539
  O      15.723802     39.262796      8.384749
  O      18.446385     38.970260      8.337471
  O      16.948724     36.853186      8.379231
  O      16.892657     38.347012      6.195761
  O      20.743678     29.680209      8.385126
  O      21.087803     34.386522      8.379044
  H       4.074657     24.986772      8.036591
  H       1.410409     29.602015      8.036749
  H       1.410409     35.007985      8.036749
  H       4.074657     39.623228      8.036591
  H       8.948181     22.173255      8.038302
  H       8.948181     42.436745      8.038302
  H      14.277762     22.173204      8.038282
  H      14.277762     42.436796      8.038282
  H      18.960557     24.876228      8.036406
  H      18.960557     39.733772      8.036406
  H      21.624717     29.491420      8.036583
  H      21.624717     35.118580      8.036583
  H      13.355543     34.156327      5.824233
  H      10.965744     34.720717      5.763151
  H       9.221696     32.908794      5.671506
  H       9.860337     30.356611      5.699868
  H      12.354586     29.825729      5.791261
  H      14.049994     31.728313      5.824869
  H      13.544831     39.651838      5.856848
  H      10.869314     39.114723      5.806780
  H       8.166880     39.397281      5.934240
  H       6.243404     37.571327      6.096539
  H       5.358442     35.315941      6.090386
  H       3.348724     32.924059      5.835600
  H       4.150627     30.239650      5.792383
  H       6.025455     28.232744      5.749426
  H       6.949579     25.668788      5.849022
  H       9.589379     24.943306      5.853441
  H      12.245152     25.523121      5.786580
  H      14.967689     25.063585      5.876286
  H      16.924185     26.895884      5.876732
  H      17.717260     29.463665      5.764300
  H      19.563032     31.626518      5.830688
  H      18.889539     34.257105      5.850739
  H      17.120701     36.278940      5.799403
  H      16.114837     38.824197      5.858608
  P       7.483669     35.348261     11.005858
  O       7.180702     35.092003     12.418924
  O       6.372539     35.175356      9.959364
  O       8.122221     36.795742     10.775635
  O       8.604702     34.313404     10.461325
  C       9.769950     34.045006     11.231447
  C      10.030822     32.539117     11.180089
  O      11.366438     32.289406     10.675553
  C       9.937294     31.816644     12.524973
  O       9.486776     30.467174     12.394293
  C      11.402241     31.697883     12.934753
  O      11.671310     30.733065     13.910220
  C      12.048401     31.431202     11.562375
  N      13.453862     31.732460     11.489136
  C      14.046862     32.976129     11.470676
  N      15.354423     32.932724     11.383832
  C      15.641387     31.584855     11.341598
  C      16.842402     30.869582     11.236538
  N      18.049203     31.486288     11.212287
  N      16.795833     29.529085     11.190462
  C      15.598871     28.930267     11.260997
  N      14.393891     29.486018     11.372337
  C      14.476036     30.817052     11.401928
  H       7.711494     37.210821      9.994136
  H      10.619472     34.568850     10.785100
  H       9.623400     34.395307     12.259060
  H       9.314386     32.109009     10.476685
  H       9.320243     32.365755     13.243453
  H       8.564351     30.480649     12.114865
  H      11.765202     32.662145     13.307785
  H      11.110472     29.973319     13.694570
  H      11.944829     30.371665     11.294007
  H      13.449074     33.875427     11.487435
  H      18.060439     32.465151     10.973613
  H      18.828605     30.926194     10.907060
  H      15.619460     27.844890     11.208577
