161
Coordinates from ORCA-job cmp_prot_al_frame02 E -13345.781389261734
  Si          3.45497573173815     33.84452596314198      7.83149046004442
  Si          3.47532998366431     30.74262692675097      7.82384552661738
  O           2.19945132898706     34.65442455379838      8.47552497876441
  O           2.21222604875747     29.94175646767028      8.46773519965292
  O           3.46696137421780     32.29280223045518      8.35398320207948
  O           3.44667819099963     33.85598230494640      6.19257922566455
  O           3.43436773064097     30.81413585506374      6.18899325215101
  Si          6.16188810483492     26.07994447708638      7.80389135898163
  Si          8.86192929157333     24.53503833807044      7.79860808003842
  O           4.87845092654364     25.32669664556164      8.46153364008307
  O           7.52799661516386     25.33804956052206      8.30910665421507
  O           8.82194539009106     23.04409088764845      8.45362268846256
  O           6.12060419283233     26.11039791229024      6.16679516206301
  O           8.82469093141414     24.50631787140871      6.16402095082426
  Si          6.12288148436648     29.16464450876787      7.70164563876028
  Si          6.10735086316794     35.40236742240326      7.69891415596171
  Si          8.85319247036661     33.82548991077190      7.67904443638288
  Si          8.85853623592939     30.74377519952145      7.65892771499092
  O           4.86320747458140     30.01117119378543      8.30708871249842
  O           4.82034261431242     34.60770567681255      8.32142361420645
  O           7.46382663132129     34.60403017863981      8.09112629263440
  O           7.50731972937356     29.93773470153713      8.07866053451941
  O           6.16819072950717     27.64646114777790      8.29876854978857
  O           8.75736820877634     32.26504347090400      8.23171404775107
  O           5.89924206373109     29.10929849815004      6.08202239357838
  O           5.92180567048820     35.51846079854996      6.07352880231312
  O           8.94877362757823     33.74847951206192      6.04025810752807
  O           8.99945211898335     30.82676989494433      6.03084690691905
  Si          6.13434262508766     38.49290812219034      7.69972065514329
  Si          8.86422631858710     40.10738296517956      7.70238187235464
  O           4.93896729315726     39.35900430895515      8.40201074421904
  O           7.55264625646644     39.21403975482009      8.09377998948747
  O           6.18108754002537     36.94156307823535      8.25407703731333
  O           8.60776944252581     41.58296165637299      8.35140032336829
  O           5.95271868469841     38.45477622683666      6.07949042314867
  O           9.10397530423405     40.14599108332853      6.08143336893516
  Si         11.53369996844599     26.08388784326882      7.70174580496801
  Si         14.19845952285769     24.53117200305060      7.79412006414458
  O          10.19158472399021     25.36420344192190      8.29300295059032
  O          12.88711234302645     25.38839643811598      8.28884075265183
  O          14.01208567025166     23.03375208600524      8.40339101733567
  O          11.47997478887760     25.89747986794448      6.07728550416633
  O          14.20846749492643     24.53528469341576      6.15642932754586
  Si         11.54058663541674     29.24388643978250      7.69681596919355
  Al         11.60472335717191     35.37620920620619      7.73754726439420
  Si         14.25607201825585     33.80039063990520      7.76230720421354
  Si         14.20889140267110     30.74966380414252      7.74300197844556
  O          10.17317269052555     29.95726927340799      8.25744312335892
  O          10.11248081704702     34.60172996782450      8.28338854678521
  O          13.06614239967130     34.64011917343202      8.42266212869443
  O          12.87944675315445     29.96078224235447      8.31128688470192
  O          11.50886962479944     27.66708907088125      8.10223341405412
  O          14.33877878336564     32.25274186220606      8.35637799943919
  O          11.53935447525372     29.42737540223333      6.07142323825409
  O          11.77789579499509     35.06235493661824      6.00174952015652
  O          14.02230353998559     33.64826129878078      6.14176128210283
  O          14.03064594280615     30.85375447754163      6.11782320990039
  Si         11.59558735088086     38.64546082832789      7.71881593691953
  Si         14.33271262006578     40.08214312279868      7.81141184173186
  O          10.24059137015284     39.41712425409686      8.25747880477498
  O          12.95176603292798     39.36770058217945      8.35877813455461
  O          11.57709793479291     37.09923162540085      8.08924328195628
  O          14.52030488960795     41.57948765040198      8.42501502228523
  O          11.71485213583676     38.92428409724784      6.09787283866034
  O          14.32409456592955     40.05402429317496      6.17677909647559
  Si         16.90912397979296     26.04014208307839      7.82733260368749
  O          15.55696285752610     25.26514596131839      8.33568434815766
  O          18.19664828860421     25.28456470115565      8.47570788793980
  O          16.88827936085281     26.00376862676722      6.19123730689258
  Si         16.91742640907360     29.12474015184874      7.73922266165992
  Si         17.03447633375934     35.35731453750569      7.66632533020232
  Si         19.68658441243173     33.77749585254282      7.78341084593751
  Si         19.57882576618559     30.67322961644915      7.81597178800014
  O          15.52369723170990     29.87149536061165      8.12990690573891
  O          15.71750888601499     34.49398738036037      8.05206305284682
  O          18.34789019554296     34.58919970724609      8.27101264879601
  O          18.18511035811399     29.96820396949083      8.32949769696604
  O          16.86844417535800     27.60206585684015      8.33174893926799
  O          19.63052042351433     32.22887447936477      8.32286261320111
  O          17.07330904180509     28.98430255692356      6.11606289265739
  O          17.24308567606343     35.41811045517866      6.04304356399233
  O          19.69265947508089     33.71554654451709      6.14696779123189
  O          19.56221365360589     30.64854483640266      6.17756736255659
  Si         16.97517334248268     38.44793938149292      7.77825346453325
  O          15.63675379516149     39.22251868273857      8.31645882179355
  O          18.35064647487844     39.06580881698578      8.39429718539042
  O          16.92708417510610     36.87723608150634      8.25752187766190
  O          16.97340040470615     38.46822803003968      6.14014136102731
  O          20.79381753660006     29.78991865453990      8.44137710700392
  O          21.04985105459457     34.42251194616489      8.39816524458825
  H           4.07465743142135     24.98677204039848      8.03659115489770
  H           1.41040897391299     29.60201497260217      8.03674925756066
  H           1.41040898411086     35.00798500558320      8.03674926041462
  H           4.07465743515998     39.62322796329379      8.03659116018028
  H           8.94818084930701     22.17325467428984      8.03830168919019
  H           8.94818088939288     42.43674531337346      8.03830168066767
  H          14.27776169765925     22.17320384737566      8.03828218865866
  H          14.27776166333219     42.43679617154342      8.03828216866876
  H          18.96055657947402     24.87622778580443      8.03640577881943
  H          18.96055650603491     39.73377225183952      8.03640576412725
  H          21.62471722854995     29.49141992696289      8.03658340838765
  H          21.62471725962655     35.11858009154953      8.03658341103325
  H          13.17918224481826     34.12285588859604      5.89450796901009
  H          10.99222562962858     34.66845226594003      5.60814048664637
  H           8.94903321501356     32.84563000635091      5.69049954945417
  H           9.79672953950879     30.39862759220613      5.68001272657905
  H          12.32373946435410     29.89297768034784      5.73392397434612
  H          14.00194370155162     31.78519654807220      5.81934543003557
  H          13.48564655579088     39.72727721458411      5.80698959723938
  H          10.92571673329409     39.33431220652897      5.71322150412364
  H           8.37666073186979     40.40159180771002      5.50732084041468
  H           5.90925506872870     37.55875865174290      5.71384105737294
  H           5.20503863153824     34.97705114242397      5.71241697437331
  H           3.42418000019352     32.97820139414060      5.78588795772828
  H           4.08902735844861     30.25704596521096      5.74455690984912
  H           6.01389748472304     28.23385788095937      5.68649158425120
  H           6.82864771141550     25.62225437529725      5.72709823224033
  H           9.61660535775978     24.86341092618021      5.73755386609194
  H          12.28951891880516     25.55161915598865      5.67720702829325
  H          14.97128543058434     24.97940703244449      5.76054767036888
  H          17.02405474226162     26.86461897302238      5.76937104515723
  H          17.78344055870034     29.51799358608409      5.73119747499442
  H          19.59592201034140     31.52112669765188      5.76116248317868
  H          19.00741299797873     34.25347636885664      5.72427556559073
  H          17.13908724469185     36.29410058916700      5.64767147837387
  H          16.19927618264435     38.89033509059461      5.74299628425034
  P          13.30234411279948     38.11026784958228     12.26602648326645
  O          15.28488959768094     34.83000679632185     13.06556401548115
  O          18.25139474781217     34.45378058077182     12.64914954586545
  O          17.18167383631214     32.63001225944669     11.04642230329917
  O          14.79864332342861     37.61825346839384     12.64729209911079
  O          14.90231433263189     31.08877335614308     11.56005317374051
  O          12.77723530379384     38.72820837125424     13.51135174421765
  O          12.56626536769810     37.00308535252285     11.58446335324407
  O          13.58691313963463     39.28719710320818     11.19357640643891
  N          14.05436353906143     33.16267559712379     11.98083421137027
  N          12.68129366745938     31.42678276605714     11.29791034743241
  N          10.42514384961083     31.68299030557275     10.94969340477686
  C          17.25313319485860     34.91952328917148     11.77010159177137
  C          16.39186479768208     33.76033409718050     11.28473827037506
  C          16.25814001824840     35.76030037809682     12.54670656918591
  C          15.39572506161135     33.59997835711641     12.43922836933560
  C          15.58032918455702     36.85216162135346     11.75073676215740
  C          12.99320162491840     33.99943278405262     11.93213362183446
  C          13.94928961863835     31.84574488521855     11.61108315725875
  C          11.75655867101714     33.57388776096027     11.58359755266564
  C          11.58193179065546     32.21398428879169     11.26640981530574
  H          17.69416618547452     35.47563380790259     10.93666313479210
  H          15.84846158555396     34.06857741770853     10.38669072966476
  H          16.75154787001430     36.21239756463334     13.41000785542300
  H          15.73268488289658     32.82815471159921     13.13839098110941
  H          14.96210213519825     36.42896876580527     10.95250949750367
  H          16.34604397298413     37.48891017770691     11.29564479032033
  H          18.51573085914630     33.58186762807618     12.32321938489505
  H          16.60219092553805     31.85425021318582     11.11969565174142
  H          13.17703338855963     35.04230911065670     12.16594677175282
  H          10.92358807564004     34.25849617951629     11.53887565678195
  H           9.61199587825939     32.27093041258745     10.85950551803611
  H          10.34070570018574     30.71795089412722     10.66950055623071
  H          13.26050554330395     39.07078431015644     10.30778557540900
  H          12.61231658241972     30.45058705994857     11.03666505303667
