159
9 Eopt=-403.7889698065 (Eh) Einter=26.475037 (kcal/mol)
Si 3.55619755605775722529 33.84476442462342760109 7.82276357848837378128
Si 3.55590021621481167102 30.76676464194684612607 7.82284079769697360263
O  2.14725499633703442726 34.47991502094996718597 8.40973852887740846995
O  2.14683493725704366284 30.13191591113015377346 8.40984764376987925516
O  3.71004511067967079896 32.30576445384961914442 8.41280327311353026687
O  3.55520841074718330077 33.84672284722655888345 6.16676352320662957140
O  3.55491063256883599308 30.76472336611248081795 6.16684084267764909271
Si 6.21945436027593334671 26.15150720521553040498 7.82297308150255332748
Si 8.88330595166045178246 24.61424971538035322283 7.82302827329982886084
O  4.81038912314130584491 25.51665837117301549597 8.40997994560221862059
O  7.47536352375909984858 25.24940041084904507329 8.41000351802084367137
O  9.03815422676855106943 23.07524947483251764879 8.41306749378762042113
O  6.21946467132525171451 26.14946602952121423868 6.16697313193723850588
O  8.88331682539939571086 24.61620855302474097925 6.16702822403352968195
Si 6.21975165174514899036 29.22950713302882874700 7.82289629682179921133
Si 6.22034602887352239264 35.38150692024122179191 7.82274211489914694795
Si 8.88419713083660056441 33.84424955137497903479 7.82279756331913223022
Si 8.88389988621930726254 30.76624968221505795896 7.82287501650011574128
O  4.81080926668247776945 29.86465800557085259470 8.40987141561883433383
O  4.81128093354373209678 34.74665784972182791535 8.40974902199801732650
O  7.47625518067969707658 34.47940035629603983125 8.40977301213241901223
O  7.47583501256611082653 30.13140045477764772386 8.40988176469033099636
O  6.37359925402128002503 27.69050700820615062980 8.41293572204195783115
O  9.03904548401326479734 32.30524954338876142401 8.41283740613777908379
O  6.21976243097410819161 29.23146574643106987423 6.16689624885625953254
O  6.22035654623127864937 35.37946535227307975902 6.16674220292544195132
O  8.88420840288957514019 33.84620808154473081686 6.16679788492577696246
O  8.88391054023293413877 30.76420828144410890559 6.16687498288060531593
Si 6.22064342460745667296 38.45950675931916151740 7.82266469646106443747
Si 8.88479196095726209137 39.99624949695473929978 7.82264305121790659570
O  4.81170078749295271336 39.09465713695735189503 8.40963963051131102588
O  7.47672682088803686185 39.36140026679591841230 8.40965003267722721603
O  6.37449097617544246930 36.92050681935825195978 8.41270448787375180189
O  9.03993734229500134347 41.53524933995775114681 8.41260523447458119506
O  6.22065423077530077478 38.46146494215994238175 6.16666464592300123115
O  8.88480247244694609776 39.99420773040558430012 6.16664310192166631452
Si 11.54845426477711001212 26.15099232425314923489 7.82300714603633995381
Si 14.21330584530139162780 24.61373497505363516780 7.82306254355717189952
O  10.13938923358110422157 25.51614300803002777229 8.41001392831626937152
O  12.80436339745908469467 25.24888564488007958175 8.41003767262277257544
O  14.36715409958042855010 23.07473486455336697531 8.41310181924148103860
O  11.54846468097406386732 26.14895111156504370342 6.16700719654565876482
O  14.21231681142224090308 24.61569388545800762813 6.16706248852150284989
Si 11.54875152189585385543 29.22899229460886871834 7.82293041871576200208
Al 11.54934607045646188794 35.38099169583718861531 7.82277628008939718285
Si 14.21419717698234386205 33.84373467358976483865 7.82283188488035996500
Si 14.21389985927211974115 30.76573488222271990367 7.82290902668142162923
O  10.13980914233639829547 29.86414303472732356681 8.40990554088413588829
O  10.14028073975017463226 34.74614321161521957038 8.40978336229944289926
O  12.80525501422699008458 34.47888583765323033958 8.40980705362135516623
O  12.80483482209287871001 30.13088560007948046859 8.40991594396375674592
O  11.70259911973188771128 27.68999212650467356411 8.41296981128633625246
O  14.36804481546282907800 32.30473471822343611848 8.41287147742191265820
O  11.54876229690822597718 29.23095091253020427757 6.16693037069561444952
O  11.54935623593555504840 35.37895063108215509828 6.16677639238695718404
O  14.21320802469593402861 33.84569333734726370722 6.16683184809492690448
O  14.21291020297267237993 30.76369351666494722508 6.16690908107358382040
Si 11.54964330887627532718 38.45899214066388793754 7.82269889475721491578
Si 14.21479183289225289855 39.99573458142236859203 7.82267713403917319681
O  10.14070100125106677069 39.09414297172434515915 8.40967387626561624359
O  12.80572674883771711052 39.36088552446253885364 8.40968414656667917484
O  11.70349085950619105745 36.91999218042614216984 8.41273863291070611581
O  14.36893714317128711855 41.53473444829494098940 8.41263927976268632847
O  11.54965410650224733047 38.46095033845145394480 6.16669881169631306506
O  14.21380227326434386725 39.99369288786078868725 6.16667717668161330380
Si 16.87745391234065905905 26.15047761152484540048 7.82304130683615195352
O  15.46838899844644998893 25.51562837320771137684 8.41004824125367633769
O  18.13336275203336356299 25.24837058549962165444 8.41007176987537796720
O  16.87746415405156952261 26.14843622902737152458 6.16704135700988320679
Si 16.87775123136023580628 29.22847752650732644497 7.82296442294222416081
Si 16.87834565629899330474 35.38047741758035868997 7.82281020166110518943
Si 19.54219697349103412876 33.84322009548021981118 7.82286558513930074810
Si 19.54189956127283522846 30.76522001898381830642 7.82294276436690516618
O  15.46880890580021272740 29.86362830275540147795 8.40993960585038280442
O  15.46928064991733542399 34.74562828574640604984 8.40981724405123998167
O  18.13425471928758270224 34.47837082450890022756 8.40984082928183340755
O  18.13383459359593885551 30.13037082528893151334 8.40994984647643306630
O  17.03159884008090685370 27.68947742944718726221 8.41300387054630505190
O  19.69704449364346032780 32.30421987734888489285 8.41290516736122029329
O  16.87776192886371262603 29.23043612903969545869 6.16696437349197168487
O  16.87835593837007763796 35.37843578729169280450 6.16681025231240020901
O  19.54220750950497631493 33.84517861355094936471 6.16686553127633096949
O  19.54190971440747759402 30.76317845115993776517 6.16694281120695553255
Si 16.87864312399915434071 38.45847737772315610982 7.82273276702900943746
O  15.46970084803918155103 39.09362819513255260517 8.40970792219851759342
O  18.13472631080792751845 39.36037116588276774110 8.40971797630116846278
O  17.03249066963606139780 36.91947735990351731061 8.41277248468120397717
O  16.87865370782689922180 38.46043573862619524562 6.16673271723558169555
O  20.79780834299005931598 29.86311287964463190292 8.40997325034241072217
O  20.79828007611133244836 34.74511392619727701003 8.40985083127177013296
H  4.07465742956708076861 24.98677204212960489826 8.03659115495247533545
H  1.41040896912474877922 29.60201496978857349518 8.03674925626888203567
H  1.41040900890934395306 35.00798498520594392858 8.03674926198262262744
H  4.07465743681752989858 39.62322797119971795610 8.03659115974106263991
H  8.94818084737909913429 22.17325470657114294681 8.03830168966775815420
H  8.94818087957035501745 42.43674530232770791827 8.03830168074143891488
H  14.27776169663708571989 22.17320385723528630706 8.03828219030615898077
H  14.27776173727762376586 42.43679616734243609244 8.03828218888348544624
H  18.96055658480204542116 24.87622777357861991732 8.03640577886729978729
H  18.96055653340355817704 39.73377222808804987153 8.03640577821713364415
H  21.62471722936814799709 29.49141993025064323319 8.03658340909926316442
H  21.62471723312553706364 35.11858007564382688770 8.03658341071764681374
H  13.39922795756874052131 34.28531246063546689129 5.85463176698780518592
H  10.85603172133648008924 34.89218230185228009077 5.71721596035097512356
H  8.79316673965558237569 32.97374190524865866792 5.76219939938736303020
H  9.66357961960683731206 30.35160702403082666478 5.76895568071170306013
H  12.30629750184787951639 29.68608882114274294395 5.77123880587129534092
H  14.17430146077393970927 31.65300279440073083492 5.78286317040153807767
H  13.45700859322879416879 39.52750482912137641733 5.78093078847649444185
H  10.82185198724384989077 38.95872177951968495790 5.76976940961715634160
H  8.14980839587118310874 39.50861002865634219461 5.76627385350248466978
H  6.23194667502130439374 37.58116491933709113482 5.76471310437963779805
H  5.44704955263849566194 34.95093754262714469405 5.77257540996004347988
H  3.60664936356588583521 32.96826993080650680668 5.76388710714670082780
H  4.32819223199726721418 30.34484056086341752234 5.76402041666735431846
H  6.20754699160687994919 28.34935900053109136820 5.76818373873920542394
H  7.00943285656402892414 25.75772182327718695660 5.76748914509624377445
H  9.64047060889983953302 25.06526887690310800849 5.76511829276873832839
H  12.31477063355134760059 25.70825778324927313179 5.77188275791388161196
H  14.95393929814807520984 25.09100721802163747043 5.76597661935161731606
H  16.85170393374006181375 27.02666099271473854060 5.76146800078345400209
H  17.64768340157180048777 29.66420704420494303122 5.77142433792567643991
H  19.48180900368250334509 31.64168672142165306127 5.76490010398021635041
H  18.77140968578368784847 34.27358367905004854492 5.76790924717082464923
H  16.89481965176862132694 36.26079389682206510770 5.76914703424737140836
H  16.09152696983403174613 38.86028470196338702181 5.76951241498491462778
N  9.99327021389910896687 29.72688521676173323272 12.24564009730543645560
C  10.59056318361722937027 28.89827594862304138701 11.32200403507602359809
N  9.99697880355197909807 27.67915923390821575367 11.15260586758042471445
C  8.87438791643812230348 27.18319451535705155720 11.82116237931355229307
C  8.32310572216237787302 28.12896669790312387249 12.75538508182074437514
C  8.88514691006086110292 29.34332959198826173974 12.92914578858035667963
O  11.60612809963003400071 29.21636236211048398559 10.73051058635544663389
O  8.49272832584490444674 26.04643761778022792441 11.60872203233166999325
C  10.60666239649257747146 31.06482763602223329258 12.37197921458468385936
C  10.35300357830061912523 31.88422231940925399840 11.07958353674789364618
C  9.84746616965311893921 33.25298665021175281709 11.59815340976093800407
C  9.44112119474803535013 32.96572561183841543198 13.05487939107452710630
O  10.84090577295777180211 34.23196466108244351290 11.58618205463836403624
O  10.11315198830520678541 31.76669248349897145545 13.45193784225883248951
C  7.92359829187974362696 32.87750761154888579085 13.28731737241409760486
O  7.61224788422637121954 32.97423536052565395948 14.64131792766567130570
P  7.18633986861313989181 31.58197702516013904983 15.47450664494144767502
O  6.54850010856358011324 30.62207395071254723007 14.53958187301473969910
O  8.68509312008999501131 30.98032657193179062460 15.85418024908608458645
O  6.55644237534048013316 32.05400214977434814045 16.73384881619215747151
H  10.41020361495319868084 27.09521947192292046225 10.43320858123527550276
H  7.44592088336344115618 27.86152982273060274565 13.31683039654075706437
H  8.48423851092617553604 30.04776218737572079931 13.64731734414554154000
H  11.68652409673758363340 30.89282148542277184333 12.50184947978305771699
H  8.98764746448164686399 33.57415728209322480780 10.99487128588513940031
H  9.83401228767828428090 33.75944861867218094176 13.70103835649394596885
H  11.19191266159245401468 34.29340739572725027529 10.68209798353027117912
H  7.44946088985705223706 33.72472178249229557423 12.77577439922924895654
H  7.52195927505553374459 31.94261816040478052514 12.88063566651100799731
H  9.04505879750303165565 31.63801768560669103181 16.44168731598344379563
O  11.48887527760697224721 32.06416909046586027898 10.29979239189661122111
H  9.54933645152888388452 31.39181878222131771849 10.51647153510918286656
H  11.80926418567521984926 31.20620506737705923683 9.99125754917555397583
