161
16 Eopt=-23.1805560884 (Eh) Einter=-30.554594 (kcal/mol)
Si 3.55625019960269295183 33.84481352294768186084 7.82283052348205742987
Si 3.55593639308212683403 30.76681374904243426727 7.82283149594734261711
O  2.14730564709426374748 34.47995711737515023287 8.40980825113656216274
O  2.14686231994664211697 30.13195801641209925492 8.40980966034804566789
O  3.71008409394678029258 32.30579811989435512487 8.41283350975832000529
O  3.55527628687309960043 33.84681297544835132385 6.16683050738768123722
O  3.55496202330349575504 30.76481349813726495768 6.16683148087748556065
Si 6.21946585174439103838 26.15154206510071333014 7.82287394205827535387
Si 8.88330922030134750855 24.61427032285024196767 7.82291554071299621853
O  4.81039181900146139981 25.51668623359421061991 8.40985212628305056626
O  7.47536479316662116901 25.24941401083797387628 8.40989357750712329675
O  9.03814384377482937794 23.07525464034762308074 8.41291806251612328538
O  6.21949137433605070413 26.14954191143223738436 6.16687394238102193356
O  8.88333532804171710495 24.61627018271050815201 6.16691554199617542054
Si 6.21977960263766949112 29.22954199014938225787 7.82287340537939979157
Si 6.22040692393037186747 35.38154178347871692267 7.82287165083319369074
Si 8.88425012595831908868 33.84427022431901832533 7.82291376451647302304
Si 8.88393626605652109163 30.76627032180369170078 7.82291461032811152876
O  4.81083522066344393409 29.86468585907543271674 8.40985130283042714439
O  4.81133299258658109210 34.74668571318564858075 8.40984984537906932189
O  7.47630574290858351816 34.47941394172931239837 8.40989159473815917067
O  7.47586238972862648922 30.13141403328410206086 8.40989279751442175836
O  6.37361355167569509916 27.69052643031637828130 8.41287612248899030476
O  9.03908400091195396442 32.30525462644439471660 8.41291665305009672693
O  6.21980562029639383326 29.23154162460126670453 6.16687340484733947932
O  6.22043261205392905566 35.37954121077998337341 6.16687165176974261271
O  8.88427616544991671788 33.84626969490487624626 6.16691376391599632711
O  8.88396189445242256966 30.76426992733941290226 6.16691461061805945576
Si 6.22072074863163138048 38.45954160509344887942 7.82287044048770852100
Si 8.88487749804897575245 39.99627009488662565673 7.82291135287434968859
O  4.81177610572791802923 39.09468497610635751016 8.40984815249523443015
O  7.47680356746974794646 39.36141385653056090632 8.40988966412874994205
O  6.37455463184240223029 36.92052622848872545092 8.41287352601897886473
O  9.04002569365196784190 41.53525449280041215161 8.41291308190732323169
O  6.22074678691771332240 38.46154080483555048886 6.16687043973019122234
O  8.88490322598715742686 39.99426934456502635840 6.16691135396063216945
Si 11.54846580806892752946 26.15099867320947879534 7.82295696110475446972
Si 14.21330910932620739118 24.61372707007192417450 7.82299879323422331368
O  10.13939192322116689127 25.51614235765575244841 8.40993509175808817702
O  12.80436466542367135446 25.24887074702665046289 8.40997670749495895848
O  14.36714371904357356868 23.07471152307049067076 8.41300136454354330340
O  11.54849137141096271364 26.14899848977592711208 6.16695698568585992660
O  14.21233531480135425795 24.61572701420243447501 6.16699878183351390959
Si 11.54877954569617415359 29.22899854040137768152 7.82295650009026211080
Si 11.54940674697241576041 35.38099852678968204600 7.82295480114357388857
Si 14.21424989819433548632 33.84372686622234027709 7.82299680931743779411
Si 14.21393618560080618352 30.76572718150464069709 7.82299780606725736476
O  10.13983508521837606509 29.86414239323424979489 8.40993442772902000115
O  10.14033289069552523642 34.74614237532912142115 8.40993306786784877715
O  12.80530558809868679759 34.47887069111231994611 8.40997468436123973845
O  12.80486214405362765945 30.13087085221550864844 8.40997589915189891485
O  11.70261334431843280868 27.68998305489594713436 8.41295921015627534700
O  14.36808383295905322541 32.30471136769769913144 8.41299963774443426701
O  11.54880546451858336354 29.23099830816501665254 6.16695650694610719711
O  11.54943233885383868653 35.37899793527154912454 6.16695480128069384307
O  14.21327587317196261552 33.84572642322387991953 6.16699678507571924513
O  14.21296159057891017596 30.76372660707369632860 6.16699765636997732088
Si 11.54972065847196205368 38.45899842404013924124 7.82295359256394196024
Si 14.21487735472690872029 39.99572667520533286734 7.82299441900763437019
O  10.14077630371207305870 39.09414231227371061550 8.40993138118345484600
O  12.80580347672778529500 39.36087061311273771480 8.40997276683753725024
O  11.70355452210018931680 36.91998300206703476078 8.41295663525754022771
O  14.36902551654019077887 41.53471112900236761334 8.41299609857301611271
O  11.54974665225836183424 38.46099771193757277388 6.16695359147867172567
O  14.21390301434525227364 39.99372599900099345405 6.16699440288347044969
Si 16.87746548446769523366 26.15045547542302983857 7.82304010056190435307
O  15.46839169545903835967 25.51559921604972913656 8.41001838324642747580
O  18.13336402065798580452 25.24832718552678301194 8.41005976907649177576
O  16.87749082709093784160 26.14845510077240930968 6.16704011530349749393
Si 16.87777943049380269258 29.22845589533421062356 7.82303955040520015984
Si 16.87840650242583251384 35.38045526730437018159 7.82303765166831510669
Si 19.54224960708475578031 33.84318370186263535970 7.82307943731709087842
Si 19.54193568392202351447 30.76518374211068262980 7.82308033503519162366
O  15.46883459054331666493 29.86359868118542237880 8.41001727784438912749
O  15.46933269982498337924 34.74559912897181135349 8.41001601489294436931
O  18.13430533979038727921 34.47832742240229464414 8.41005748045114209788
O  18.13386202132610947046 30.13032720100119021822 8.41005879285631507969
O  17.03161298387575683932 27.68943978468124100800 8.41304227850390695664
O  19.69708352820967434127 32.30416803418175675233 8.41308232004472067445
O  16.87780506530845414659 29.23045487514320228684 6.16703945490315241784
O  16.87843199484495215756 35.37845465709207815053 6.16703765324328401221
O  19.54227535973854656959 33.84518324423529378464 6.16707943941070446670
O  19.54196108489991701163 30.76318305313545309332 6.16708037524783048156
Si 16.87872042491571988876 38.45845522791668003038 7.82303645984108353417
O  15.46977615288112950509 39.09359903692799065311 8.41001439981642207044
O  18.13480302867973392722 39.36032777483568878552 8.41005555182337261044
O  17.03255432137448366348 36.91943977486667449739 8.41303947249670258657
O  16.87874623704376730871 38.46045460920200298460 6.16703645969903746504
O  20.79783429498612079556 29.86305523515239457311 8.41010007666936587611
O  20.79833211794986169707 34.74505628354073394348 8.41009857287227369227
H  4.07465742960398813466 24.98677204110472516163 8.03659115492346032283
H  1.41040896896510403735 29.60201496923049191423 8.03674925625195157863
H  1.41040900982397232610 35.00798498631062471986 8.03674926261897226709
H  4.07465743671585212127 39.62322797222118708760 8.03659115988778616213
H  8.94818084653139855789 22.17325470605495141285 8.03830168967882130460
H  8.94818087836653930367 42.43674530331068694977 8.03830168073838535747
H  14.27776169747497192475 22.17320385292157425283 8.03828218817221795689
H  14.27776172900192719339 42.43679616899341056069 8.03828219004116029112
H  18.96055658218109840618 24.87622777151062436474 8.03640577825872348683
H  18.96055653558752140952 39.73377222684418086374 8.03640577819115797809
H  21.62471722786172279029 29.49141992657522948207 8.03658340608074617251
H  21.62471723459168515546 35.11858007498825173798 8.03658341020383737430
H  13.43954240716393933042 34.27033906323065792776 5.76911863125402213370
H  10.79702478240721141844 34.91824967564205906001 5.76839602501143389190
H  8.90770700655787273092 32.96594596423869205637 5.76499475617104373271
H  9.65945432811395221506 30.34299409130677815938 5.76888005033061368465
H  12.30259136528437835523 29.68912268885805971763 5.76803922556036408054
H  14.18560351441252898042 31.64418152321010424544 5.76552258708620612992
H  13.46208429040186160819 39.53603768186169276078 5.76468154403529631225
H  10.78553467868809789820 38.90473306691920640787 5.77122838975229690561
H  8.14831461450896199494 39.50994490506528222795 5.76699955035576561357
H  6.23317386269536477528 37.58286575799309048307 5.76180503593466486478
H  5.45415702061038487614 34.93908511504277214499 5.77152547614623845362
H  3.60566386876519029414 32.96814933238219680334 5.76410508780680519436
H  4.32812544124148956826 30.34544671561455331243 5.76331957716022635907
H  6.21212642426142558350 28.34933201797040425163 5.76816829132211150721
H  7.00946743373027914004 25.75759721996297813007 5.76754704174546883877
H  9.64012207179920288524 25.06582757800809346804 5.76488469574259276840
H  12.31500792624252049734 25.70853944509715560685 5.77192568501944336390
H  14.95343799017352814928 25.09203406548855852520 5.76610003223812661588
H  16.85241664780202697216 27.02653751256265479697 5.76116217807733388412
H  17.64630214435513622107 29.66655900480275320774 5.77122748370726412759
H  19.48194553064293188527 31.64158903780536036265 5.76482831563133579778
H  18.77355784185113662943 34.27390176031432389436 5.76498788522668270673
H  16.88031298492060017225 36.26100719856986387413 5.76894103317622519711
H  16.09309773698078060988 38.86024083811187779247 5.76722976412511734168
P  14.55931653227843902698 29.05452714656798463011 11.21858466780682483943
O  12.38477589328347505671 32.29118940908752222185 10.54409299853051251716
O  12.62275910122521871415 34.84891049579361066435 12.28224010403840260608
O  10.29496881111542982978 33.71742255716853975400 12.96093075362585445021
O  14.35207925356095870484 30.58861994458716893064 10.80047674847235938955
O  8.49890505980234323147 31.75738643343301959021 11.76920111153888370836
O  13.85145565245353438399 28.14721629521885049030 10.23882329369409305286
O  13.99055537147708960788 28.84613377990218552327 12.60942505633060761738
O  16.13111049213093650678 28.75150445357223816245 11.18704401416935212410
N  10.56678455701912078268 30.89175243837884821119 11.31277351353638138676
N  8.63377158691419843706 29.55115372759318859153 11.18507587423497184886
N  8.78778850407561940017 27.35306112881311335627 10.32512293170213979465
C  12.73816314406217209410 33.47610279754731976709 12.59216512389786224446
C  11.34138090477115312638 32.81634335423941450927 12.66686973974912433505
C  13.42607064660947102652 32.69785742626935842736 11.43425450937810872176
C  11.14076995093927102687 32.23040713793849221247 11.25009939624247934375
C  14.20426993114683256181 31.45069269205514217447 11.88956666616802593239
C  11.34523070552852352932 29.79258014209887761581 11.09710222379350952338
C  9.17969837029134083650 30.79336752591401449308 11.45433850472862857828
C  10.78463321572529665104 28.57001057925781495328 10.91036061132356316250
C  9.38820103732992095047 28.45314719620794718935 10.85539627100782666957
H  13.29581846533850253422 33.38069371159681963945 13.53587568211145431007
H  11.32384248343739940879 32.00509378364763080071 13.41082314552876297853
H  14.06405595641637518156 33.37290391110852993961 10.84348502213197029675
H  10.44660853018404544912 32.86282255658033335521 10.67632599897747880391
H  13.63798142176691285954 30.91677605176003851284 12.66944753292558978330
H  15.20109419483542723128 31.69355416750670073611 12.29095797584455240781
H  11.71068195820060964252 35.14909113658595884999 12.49184570644018421604
H  9.47112752253806711167 33.25730927709527406932 12.68092560982873706621
H  12.39830357098515634107 29.94868255503644860482 10.93673624600448945898
H  11.40622432558937227043 27.73121073404480796398 10.64366674110500454731
H  9.32942441463602456508 26.68150725052462135523 9.78785748614485129337
H  7.87663848804434518769 27.44434496767153319752 9.88297271346904793177
H  16.37842314931869580619 28.34575466323024173221 10.32983567248293255147
H  7.62555454225108775290 29.49493438236904907512 11.13371665807922639146
