69
Properties=species:S:1:pos:R:3 8=T Eopt=-476.5261861891 (Eh)=T Einter=8.24458 (kcal/mol)=T pbc="F F F"
O       14.04383729      33.57676561      10.66390934
P       13.13776327      32.41178060      10.77244925
C       13.75495041      32.41857671      13.27457509
H       14.05393155      33.47263203      13.32862971
H       14.60791129      31.83979510      12.90338513
O       12.67696343      32.28919155      12.39968168
C       13.43111784      31.91769063      14.68367756
H       14.33020522      32.03826056      15.30686910
O       12.37864268      32.68261308      15.29098002
C       12.99045317      30.44910996      14.76262211
H       12.39755642      30.19679407      13.87605739
O       14.10079922      29.59829838      14.86094283
C       12.07887446      30.45664454      16.00912544
H       11.32207028      29.66335321      15.95646452
O       12.77994040      30.39486226      17.21312173
H       13.15175033      29.47326344      17.23326279
C       11.43817065      31.84710231      15.88738453
H       11.18259301      32.23818129      16.88352148
N        6.77737855      29.73454703      15.44401578
C        7.58557019      29.86229973      16.48773188
H        7.24832267      29.37427686      17.39551987
N        8.75850281      30.45783963      16.56552355
C        9.09456336      31.07786156      15.42809561
C        8.26959782      31.13783198      14.28838010
C        7.12399067      30.32866436      14.29341747
N        6.37170835      30.14248624      13.17968429
H        5.71897907      29.37622411      13.24903171
H        6.92172672      30.15545625      12.31557371
N        8.86698331      31.90846760      13.33246451
C       10.01516799      32.24914571      13.83210225
H       10.76574565      32.80447685      13.30468999
N       10.21942254      31.77896048      15.10257586
O       13.97734791      31.02440464      10.67919506
H       13.33220032      30.30294262      10.73652414
O       11.85945413      32.29839508      10.00611940
P       13.90283644      28.05264851      15.32305866
C       11.87370716      26.55718543      14.73419089
H       10.80050317      26.73213267      14.58985058
H       12.06346426      26.32389888      15.78939333
O       12.54407697      27.73197111      14.40721891
C       12.26552340      25.34874457      13.85418370
H       12.34160637      24.45396337      14.48602525
O       11.26136852      25.07570008      12.87779012
C       13.58352561      25.55363673      13.07369029
H       13.77202679      26.62340817      12.98345962
O       14.68597423      24.92714602      13.67143797
H       15.06260097      25.64861742      14.23426080
C       13.24699747      24.97690946      11.68984146
H       13.84821273      25.39659177      10.87782881
O       13.39219577      23.57312800      11.69368356
H       14.08010650      23.40885834      12.35618861
C       11.76795044      25.36835671      11.60048430
H       11.19193906      24.77819277      10.88076667
N        8.39502000      29.20126267      11.39451900
C        8.26011105      27.89234066      11.52636318
H        7.24311470      27.54456311      11.67515126
N        9.17528527      26.94399528      11.50136317
C       10.40884197      27.44176322      11.33876915
C       10.70574642      28.79946333      11.17750989
C        9.62809664      29.71963734      11.16571503
N        9.77337422      31.00859373      10.95161715
H        8.95502001      31.59073773      10.99000056
H       10.67695594      31.44518393      10.64100961
N       12.05894307      28.95076000      11.04282748
C       12.55334251      27.75736331      11.12082980
H       13.60005129      27.56115452      11.01370195
N       11.60953402      26.77586849      11.29949119
O       13.51889090      27.92961826      16.76591070
O       15.07756748      27.26319935      14.86368241
