195
8 Eopt=-476.5261861891 (Eh) Einter=8.244580 (kcal/mol)
Si 3.55625019814854148592 33.84481352381733643142 7.82283052332710671095
Si 3.55593638674896173058 30.76681373954207998622 7.82283150075872057982
O  2.14730563742180891040 34.47995712162105519383 8.40980825174177049064
O  2.14686235609809372704 30.13195800841597105091 8.40980966515271433082
O  3.71008408765870711932 32.30579811795070099834 8.41283351251940203497
O  3.55527628777706450336 33.84681297563338375767 6.16683050733602744486
O  3.55496202545999384625 30.76481349495939099370 6.16683147866309155916
Si 6.21946584751044806438 26.15154205192848735351 7.82287393487193227770
Si 8.88330922366048802985 24.61427039380058445772 7.82291552530651301822
O  4.81039182413309163167 25.51668623005283365046 8.40985212965543027508
O  7.47536479977238510486 25.24941401585268607732 8.40989357530793668616
O  9.03814383566384016433 23.07525430418025536028 8.41291805482894261559
O  6.21949137683858044312 26.14954191382817327849 6.16687394277297507017
O  8.88333532487099830632 24.61627017254428295701 6.16691554211588410794
Si 6.21977965941827992680 29.22954184087174311912 7.82287338639200502399
Si 6.22040691561062075721 35.38154178830323104421 7.82287164950307190026
Si 8.88424973328540090733 33.84427028906682011211 7.82291371681728175957
Si 8.88393610792268617615 30.76627052816238361288 7.82291458120856830760
O  4.81083521120433665885 29.86468593378002722716 8.40985131713372524587
O  4.81133299298256389420 34.74668570994945326902 8.40984984296086324207
O  7.47630580649860654319 34.47941391964715762697 8.40989159954595599800
O  7.47586234594496179540 30.13141406485726392361 8.40989282548126659833
O  6.37361352792886926011 27.69052647786125831431 8.41287611952393277193
O  9.03908442575727910651 32.30525445690807373467 8.41291670070345887211
O  6.21980561964491318605 29.23154164805999144505 6.16687340141173567787
O  6.22043261442584949350 35.37954121211348734732 6.16687165124407243866
O  8.88427629689968156868 33.84626970399796164202 6.16691377957833619661
O  8.88396193031921477257 30.76426986165133570239 6.16691464959816748603
Si 6.22072075008752101155 38.45954160527482912357 7.82287044019662847205
Si 8.88487749792487768730 39.99627009488079210087 7.82291135255435321483
O  4.81177610445892334212 39.09468496483286514831 8.40984815243446170996
O  7.47680356797936163105 39.36141385716507556936 8.40988966318154673729
O  6.37455463105801545254 36.92052622846887288688 8.41287352722802417304
O  9.04002569355712992660 41.53525449288100901413 8.41291308193178011265
O  6.22074678648540491110 38.46154080486058290944 6.16687043989952599077
O  8.88490322598024206968 39.99426934460090876655 6.16691135401232770619
Si 11.54846570264194483002 26.15099865879289353643 7.82295696838990295419
Si 14.21330910690311277733 24.61372704866293048553 7.82299878065358900159
O  10.13939193692178264428 25.51614234379880485903 8.40993508428931413334
O  12.80436469048784786651 25.24887076757813986205 8.40997673178430460439
O  14.36714370552975594819 23.07471152281007675811 8.41300136797410758049
O  11.54849139001817448502 26.14899849421549049566 6.16695698986388762819
O  14.21233531711485476023 24.61572701724823986069 6.16699878612804752720
Si 11.54877950387528073861 29.22899865343540781737 7.82295661757834004391
Si 11.54940673911615789393 35.38099845510259200410 7.82295484804185559113
Si 14.21424991662707881801 33.84372687127948609032 7.82299680330372293469
Si 14.21393602093702668299 30.76572693941175629107 7.82299769249094811840
O  10.13983501607400405931 29.86414222349952751756 8.40993435848434600643
O  10.14033294372587334919 34.74614246345171864050 8.40993303979015216498
O  12.80530558609265412429 34.47887070480789617477 8.40997467749344984611
O  12.80486218842260370820 30.13087075576142837008 8.40997586569170962889
O  11.70261346292044812856 27.68998306493278249718 8.41295916978368829575
O  14.36808380747828550739 32.30471137597864839108 8.41299968348301518972
O  11.54880547044144023516 29.23099830327523207529 6.16695647736587915233
O  11.54943232863640290020 35.37899795722344720161 6.16695478644675887381
O  14.21327586985382929186 33.84572642193682412426 6.16699678615415791683
O  14.21296159047356155725 30.76372665006331175164 6.16699767098977869040
Si 11.54972065060009001058 38.45899842634096899019 7.82295359534558087944
Si 14.21487736884813202209 39.99572667396548553143 7.82299441228147429683
O  10.14077630385317441153 39.09414231170165976437 8.40993138010823138018
O  12.80580348043029914606 39.36087061216530713637 8.40997277265315723582
O  11.70355453417174729225 36.91998301092705503379 8.41295662744020944501
O  14.36902548925059264207 41.53471112207846971387 8.41299611650347856084
O  11.54974665278547441005 38.46099771163196123780 6.16695359175933610629
O  14.21390300890334401629 39.99372600025034785176 6.16699440241969476517
Si 16.87746540168351216948 26.15045546170469492608 7.82304011565007328954
O  15.46839169450129780614 25.51559922880579733828 8.41001837407734242902
O  18.13336401764640015699 25.24832717956154581884 8.41005977485846756281
O  16.87749085156665884710 26.14845510439209164133 6.16704011553286068903
Si 16.87777918209146932327 29.22845537801112314469 7.82303948164375739793
Si 16.87840650215389004529 35.38045526641032978432 7.82303765248725202497
Si 19.54224960948182499010 33.84318370280742982459 7.82307943628287372206
Si 19.54193577451159313796 30.76518362657645155878 7.82308035894634912211
O  15.46883486095054927034 29.86359915412680265945 8.41001744508068682649
O  15.46933269698449819884 34.74559912669276684483 8.41001601434514789446
O  18.13430534248903924777 34.47832742262725247429 8.41005748034800504342
O  18.13386196046941734039 30.13032741716531859311 8.41005879084007545998
O  17.03161313464433135323 27.68943984396479862653 8.41304221809684271705
O  19.69708350927916029605 32.30416803946276615989 8.41308233351508860665
O  16.87780510571013792287 29.23045499999782848022 6.16703948070277796489
O  16.87843199492378332138 35.37845465758144314350 6.16703765301777995234
O  19.54227535992452402525 33.84518324268081101991 6.16707943824711168901
O  19.54196103128404615745 30.76318307438813448584 6.16708038227033661371
Si 16.87872042518142023937 38.45845522875228539306 7.82303646030374633114
O  15.46977615307433495673 39.09359903732649854646 8.41001439994345290074
O  18.13480302845255920374 39.36032777461082332593 8.41005555168155360946
O  17.03255432101047261995 36.91943977492805828433 8.41303947230074378183
O  16.87874623697258158472 38.46045460869742527166 6.16703645962326252317
O  20.79783428388614652249 29.86305523301966502459 8.41010006230680140504
O  20.79833211899279632462 34.74505628397246681516 8.41009857275806815835
H  4.07465742821459731005 24.98677204375706395467 8.03659115403685753165
H  1.41040884049341563866 29.60201493489485002897 8.03674923958164733051
H  1.41040900853252360037 35.00798498508471112700 8.03674926196445227333
H  4.07465740638116891148 39.62322804917452856444 8.03659115608665963748
H  8.94818085731693102503 22.17325476231964387352 8.03830171052994657543
H  8.94818087844357634708 42.43674530330279992540 8.03830168072375172983
H  14.27776170567757318963 22.17320385364234525127 8.03828218553141127245
H  14.27776184440293683053 42.43679639022881389110 8.03828216649482030220
H  18.96055658452777947787 24.87622777394716067079 8.03640577890472052047
H  18.96055653560054921059 39.73377222682645992791 8.03640577821348145449
H  21.62471722923107009251 29.49141993052065657821 8.03658340729927367363
H  21.62471723456657812790 35.11858007489788491284 8.03658341047823476799
H  13.43954241020729867273 34.27033906197576840214 5.76911863026401583454
H  10.79702477665524007477 34.91824966025163945460 5.76839602979424448392
H  8.90770695549386104517 32.96594597796478609553 5.76499475024036289739
H  9.65945433211910398086 30.34299411537347879175 5.76888004249038033322
H  12.30259136967130828566 29.68912268473620486020 5.76803922801166724099
H  14.18560353415096564333 31.64418152031671382929 5.76552258406850803851
H  13.46208429047080024077 39.53603768137126195370 5.76468154421930289999
H  10.78553467860260894895 38.90473306670298114796 5.77122838986068664724
H  8.14831461453688632446 39.50994490510496603974 5.76699955034931921460
H  6.23317386299122588866 37.58286575789116312762 5.76180503600379712026
H  5.45415701994688539855 34.93908511522773352453 5.77152547606425425641
H  3.60566386854068365864 32.96814933312369078067 5.76410508762971662833
H  4.32812544163892543025 30.34544671459156006676 5.76331957776146364125
H  6.21212642018584837444 28.34933201117413048564 5.76816829720395229941
H  7.00946743239407776827 25.75759721903669685616 5.76754704159000120001
H  9.64012207143397148457 25.06582758131657584499 5.76488469655105806311
H  12.31500792303017277618 25.70853944318133343927 5.77192568267374106483
H  14.95343798854247907570 25.09203406554065196588 5.76610003152014805039
H  16.85241664003520156712 27.02653749620016299104 5.76116217502956295959
H  17.64630215672929125503 29.66655898958937953580 5.77122747623438314690
H  19.48194554687368196255 31.64158903456449323244 5.76482831326842237729
H  18.77355784138889305268 34.27390176109506825242 5.76498788552573504518
H  16.88031298486922793245 36.26100719845416620046 5.76894103310979211585
H  16.09309773698785761553 38.86024083832329267807 5.76722976407964527112
O  14.04383729092659116588 33.57676561181825292124 10.66390933983235100868
P  13.13776326812885741901 32.41178060427876772565 10.77244925031230060597
C  13.75495040909175159527 32.41857671048265387981 13.27457508533641217241
H  14.05393154859075188767 33.47263202968709805418 13.32862970761964760413
H  14.60791128670384253496 31.83979509954569664387 12.90338513396140385225
O  12.67696342955351518356 32.28919154732622587289 12.39968167786303610001
C  13.43111784274859843435 31.91769062775605902971 14.68367756027542547770
H  14.33020522198773250011 32.03826055982575127246 15.30686910186513038923
O  12.37864268028704906044 32.68261307622741185241 15.29098001887782132258
C  12.99045317448111980241 30.44910996037540940051 14.76262211259904688632
H  12.39755642207762598161 30.19679407068085552623 13.87605738582024628158
O  14.10079922163195575990 29.59829838315334882282 14.86094282696904400609
C  12.07887446070575343526 30.45664453746718436378 16.00912544291644579175
H  11.32207028115389491063 29.66335321122079804468 15.95646452487285671396
O  12.77994039543017557037 30.39486226016520120652 17.21312173334489159515
H  13.15175032733906412830 29.47326343600421694191 17.23326278684083945336
C  11.43817064856505716364 31.84710230710454226255 15.88738453388978655312
H  11.18259301285975482187 32.23818129458599912596 16.88352148379673067780
N  6.77737855118910115237 29.73454702774996505354 15.44401577584993034975
C  7.58557018782933045742 29.86229973479280630499 16.48773188159049496448
H  7.24832266655010482026 29.37427686253490932700 17.39551987308959368761
N  8.75850280671222591877 30.45783963394438131900 16.56552355350853744653
C  9.09456336129655085188 31.07786155862248378412 15.42809561173483956509
C  8.26959781544124084007 31.13783198124216866631 14.28838009847611445480
C  7.12399067469907087968 30.32866436200991344663 14.29341746621300757170
N  6.37170834531691721025 30.14248623943026217376 13.17968429047166623036
H  5.71897907207298494825 29.37622410943606610090 13.24903170928981310794
H  6.92172671865402122648 30.15545625093231407732 12.31557371281458834744
N  8.86698330714108529094 31.90846760018173355888 13.33246451299957158199
C  10.01516799145765546086 32.24914570869527352670 13.83210224813186073334
H  10.76574564518055865392 32.80447685498841536855 13.30468998992738249854
N  10.21942254286674867103 31.77896047663744383271 15.10257585825429771376
O  13.97734791349452621034 31.02440463728293096324 10.67919506395491424655
H  13.33220031847058351104 30.30294262290088624923 10.73652414085530715226
O  11.85945413442374807289 32.29839508219262000921 10.00611940497507035275
P  13.90283643936869140134 28.05264851134474923811 15.32305865591867721776
C  11.87370715752930294684 26.55718543187567348696 14.73419088640062035722
H  10.80050316770685014944 26.73213266909834118223 14.58985057977458765777
H  12.06346425657586607372 26.32389887703407538311 15.78939333322793459047
O  12.54407697352882600228 27.73197110540654009014 14.40721891022309719688
C  12.26552339923501122598 25.34874457486685628282 13.85418370093010054234
H  12.34160636570513958077 24.45396337111084150706 14.48602525089208015174
O  11.26136852209708294481 25.07570008114746684669 12.87779012299737857461
C  13.58352561473449249263 25.55363672895096271986 13.07369028607193861546
H  13.77202678855072548458 26.62340816797886589029 12.98345962112359153195
O  14.68597423190071538102 24.92714602307259852410 13.67143797096499291399
H  15.06260096900861533697 25.64861741528176963811 14.23426080278118277533
C  13.24699747104786240470 24.97690945873985413073 11.68984145654304107609
H  13.84821272730406960250 25.39659177413332713513 10.87782880507589844399
O  13.39219576783396092878 23.57312800231493810088 11.69368356023375099539
H  14.08010650153856246902 23.40885834382966379508 12.35618860750516745384
C  11.76795043964255071955 25.36835670862554792393 11.60048429707109463038
H  11.19193905695604129846 24.77819276774655321560 10.88076666871895703537
N  8.39501999943110099878 29.20126267014133247812 11.39451900293219388516
C  8.26011104819048114223 27.89234065976830834188 11.52636317978761759662
H  7.24311469789182904577 27.54456311260096867954 11.67515125595346603404
N  9.17528527302655305675 26.94399527948384687193 11.50136316980677975153
C  10.40884197274875333505 27.44176321527421791302 11.33876915150439401714
C  10.70574641861111864216 28.79946333052398088626 11.17750989294325592027
C  9.62809664190058356326 29.71963734296073766927 11.16571503467146442290
N  9.77337422130990418623 31.00859373296798437991 10.95161714943205666373
H  8.95502000798342834287 31.59073772875004237903 10.99000055578892265373
H  10.67695593817824928351 31.44518393066694628146 10.64100961090466057613
N  12.05894306504937674163 28.95076000406301375278 11.04282747916335694072
C  12.55334250710261301265 27.75736331060530659443 11.12082979542550731367
H  13.60005129275119628574 27.56115451930186921459 11.01370195154883191435
N  11.60953401596010969854 26.77586849113716027659 11.29949119407065261100
O  13.51889090381800606622 27.92961825874895964716 16.76591070217351386873
O  15.07756747760367943556 27.26319934904446640189 14.86368241304977999562
