126
Properties=species:S:1:pos:R:3 8=T Eopt=-476.5261861891 (Eh)=T Einter=8.24458 (kcal/mol)=T pbc="F F F"
Si       3.55625020      33.84481352       7.82283052
Si       3.55593639      30.76681374       7.82283150
O        2.14730564      34.47995712       8.40980825
O        2.14686236      30.13195801       8.40980967
O        3.71008409      32.30579812       8.41283351
O        3.55527629      33.84681298       6.16683051
O        3.55496203      30.76481349       6.16683148
Si       6.21946585      26.15154205       7.82287393
Si       8.88330922      24.61427039       7.82291553
O        4.81039182      25.51668623       8.40985213
O        7.47536480      25.24941402       8.40989358
O        9.03814384      23.07525430       8.41291805
O        6.21949138      26.14954191       6.16687394
O        8.88333532      24.61627017       6.16691554
Si       6.21977966      29.22954184       7.82287339
Si       6.22040692      35.38154179       7.82287165
Si       8.88424973      33.84427029       7.82291372
Si       8.88393611      30.76627053       7.82291458
O        4.81083521      29.86468593       8.40985132
O        4.81133299      34.74668571       8.40984984
O        7.47630581      34.47941392       8.40989160
O        7.47586235      30.13141406       8.40989283
O        6.37361353      27.69052648       8.41287612
O        9.03908443      32.30525446       8.41291670
O        6.21980562      29.23154165       6.16687340
O        6.22043261      35.37954121       6.16687165
O        8.88427630      33.84626970       6.16691378
O        8.88396193      30.76426986       6.16691465
Si       6.22072075      38.45954161       7.82287044
Si       8.88487750      39.99627009       7.82291135
O        4.81177610      39.09468496       8.40984815
O        7.47680357      39.36141386       8.40988966
O        6.37455463      36.92052623       8.41287353
O        9.04002569      41.53525449       8.41291308
O        6.22074679      38.46154080       6.16687044
O        8.88490323      39.99426934       6.16691135
Si      11.54846570      26.15099866       7.82295697
Si      14.21330911      24.61372705       7.82299878
O       10.13939194      25.51614234       8.40993508
O       12.80436469      25.24887077       8.40997673
O       14.36714371      23.07471152       8.41300137
O       11.54849139      26.14899849       6.16695699
O       14.21233532      24.61572702       6.16699879
Si      11.54877950      29.22899865       7.82295662
Si      11.54940674      35.38099846       7.82295485
Si      14.21424992      33.84372687       7.82299680
Si      14.21393602      30.76572694       7.82299769
O       10.13983502      29.86414222       8.40993436
O       10.14033294      34.74614246       8.40993304
O       12.80530559      34.47887070       8.40997468
O       12.80486219      30.13087076       8.40997587
O       11.70261346      27.68998306       8.41295917
O       14.36808381      32.30471138       8.41299968
O       11.54880547      29.23099830       6.16695648
O       11.54943233      35.37899796       6.16695479
O       14.21327587      33.84572642       6.16699679
O       14.21296159      30.76372665       6.16699767
Si      11.54972065      38.45899843       7.82295360
Si      14.21487737      39.99572667       7.82299441
O       10.14077630      39.09414231       8.40993138
O       12.80580348      39.36087061       8.40997277
O       11.70355453      36.91998301       8.41295663
O       14.36902549      41.53471112       8.41299612
O       11.54974665      38.46099771       6.16695359
O       14.21390301      39.99372600       6.16699440
Si      16.87746540      26.15045546       7.82304012
O       15.46839169      25.51559923       8.41001837
O       18.13336402      25.24832718       8.41005977
O       16.87749085      26.14845510       6.16704012
Si      16.87777918      29.22845538       7.82303948
Si      16.87840650      35.38045527       7.82303765
Si      19.54224961      33.84318370       7.82307944
Si      19.54193577      30.76518363       7.82308036
O       15.46883486      29.86359915       8.41001745
O       15.46933270      34.74559913       8.41001601
O       18.13430534      34.47832742       8.41005748
O       18.13386196      30.13032742       8.41005879
O       17.03161313      27.68943984       8.41304222
O       19.69708351      32.30416804       8.41308233
O       16.87780511      29.23045500       6.16703948
O       16.87843199      35.37845466       6.16703765
O       19.54227536      33.84518324       6.16707944
O       19.54196103      30.76318307       6.16708038
Si      16.87872043      38.45845523       7.82303646
O       15.46977615      39.09359904       8.41001440
O       18.13480303      39.36032777       8.41005555
O       17.03255432      36.91943977       8.41303947
O       16.87874624      38.46045461       6.16703646
O       20.79783428      29.86305523       8.41010006
O       20.79833212      34.74505628       8.41009857
H        4.07465743      24.98677204       8.03659115
H        1.41040884      29.60201493       8.03674924
H        1.41040901      35.00798499       8.03674926
H        4.07465741      39.62322805       8.03659116
H        8.94818086      22.17325476       8.03830171
H        8.94818088      42.43674530       8.03830168
H       14.27776171      22.17320385       8.03828219
H       14.27776184      42.43679639       8.03828217
H       18.96055658      24.87622777       8.03640578
H       18.96055654      39.73377223       8.03640578
H       21.62471723      29.49141993       8.03658341
H       21.62471723      35.11858007       8.03658341
H       13.43954241      34.27033906       5.76911863
H       10.79702478      34.91824966       5.76839603
H        8.90770696      32.96594598       5.76499475
H        9.65945433      30.34299412       5.76888004
H       12.30259137      29.68912268       5.76803923
H       14.18560353      31.64418152       5.76552258
H       13.46208429      39.53603768       5.76468154
H       10.78553468      38.90473307       5.77122839
H        8.14831461      39.50994491       5.76699955
H        6.23317386      37.58286576       5.76180504
H        5.45415702      34.93908512       5.77152548
H        3.60566387      32.96814933       5.76410509
H        4.32812544      30.34544671       5.76331958
H        6.21212642      28.34933201       5.76816830
H        7.00946743      25.75759722       5.76754704
H        9.64012207      25.06582758       5.76488470
H       12.31500792      25.70853944       5.77192568
H       14.95343799      25.09203407       5.76610003
H       16.85241664      27.02653750       5.76116218
H       17.64630216      29.66655899       5.77122748
H       19.48194555      31.64158903       5.76482831
H       18.77355784      34.27390176       5.76498789
H       16.88031298      36.26100720       5.76894103
H       16.09309774      38.86024084       5.76722976
