37
Coordinates from ORCA-job amp_prot_geom E -1530.471075782630
  P      -3.611897     -1.566953     -0.105035
  O      -4.373400     -1.315203     -1.358138
  O      -4.196037     -2.323872      1.034408
  O      -2.215634     -2.257378     -0.571001
  O      -3.114799     -0.156049      0.527911
  C      -2.596850      0.831040     -0.342309
  C      -1.643286      1.710576      0.430025
  O      -0.546066      0.931994      0.946318
  C      -1.019126      2.795172     -0.428110
  O      -0.716056      3.910620      0.377129
  C       0.269311      2.121419     -0.899570
  O       1.297639      3.017460     -1.220186
  C       0.651181      1.315263      0.337691
  N       1.432668      0.131790      0.044453
  C       1.006206     -1.007827     -0.587579
  N       1.948697     -1.901966     -0.727982
  C       3.050284     -1.320118     -0.163573
  C       4.366911     -1.778677     -0.019188
  N       4.813941     -2.942906     -0.433115
  N       5.187557     -0.894002      0.606571
  C       4.789269      0.324000      1.059133
  N       3.587696      0.793416      0.944647
  C       2.748458     -0.055339      0.327062
  H      -1.744580     -2.622531      0.186989
  H      -2.081948      0.369381     -1.191948
  H      -3.410014      1.450361     -0.735035
  H      -2.161526      2.152075      1.284950
  H      -1.663687      3.075943     -1.268140
  H       0.027464      4.363067     -0.044295
  H       0.053192      1.444752     -1.731594
  H       1.238839      3.237989     -2.155789
  H       1.269988      1.927185      1.001763
  H      -0.020323     -1.126185     -0.904968
  H       4.183110     -3.577268     -0.896246
  H       5.775785     -3.220863     -0.318120
  H       5.565259      0.906939      1.539730
  H       6.160239     -1.142975      0.747271
37
Coordinates from ORCA-job amp_prot_geom E -1530.471065892988
  P      -3.614157     -1.566099     -0.105340
  O      -4.377203     -1.313123     -1.357260
  O      -4.197268     -2.323215      1.034500
  O      -2.219004     -2.257307     -0.573626
  O      -3.115296     -0.155857      0.527680
  C      -2.596860      0.831009     -0.342499
  C      -1.643240      1.710359      0.429993
  O      -0.546234      0.931611      0.946578
  C      -1.018630      2.794810     -0.427995
  O      -0.715382      3.910091      0.377423
  C       0.269708      2.120745     -0.899212
  O       1.298270      3.016523     -1.219812
  C       0.651212      1.314675      0.338194
  N       1.432726      0.131129      0.045342
  C       1.006425     -1.008880     -0.586064
  N       1.949183     -1.902735     -0.726519
  C       3.050820     -1.320249     -0.162840
  C       4.367721     -1.778190     -0.019007
  N       4.815093     -2.942311     -0.432839
  N       5.188270     -0.892917      0.606037
  C       4.789786      0.325181      1.058092
  N       3.587956      0.794055      0.944055
  C       2.748724     -0.055394      0.327416
  H      -1.747468     -2.623813      0.183410
  H      -2.081873      0.369172     -1.191997
  H      -3.409791      1.450469     -0.735486
  H      -2.161524      2.152031      1.284797
  H      -1.662924      3.075847     -1.268141
  H       0.028167      4.362510     -0.043978
  H       0.053479      1.444032     -1.731183
  H       1.239537      3.237033     -2.155424
  H       1.269918      1.926621      1.002333
  H      -0.020188     -1.127852     -0.902972
  H       4.184306     -3.577177     -0.895342
  H       5.777173     -3.219697     -0.318390
  H       5.565898      0.908632      1.537877
  H       6.161139     -1.141387      0.746327
