37
Coordinates from ORCA-job /data/Seafile/amp/protonated/geom/amp_prot E -1530.471070630451
  P          -3.61189662025046     -1.56695260958190     -0.10503542654559
  O          -4.37339986196993     -1.31520252847696     -1.35813778257644
  O          -4.19603661514224     -2.32387177477138      1.03440765053326
  O          -2.21563352560108     -2.25737837840408     -0.57100092228799
  O          -3.11479930092224     -0.15604918718143      0.52791125947232
  C          -2.59684950799544      0.83103961014030     -0.34230919268285
  C          -1.64328601797969      1.71057595301226      0.43002505048415
  O          -0.54606615754239      0.93199412494250      0.94631826493480
  C          -1.01912551380876      2.79517153050933     -0.42810959171206
  O          -0.71605553447809      3.91062021583353      0.37712930143442
  C           0.26931141433741      2.12141874832013     -0.89956976887257
  O           1.29763885444950      3.01746042568632     -1.22018639065044
  C           0.65118089544556      1.31526286418187      0.33769099157903
  N           1.43266783726819      0.13179004914248      0.04445277354964
  C           1.00620630853414     -1.00782742607344     -0.58757852525840
  N           1.94869724103245     -1.90196617674450     -0.72798225085291
  C           3.05028356512126     -1.32011780662999     -0.16357269379941
  C           4.36691127432216     -1.77867735730489     -0.01918818603481
  N           4.81394101406510     -2.94290576515850     -0.43311479812227
  N           5.18755724931116     -0.89400194903522      0.60657093588902
  C           4.78926943713202      0.32400041430457      1.05913251166662
  N           3.58769605618824      0.79341553200296      0.94464737981688
  C           2.74845769786046     -0.05533863606881      0.32706152393828
  H          -1.74457962078004     -2.62253068522478      0.18698927952643
  H          -2.08194776693284      0.36938144195195     -1.19194819820720
  H          -3.41001393745182      1.45036122279605     -0.73503481050546
  H          -2.16152574802226      2.15207456535546      1.28495015585542
  H          -1.66368704692694      3.07594278763453     -1.26813981059227
  H           0.02746419923948      4.36306676467602     -0.04429542685692
  H           0.05319158698034      1.44475176671911     -1.73159409737006
  H           1.23883895761313      3.23798854338421     -2.15578925340409
  H           1.26998767228226      1.92718535957498      1.00176292080253
  H          -0.02032273920455     -1.12618493668693     -0.90496821769303
  H           4.18311037742377     -3.57726776180363     -0.89624594424746
  H           5.77578511436302     -3.22086310774885     -0.31812024248232
  H           5.56525939080548      0.90693867871758      1.53973015308487
  H           6.16023937123355     -1.14297451199087      0.74727137818686
