126
Coordinates from ORCA-job /data/Seafile/al_surf/flower_ring_al E -11887.487596313716
  Si      3.556250     33.844814      7.822831
  Si      3.555936     30.766814      7.822831
  O       2.147306     34.479957      8.409808
  O       2.146862     30.131958      8.409810
  O       3.710084     32.305798      8.412834
  O       3.555276     33.846813      6.166831
  O       3.554962     30.764813      6.166831
  Si      6.219466     26.151542      7.822874
  Si      8.883309     24.614270      7.822916
  O       4.810392     25.516686      8.409852
  O       7.475365     25.249414      8.409894
  O       9.038144     23.075255      8.412918
  O       6.219491     26.149542      6.166874
  O       8.883335     24.616270      6.166916
  Si      6.219780     29.229542      7.822873
  Si      6.220407     35.381542      7.822872
  Si      8.884250     33.844270      7.822914
  Si      8.883936     30.766270      7.822915
  O       4.810835     29.864686      8.409851
  O       4.811333     34.746686      8.409850
  O       7.476306     34.479414      8.409892
  O       7.475862     30.131414      8.409893
  O       6.373614     27.690526      8.412876
  O       9.039084     32.305255      8.412917
  O       6.219806     29.231542      6.166873
  O       6.220433     35.379541      6.166872
  O       8.884276     33.846270      6.166914
  O       8.883962     30.764270      6.166915
  Si      6.220721     38.459542      7.822870
  Si      8.884877     39.996270      7.822911
  O       4.811776     39.094685      8.409848
  O       7.476804     39.361414      8.409890
  O       6.374555     36.920526      8.412874
  O       9.040026     41.535254      8.412913
  O       6.220747     38.461541      6.166870
  O       8.884903     39.994269      6.166911
  Si     11.548466     26.150999      7.822957
  Si     14.213309     24.613727      7.822999
  O      10.139392     25.516142      8.409935
  O      12.804365     25.248871      8.409977
  O      14.367144     23.074712      8.413001
  O      11.548491     26.148998      6.166957
  O      14.212335     24.615727      6.166999
  Si     11.548779     29.228999      7.822957
  Al     11.549407     35.380999      7.822955
  Si     14.214250     33.843727      7.822997
  Si     14.213936     30.765727      7.822998
  O      10.139835     29.864142      8.409934
  O      10.140333     34.746142      8.409933
  O      12.805306     34.478871      8.409975
  O      12.804862     30.130871      8.409976
  O      11.702613     27.689983      8.412959
  O      14.368084     32.304711      8.413000
  O      11.548805     29.230998      6.166957
  O      11.549432     35.378998      6.166955
  O      14.213276     33.845726      6.166997
  O      14.212962     30.763727      6.166998
  Si     11.549721     38.458998      7.822954
  Si     14.214877     39.995727      7.822994
  O      10.140776     39.094142      8.409931
  O      12.805803     39.360871      8.409973
  O      11.703555     36.919983      8.412957
  O      14.369026     41.534711      8.412996
  O      11.549747     38.460998      6.166954
  O      14.213903     39.993726      6.166994
  Si     16.877465     26.150455      7.823040
  O      15.468392     25.515599      8.410018
  O      18.133364     25.248327      8.410060
  O      16.877491     26.148455      6.167040
  Si     16.877779     29.228455      7.823039
  Si     16.878407     35.380455      7.823038
  Si     19.542250     33.843184      7.823079
  Si     19.541936     30.765184      7.823080
  O      15.468835     29.863599      8.410017
  O      15.469333     34.745599      8.410016
  O      18.134305     34.478327      8.410057
  O      18.133862     30.130327      8.410059
  O      17.031613     27.689440      8.413042
  O      19.697084     32.304168      8.413082
  O      16.877805     29.230455      6.167039
  O      16.878432     35.378455      6.167038
  O      19.542275     33.845183      6.167079
  O      19.541961     30.763183      6.167080
  Si     16.878720     38.458455      7.823036
  O      15.469776     39.093599      8.410014
  O      18.134803     39.360328      8.410056
  O      17.032554     36.919440      8.413039
  O      16.878746     38.460455      6.167036
  O      20.797834     29.863055      8.410100
  O      20.798332     34.745056      8.410099
  H       4.074657     24.986772      8.036591
  H       1.410409     29.602015      8.036749
  H       1.410409     35.007985      8.036749
  H       4.074657     39.623228      8.036591
  H       8.948181     22.173255      8.038302
  H       8.948181     42.436745      8.038302
  H      14.277762     22.173204      8.038282
  H      14.277762     42.436796      8.038282
  H      18.960557     24.876228      8.036406
  H      18.960557     39.733772      8.036406
  H      21.624717     29.491420      8.036583
  H      21.624717     35.118580      8.036583
  H      13.439542     34.270339      5.769119
  H      10.797025     34.918250      5.768396
  H       8.907707     32.965946      5.764995
  H       9.659454     30.342994      5.768880
  H      12.302591     29.689123      5.768039
  H      14.185604     31.644182      5.765523
  H      13.462084     39.536038      5.764682
  H      10.785535     38.904733      5.771228
  H       8.148315     39.509945      5.767000
  H       6.233174     37.582866      5.761805
  H       5.454157     34.939085      5.771525
  H       3.605664     32.968149      5.764105
  H       4.328125     30.345447      5.763320
  H       6.212126     28.349332      5.768168
  H       7.009467     25.757597      5.767547
  H       9.640122     25.065828      5.764885
  H      12.315008     25.708539      5.771926
  H      14.953438     25.092034      5.766100
  H      16.852417     27.026537      5.761162
  H      17.646302     29.666559      5.771227
  H      19.481946     31.641589      5.764828
  H      18.773558     34.273902      5.764988
  H      16.880313     36.261007      5.768941
  H      16.093098     38.860241      5.767230
126
Coordinates from ORCA-job /data/Seafile/al_surf/flower_ring_al E -11887.487971764145
  Si      3.556235     33.844845      7.822773
  Si      3.555934     30.766845      7.822794
  O       2.147288     34.479986      8.409747
  O       2.146863     30.131987      8.409777
  O       3.710076     32.305834      8.412786
  O       3.555260     33.846833      6.166773
  O       3.554959     30.764834      6.166794
  Si      6.219484     26.151585      7.822865
  Si      8.883333     24.614324      7.822915
  O       4.810413     25.516727      8.409848
  O       7.475387     25.249466      8.409890
  O       9.038175     23.075313      8.412928
  O       6.219508     26.149574      6.166865
  O       8.883359     24.616313      6.166915
  Si      6.219784     29.229585      7.822844
  Si      6.220385     35.381585      7.822802
  Si      8.884235     33.844324      7.822853
  Si      8.883934     30.766324      7.822874
  O       4.810837     29.864726      8.409819
  O       4.811314     34.746726      8.409785
  O       7.476288     34.479466      8.409828
  O       7.475863     30.131466      8.409857
  O       6.373625     27.690574      8.412857
  O       9.039076     32.305313      8.412866
  O       6.219809     29.231573      6.166844
  O       6.220410     35.379573      6.166802
  O       8.884260     33.846313      6.166853
  O       8.883959     30.764313      6.166874
  Si      6.220686     38.459584      7.822781
  Si      8.884836     39.996324      7.822810
  O       4.811739     39.094726      8.409755
  O       7.476765     39.361466      8.409794
  O       6.374527     36.920573      8.412794
  O       9.039978     41.535313      8.412802
  O       6.220711     38.461573      6.166781
  O       8.884861     39.994313      6.166810
  Si     11.548483     26.151064      7.822945
  Si     14.213333     24.613804      7.822996
  O      10.139413     25.516206      8.409928
  O      12.804387     25.248945      8.409970
  O      14.367175     23.074793      8.413008
  O      11.548508     26.149053      6.166945
  O      14.212359     24.615793      6.166996
  Si     11.548784     29.229064      7.822925
  Al     11.549385     35.381064      7.822883
  Si     14.214235     33.843804      7.822933
  Si     14.213934     30.765804      7.822954
  O      10.139837     29.864206      8.409899
  O      10.140314     34.746206      8.409866
  O      12.805288     34.478945      8.409908
  O      12.804863     30.130945      8.409938
  O      11.702625     27.690053      8.412937
  O      14.368076     32.304793      8.412946
  O      11.548809     29.231053      6.166925
  O      11.549410     35.379052      6.166883
  O      14.213260     33.845792      6.166933
  O      14.212959     30.763792      6.166954
  Si     11.549686     38.459064      7.822861
  Si     14.214836     39.995803      7.822891
  O      10.140739     39.094206      8.409836
  O      12.805765     39.360945      8.409874
  O      11.703527     36.920053      8.412874
  O      14.368978     41.534792      8.412882
  O      11.549711     38.461052      6.166861
  O      14.213861     39.993792      6.166891
  Si     16.877483     26.150544      7.823026
  O      15.468412     25.515685      8.410009
  O      18.133386     25.248424      8.410051
  O      16.877508     26.148532      6.167026
  Si     16.877784     29.228543      7.823005
  Si     16.878385     35.380543      7.822963
  Si     19.542235     33.843283      7.823013
  Si     19.541934     30.765283      7.823034
  O      15.468837     29.863685      8.409979
  O      15.469314     34.745685      8.409946
  O      18.134288     34.478425      8.409988
  O      18.133863     30.130425      8.410018
  O      17.031625     27.689532      8.413018
  O      19.697075     32.304272      8.413026
  O      16.877809     29.230532      6.167005
  O      16.878410     35.378532      6.166963
  O      19.542259     33.845272      6.167013
  O      19.541958     30.763272      6.167034
  Si     16.878686     38.458543      7.822941
  O      15.469739     39.093685      8.409916
  O      18.134765     39.360425      8.409954
  O      17.032527     36.919532      8.412954
  O      16.878711     38.460532      6.166941
  O      20.797837     29.863164      8.410059
  O      20.798314     34.745165      8.410026
  H       4.074657     24.986772      8.036591
  H       1.410409     29.602015      8.036749
  H       1.410409     35.007985      8.036749
  H       4.074657     39.623228      8.036591
  H       8.948181     22.173255      8.038302
  H       8.948181     42.436745      8.038302
  H      14.277762     22.173204      8.038282
  H      14.277762     42.436796      8.038282
  H      18.960557     24.876228      8.036406
  H      18.960557     39.733772      8.036406
  H      21.624717     29.491420      8.036583
  H      21.624717     35.118580      8.036583
  H      13.427252     34.273556      5.789432
  H      10.808066     34.919417      5.765092
  H       8.890021     32.967075      5.765919
  H       9.656947     30.338764      5.769275
  H      12.303637     29.688299      5.768765
  H      14.186532     31.646795      5.769427
  H      13.459161     39.536754      5.768093
  H      10.796315     38.920375      5.771563
  H       8.145883     39.514046      5.767142
  H       6.231948     37.582555      5.762321
  H       5.451773     34.943690      5.771722
  H       3.604820     32.968166      5.764089
  H       4.327981     30.345069      5.763416
  H       6.210519     28.349432      5.768144
  H       7.009304     25.757310      5.767526
  H       9.640273     25.065676      5.764905
  H      12.314888     25.708407      5.771904
  H      14.953735     25.091630      5.766054
  H      16.852440     27.026652      5.761208
  H      17.646960     29.665442      5.771261
  H      19.482162     31.641727      5.764843
  H      18.773439     34.274621      5.765566
  H      16.885620     36.260867      5.769078
  H      16.093327     38.861688      5.767810
126
Coordinates from ORCA-job /data/Seafile/al_surf/flower_ring_al E -11887.488395985687
  Si      3.556211     33.844829      7.822681
  Si      3.555929     30.766829      7.822734
  O       2.147261     34.479968      8.409652
  O       2.146863     30.131969      8.409727
  O       3.710062     32.305825      8.412710
  O       3.555233     33.846801      6.166681
  O       3.554950     30.764801      6.166734
  Si      6.219506     26.151585      7.822847
  Si      8.883366     24.614341      7.822908
  O       4.810440     25.516725      8.409840
  O       7.475416     25.249480      8.409879
  O       9.038218     23.075337      8.412936
  O       6.219527     26.149557      6.166847
  O       8.883387     24.616313      6.166908
  Si      6.219788     29.229585      7.822795
  Si      6.220352     35.381585      7.822689
  Si      8.884211     33.844341      7.822750
  Si      8.883929     30.766341      7.822803
  O       4.810839     29.864724      8.409766
  O       4.811286     34.746724      8.409682
  O       7.476262     34.479480      8.409721
  O       7.475863     30.131480      8.409796
  O       6.373640     27.690581      8.412823
  O       9.039062     32.305337      8.412779
  O       6.219810     29.231557      6.166795
  O       6.220373     35.379556      6.166690
  O       8.884233     33.846312      6.166750
  O       8.883950     30.764313      6.166803
  Si      6.220634     38.459585      7.822636
  Si      8.884775     39.996341      7.822644
  O       4.811684     39.094723      8.409607
  O       7.476709     39.361480      8.409637
  O       6.374485     36.920581      8.412665
  O       9.039909     41.535337      8.412620
  O       6.220655     38.461556      6.166636
  O       8.884796     39.994312      6.166644
  Si     11.548506     26.151097      7.822916
  Si     14.213365     24.613853      7.822977
  O      10.139440     25.516236      8.409909
  O      12.804416     25.248992      8.409948
  O      14.367218     23.074849      8.413005
  O      11.548527     26.149069      6.166916
  O      14.212387     24.615825      6.166977
  Si     11.548788     29.229097      7.822864
  Al     11.549352     35.381097      7.822759
  Si     14.214211     33.843853      7.822819
  Si     14.213929     30.765853      7.822872
  O      10.139839     29.864236      8.409835
  O      10.140286     34.746236      8.409751
  O      12.805261     34.478992      8.409790
  O      12.804863     30.130992      8.409865
  O      11.702639     27.690093      8.412892
  O      14.368062     32.304849      8.412848
  O      11.548810     29.231069      6.166864
  O      11.549373     35.379068      6.166759
  O      14.213232     33.845824      6.166819
  O      14.212950     30.763825      6.166872
  Si     11.549634     38.459097      7.822705
  Si     14.214775     39.995853      7.822713
  O      10.140684     39.094236      8.409676
  O      12.805709     39.360992      8.409706
  O      11.703485     36.920093      8.412734
  O      14.368908     41.534849      8.412689
  O      11.549655     38.461068      6.166705
  O      14.213796     39.993824      6.166713
  Si     16.877506     26.150609      7.822985
  O      15.468440     25.515748      8.409978
  O      18.133415     25.248503      8.410017
  O      16.877527     26.148581      6.166985
  Si     16.877788     29.228609      7.822933
  Si     16.878351     35.380609      7.822827
  Si     19.542210     33.843365      7.822888
  Si     19.541928     30.765365      7.822941
  O      15.468838     29.863748      8.409904
  O      15.469286     34.745748      8.409820
  O      18.134261     34.478504      8.409859
  O      18.133863     30.130504      8.409934
  O      17.031639     27.689605      8.412961
  O      19.697062     32.304361      8.412916
  O      16.877809     29.230580      6.166933
  O      16.878373     35.378580      6.166827
  O      19.542232     33.845336      6.166888
  O      19.541949     30.763336      6.166941
  Si     16.878634     38.458609      7.822774
  O      15.469684     39.093748      8.409745
  O      18.134708     39.360504      8.409775
  O      17.032485     36.919605      8.412803
  O      16.878655     38.460580      6.166774
  O      20.797838     29.863259      8.409972
  O      20.798285     34.745260      8.409889
  H       4.074657     24.986772      8.036591
  H       1.410409     29.602015      8.036749
  H       1.410409     35.007985      8.036749
  H       4.074657     39.623228      8.036591
  H       8.948181     22.173255      8.038302
  H       8.948181     42.436745      8.038302
  H      14.277762     22.173204      8.038282
  H      14.277762     42.436796      8.038282
  H      18.960557     24.876228      8.036406
  H      18.960557     39.733772      8.036406
  H      21.624717     29.491420      8.036583
  H      21.624717     35.118580      8.036583
  H      13.400977     34.279519      5.842606
  H      10.826676     34.915261      5.748087
  H       8.846755     32.968931      5.766173
  H       9.654171     30.333856      5.769691
  H      12.304796     29.688247      5.770533
  H      14.185320     31.652213      5.779491
  H      13.455023     39.534253      5.777043
  H      10.819139     38.954035      5.770915
  H       8.143661     39.517712      5.767142
  H       6.231297     37.581752      5.763697
  H       5.447135     34.951886      5.772031
  H       3.604292     32.968159      5.763992
  H       4.327977     30.344701      5.763687
  H       6.207209     28.349503      5.768060
  H       7.009168     25.757074      5.767451
  H       9.640515     25.065370      5.764955
  H      12.314724     25.708173      5.771827
  H      14.954180     25.090905      5.765929
  H      16.852151     27.026781      5.761338
  H      17.648177     29.663419      5.771331
  H      19.482160     31.641865      5.764893
  H      18.772600     34.275069      5.767122
  H      16.896165     36.260725      5.769193
  H      16.092756     38.862591      5.769255
126
Coordinates from ORCA-job /data/Seafile/al_surf/flower_ring_al E -11887.488452826668
  Si      3.556211     33.844797      7.822690
  Si      3.555924     30.766797      7.822747
  O       2.147263     34.479939      8.409662
  O       2.146858     30.131940      8.409742
  O       3.710061     32.305794      8.412720
  O       3.555230     33.846766      6.166690
  O       3.554943     30.764767      6.166747
  Si      6.219494     26.151549      7.822863
  Si      8.883351     24.614301      7.822922
  O       4.810428     25.516692      8.409858
  O       7.475403     25.249443      8.409894
  O       9.038201     23.075297      8.412952
  O       6.219513     26.149519      6.166863
  O       8.883370     24.616270      6.166922
  Si      6.219781     29.229549      7.822806
  Si      6.220354     35.381549      7.822692
  Si      8.884211     33.844301      7.822751
  Si      8.883924     30.766301      7.822808
  O       4.810833     29.864691      8.409778
  O       4.811288     34.746691      8.409687
  O       7.476263     34.479443      8.409723
  O       7.475858     30.131443      8.409804
  O       6.373630     27.690546      8.412836
  O       9.039061     32.305297      8.412782
  O       6.219800     29.231518      6.166806
  O       6.220373     35.379518      6.166692
  O       8.884230     33.846270      6.166751
  O       8.883943     30.764270      6.166808
  Si      6.220641     38.459549      7.822635
  Si      8.884785     39.996300      7.822637
  O       4.811693     39.094690      8.409606
  O       7.476719     39.361443      8.409632
  O       6.374491     36.920545      8.412665
  O       9.039922     41.535297      8.412610
  O       6.220661     38.461518      6.166635
  O       8.884804     39.994269      6.166637
  Si     11.548494     26.151052      7.822924
  Si     14.213351     24.613804      7.822983
  O      10.139428     25.516194      8.409920
  O      12.804403     25.248946      8.409955
  O      14.367201     23.074800      8.413013
  O      11.548513     26.149022      6.166924
  O      14.212370     24.615774      6.166983
  Si     11.548781     29.229052      7.822868
  Al     11.549354     35.381052      7.822754
  Si     14.214211     33.843804      7.822813
  Si     14.213924     30.765804      7.822870
  O      10.139833     29.864194      8.409840
  O      10.140288     34.746194      8.409749
  O      12.805263     34.478946      8.409785
  O      12.804858     30.130946      8.409865
  O      11.702630     27.690049      8.412898
  O      14.368060     32.304800      8.412843
  O      11.548800     29.231022      6.166868
  O      11.549373     35.379021      6.166754
  O      14.213230     33.845773      6.166813
  O      14.212943     30.763773      6.166870
  Si     11.549641     38.459052      7.822696
  Si     14.214784     39.995804      7.822698
  O      10.140694     39.094194      8.409668
  O      12.805718     39.360946      8.409694
  O      11.703491     36.920049      8.412727
  O      14.368921     41.534800      8.412671
  O      11.549660     38.461021      6.166696
  O      14.213803     39.993773      6.166698
  Si     16.877493     26.150556      7.822986
  O      15.468428     25.515698      8.409981
  O      18.133402     25.248449      8.410017
  O      16.877512     26.148525      6.166986
  Si     16.877780     29.228555      7.822929
  Si     16.878354     35.380555      7.822815
  Si     19.542210     33.843307      7.822874
  Si     19.541923     30.765307      7.822931
  O      15.468833     29.863698      8.409901
  O      15.469288     34.745698      8.409811
  O      18.134263     34.478449      8.409846
  O      18.133858     30.130449      8.409927
  O      17.031630     27.689552      8.412959
  O      19.697060     32.304304      8.412904
  O      16.877799     29.230525      6.166929
  O      16.878373     35.378525      6.166815
  O      19.542229     33.845276      6.166874
  O      19.541942     30.763276      6.166931
  Si     16.878641     38.458555      7.822758
  O      15.469693     39.093698      8.409730
  O      18.134718     39.360450      8.409755
  O      17.032491     36.919552      8.412788
  O      16.878660     38.460524      6.166758
  O      20.797832     29.863200      8.409962
  O      20.798287     34.745201      8.409872
  H       4.074657     24.986772      8.036591
  H       1.410409     29.602015      8.036749
  H       1.410409     35.007985      8.036749
  H       4.074657     39.623228      8.036591
  H       8.948181     22.173255      8.038302
  H       8.948181     42.436745      8.038302
  H      14.277762     22.173204      8.038282
  H      14.277762     42.436796      8.038282
  H      18.960557     24.876228      8.036406
  H      18.960557     39.733772      8.036406
  H      21.624717     29.491420      8.036583
  H      21.624717     35.118580      8.036583
  H      13.394382     34.280756      5.858599
  H      10.832333     34.910003      5.738000
  H       8.828761     32.969590      5.765267
  H       9.655930     30.336953      5.769499
  H      12.304433     29.689242      5.771058
  H      14.181536     31.653430      5.782718
  H      13.455827     39.530168      5.780116
  H      10.824634     38.962518      5.770223
  H       8.145747     39.514425      5.766941
  H       6.232452     37.581465      5.764216
  H       5.446457     34.952661      5.772157
  H       3.605212     32.968186      5.763937
  H       4.328176     30.344919      5.763816
  H       6.206528     28.349459      5.768055
  H       7.009291     25.757346      5.767429
  H       9.640515     25.065319      5.764988
  H      12.314754     25.708213      5.771810
  H      14.954148     25.090848      5.765902
  H      16.851815     27.026747      5.761403
  H      17.648274     29.663269      5.771374
  H      19.481807     31.641797      5.764915
  H      18.771867     34.274252      5.767691
  H      16.897843     36.260757      5.769176
  H      16.091854     38.861198      5.769678
126
Coordinates from ORCA-job /data/Seafile/al_surf/flower_ring_al E -11887.488454225015
  Si      3.556213     33.844782      7.822721
  Si      3.555918     30.766783      7.822779
  O       2.147268     34.479928      8.409694
  O       2.146851     30.131929      8.409776
  O       3.710059     32.305779      8.412751
  O       3.555231     33.846751      6.166721
  O       3.554935     30.764752      6.166779
  Si      6.219476     26.151527      7.822893
  Si      8.883328     24.614272      7.822950
  O       4.810408     25.516674      8.409891
  O       7.475383     25.249418      8.409923
  O       9.038175     23.075268      8.412980
  O       6.219492     26.149496      6.166893
  O       8.883346     24.616241      6.166950
  Si      6.219771     29.229527      7.822835
  Si      6.220360     35.381527      7.822719
  Si      8.884213     33.844272      7.822776
  Si      8.883918     30.766272      7.822834
  O       4.810825     29.864673      8.409809
  O       4.811293     34.746673      8.409717
  O       7.476268     34.479418      8.409749
  O       7.475851     30.131418      8.409832
  O       6.373617     27.690523      8.412866
  O       9.039059     32.305268      8.412807
  O       6.219788     29.231496      6.166835
  O       6.220378     35.379496      6.166719
  O       8.884230     33.846240      6.166776
  O       8.883935     30.764240      6.166834
  Si      6.220656     38.459527      7.822661
  Si      8.884803     39.996271      7.822659
  O       4.811710     39.094672      8.409634
  O       7.476736     39.361418      8.409657
  O       6.374502     36.920523      8.412692
  O       9.039945     41.535268      8.412632
  O       6.220673     38.461495      6.166661
  O       8.884820     39.994240      6.166659
  Si     11.548476     26.151016      7.822949
  Si     14.213328     24.613761      7.823005
  O      10.139409     25.516162      8.409946
  O      12.804383     25.248907      8.409978
  O      14.367175     23.074757      8.413035
  O      11.548493     26.148985      6.166949
  O      14.212346     24.615730      6.167005
  Si     11.548770     29.229016      7.822891
  Al     11.549360     35.381016      7.822775
  Si     14.214213     33.843761      7.822831
  Si     14.213918     30.765761      7.822889
  O      10.139825     29.864162      8.409864
  O      10.140293     34.746162      8.409772
  O      12.805268     34.478907      8.409805
  O      12.804851     30.130907      8.409887
  O      11.702617     27.690013      8.412921
  O      14.368059     32.304757      8.412862
  O      11.548788     29.230985      6.166891
  O      11.549377     35.378985      6.166775
  O      14.213230     33.845729      6.166831
  O      14.212935     30.763730      6.166890
  Si     11.549655     38.459016      7.822716
  Si     14.214803     39.995760      7.822715
  O      10.140710     39.094162      8.409690
  O      12.805736     39.360907      8.409712
  O      11.703502     36.920012      8.412747
  O      14.368945     41.534757      8.412687
  O      11.549673     38.460985      6.166716
  O      14.213820     39.993729      6.166715
  Si     16.877475     26.150505      7.823004
  O      15.468408     25.515652      8.410001
  O      18.133382     25.248396      8.410034
  O      16.877492     26.148474      6.167004
  Si     16.877770     29.228505      7.822946
  Si     16.878360     35.380505      7.822830
  Si     19.542213     33.843250      7.822886
  Si     19.541917     30.765250      7.822944
  O      15.468825     29.863652      8.409919
  O      15.469293     34.745651      8.409827
  O      18.134267     34.478396      8.409860
  O      18.133851     30.130396      8.409942
  O      17.031617     27.689502      8.412977
  O      19.697059     32.304246      8.412917
  O      16.877787     29.230474      6.166946
  O      16.878377     35.378474      6.166830
  O      19.542230     33.845219      6.166886
  O      19.541934     30.763219      6.166944
  Si     16.878655     38.458505      7.822771
  O      15.469710     39.093651      8.409745
  O      18.134735     39.360396      8.409767
  O      17.032502     36.919502      8.412802
  O      16.878672     38.460474      6.166771
  O      20.797824     29.863140      8.409974
  O      20.798293     34.745141      8.409882
  H       4.074657     24.986772      8.036591
  H       1.410409     29.602015      8.036749
  H       1.410409     35.007985      8.036749
  H       4.074657     39.623228      8.036591
  H       8.948181     22.173255      8.038302
  H       8.948181     42.436745      8.038302
  H      14.277762     22.173204      8.038282
  H      14.277762     42.436796      8.038282
  H      18.960557     24.876228      8.036406
  H      18.960557     39.733772      8.036406
  H      21.624717     29.491420      8.036583
  H      21.624717     35.118580      8.036583
  H      13.394279     34.281424      5.860604
  H      10.836494     34.905636      5.731931
  H       8.819117     32.970171      5.764345
  H       9.658621     30.341932      5.769231
  H      12.304222     29.689574      5.771163
  H      14.177982     31.653434      5.783414
  H      13.457216     39.527250      5.780985
  H      10.824488     38.962722      5.769851
  H       8.148367     39.510440      5.766732
  H       6.233355     37.581362      5.764426
  H       5.446872     34.951584      5.772271
  H       3.606198     32.968236      5.763910
  H       4.328327     30.345144      5.763894
  H       6.206702     28.349416      5.768087
  H       7.009438     25.757679      5.767435
  H       9.640471     25.065331      5.765023
  H      12.314812     25.708312      5.771823
  H      14.954023     25.090956      5.765917
  H      16.851584     27.026700      5.761442
  H      17.648061     29.663629      5.771409
  H      19.481572     31.641721      5.764925
  H      18.771401     34.273506      5.767880
  H      16.896881     36.260807      5.769166
  H      16.091289     38.860012      5.769731
126
Coordinates from ORCA-job /data/Seafile/al_surf/flower_ring_al E -11887.488477364030
  Si      3.556212     33.844776      7.822753
  Si      3.555910     30.766776      7.822816
  O       2.147269     34.479925      8.409728
  O       2.146843     30.131926      8.409817
  O       3.710056     32.305773      8.412786
  O       3.555227     33.846742      6.166753
  O       3.554925     30.764742      6.166816
  Si      6.219458     26.151515      7.822934
  Si      8.883308     24.614254      7.822989
  O       4.810391     25.516665      8.409934
  O       7.475365     25.249404      8.409963
  O       9.038153     23.075251      8.413021
  O       6.219473     26.149481      6.166934
  O       8.883323     24.616220      6.166989
  Si      6.219760     29.229515      7.822871
  Si      6.220362     35.381515      7.822746
  Si      8.884212     33.844254      7.822801
  Si      8.883910     30.766254      7.822864
  O       4.810817     29.864665      8.409846
  O       4.811295     34.746665      8.409746
  O       7.476269     34.479404      8.409775
  O       7.475843     30.131404      8.409864
  O       6.373604     27.690512      8.412904
  O       9.039056     32.305251      8.412834
  O       6.219775     29.231481      6.166871
  O       6.220377     35.379481      6.166746
  O       8.884227     33.846220      6.166801
  O       8.883925     30.764220      6.166864
  Si      6.220664     38.459514      7.822683
  Si      8.884815     39.996254      7.822675
  O       4.811721     39.094664      8.409657
  O       7.476747     39.361404      8.409675
  O       6.374508     36.920512      8.412716
  O       9.039960     41.535250      8.412644
  O       6.220679     38.461480      6.166682
  O       8.884829     39.994219      6.166675
  Si     11.548458     26.150993      7.822981
  Si     14.213308     24.613732      7.823036
  O      10.139391     25.516143      8.409982
  O      12.804365     25.248882      8.410011
  O      14.367152     23.074729      8.413069
  O      11.548473     26.148959      6.166981
  O      14.212323     24.615698      6.167036
  Si     11.548760     29.228993      7.822919
  Al     11.549362     35.380993      7.822793
  Si     14.214212     33.843732      7.822848
  Si     14.213910     30.765732      7.822911
  O      10.139817     29.864143      8.409893
  O      10.140295     34.746143      8.409794
  O      12.805269     34.478882      8.409823
  O      12.804843     30.130882      8.409912
  O      11.702604     27.689990      8.412952
  O      14.368056     32.304729      8.412881
  O      11.548775     29.230959      6.166919
  O      11.549377     35.378959      6.166793
  O      14.213226     33.845698      6.166848
  O      14.212925     30.763698      6.166911
  Si     11.549664     38.458993      7.822730
  Si     14.214814     39.995732      7.822722
  O      10.140721     39.094143      8.409704
  O      12.805747     39.360882      8.409723
  O      11.703508     36.919990      8.412763
  O      14.368960     41.534729      8.412692
  O      11.549679     38.460959      6.166730
  O      14.213829     39.993697      6.166722
  Si     16.877458     26.150471      7.823029
  O      15.468391     25.515621      8.410029
  O      18.133364     25.248360      8.410058
  O      16.877472     26.148437      6.167029
  Si     16.877759     29.228471      7.822966
  Si     16.878362     35.380471      7.822841
  Si     19.542211     33.843210      7.822896
  Si     19.541910     30.765210      7.822958
  O      15.468816     29.863621      8.409941
  O      15.469295     34.745621      8.409841
  O      18.134268     34.478360      8.409870
  O      18.133842     30.130360      8.409959
  O      17.031603     27.689468      8.412999
  O      19.697055     32.304207      8.412928
  O      16.877774     29.230437      6.166966
  O      16.878376     35.378437      6.166841
  O      19.542226     33.845176      6.166895
  O      19.541924     30.763176      6.166958
  Si     16.878664     38.458471      7.822777
  O      15.469721     39.093621      8.409752
  O      18.134747     39.360360      8.409770
  O      17.032508     36.919468      8.412810
  O      16.878678     38.460437      6.166777
  O      20.797816     29.863098      8.409988
  O      20.798294     34.745099      8.409888
  H       4.074657     24.986772      8.036591
  H       1.410409     29.602015      8.036749
  H       1.410409     35.007985      8.036749
  H       4.074657     39.623228      8.036591
  H       8.948181     22.173255      8.038302
  H       8.948181     42.436745      8.038302
  H      14.277762     22.173204      8.038282
  H      14.277762     42.436796      8.038282
  H      18.960557     24.876228      8.036406
  H      18.960557     39.733772      8.036406
  H      21.624717     29.491420      8.036583
  H      21.624717     35.118580      8.036583
  H      13.395790     34.282648      5.859425
  H      10.842860     34.900618      5.725695
  H       8.808478     32.971316      5.763359
  H       9.661595     30.347646      5.768983
  H      12.304590     29.688915      5.771207
  H      14.174689     31.653269      5.783560
  H      13.458090     39.525501      5.781400
  H      10.823377     38.961242      5.769646
  H       8.150690     39.507058      5.766498
  H       6.233586     37.581267      5.764604
  H       5.447351     34.950484      5.772422
  H       3.606983     32.968290      5.763890
  H       4.328391     30.345224      5.763972
  H       6.207089     28.349382      5.768137
  H       7.009547     25.757943      5.767453
  H       9.640436     25.065340      5.765069
  H      12.314855     25.708397      5.771850
  H      14.953911     25.091062      5.765947
  H      16.851449     27.026664      5.761477
  H      17.647776     29.664103      5.771445
  H      19.481500     31.641667      5.764927
  H      18.771103     34.273026      5.767993
  H      16.895494     36.260832      5.769171
  H      16.091021     38.859369      5.769695
126
Coordinates from ORCA-job /data/Seafile/al_surf/flower_ring_al E -11887.488510557774
  Si      3.556206     33.844771      7.822775
  Si      3.555903     30.766771      7.822846
  O       2.147264     34.479923      8.409750
  O       2.146836     30.131924      8.409851
  O       3.710050     32.305769      8.412812
  O       3.555218     33.846732      6.166775
  O       3.554914     30.764733      6.166846
  Si      6.219448     26.151508      7.822972
  Si      8.883297     24.614246      7.823027
  O       4.810381     25.516661      8.409976
  O       7.475355     25.249398      8.410002
  O       9.038142     23.075244      8.413063
  O       6.219460     26.149470      6.166972
  O       8.883309     24.616208      6.167027
  Si      6.219751     29.229508      7.822901
  Si      6.220357     35.381508      7.822759
  Si      8.884206     33.844246      7.822814
  Si      8.883902     30.766246      7.822885
  O       4.810809     29.864661      8.409876
  O       4.811290     34.746660      8.409763
  O       7.476264     34.479398      8.409789
  O       7.475836     30.131398      8.409889
  O       6.373595     27.690507      8.412938
  O       9.039050     32.305244      8.412851
  O       6.219763     29.231470      6.166901
  O       6.220369     35.379470      6.166759
  O       8.884218     33.846207      6.166814
  O       8.883914     30.764208      6.166885
  Si      6.220660     38.459508      7.822687
  Si      8.884812     39.996246      7.822671
  O       4.811718     39.094660      8.409662
  O       7.476745     39.361398      8.409675
  O       6.374504     36.920506      8.412724
  O       9.039959     41.535244      8.412636
  O       6.220672     38.461469      6.166687
  O       8.884824     39.994207      6.166671
  Si     11.548448     26.150983      7.823011
  Si     14.213297     24.613721      7.823065
  O      10.139381     25.516136      8.410015
  O      12.804355     25.248873      8.410041
  O      14.367141     23.074719      8.413102
  O      11.548460     26.148945      6.167011
  O      14.212309     24.615683      6.167065
  Si     11.548751     29.228983      7.822940
  Al     11.549357     35.380983      7.822798
  Si     14.214205     33.843721      7.822852
  Si     14.213902     30.765721      7.822924
  O      10.139809     29.864136      8.409915
  O      10.140290     34.746136      8.409802
  O      12.805264     34.478873      8.409828
  O      12.804835     30.130873      8.409928
  O      11.702595     27.689982      8.412976
  O      14.368050     32.304719      8.412889
  O      11.548763     29.230945      6.166940
  O      11.549369     35.378945      6.166798
  O      14.213218     33.845683      6.166852
  O      14.212914     30.763683      6.166924
  Si     11.549660     38.458983      7.822726
  Si     14.214812     39.995721      7.822709
  O      10.140719     39.094136      8.409701
  O      12.805745     39.360873      8.409714
  O      11.703504     36.919982      8.412763
  O      14.368959     41.534719      8.412675
  O      11.549672     38.460945      6.166726
  O      14.213823     39.993682      6.166710
  Si     16.877448     26.150459      7.823049
  O      15.468381     25.515611      8.410054
  O      18.133354     25.248348      8.410079
  O      16.877459     26.148420      6.167049
  Si     16.877751     29.228459      7.822978
  Si     16.878357     35.380458      7.822836
  Si     19.542205     33.843196      7.822891
  Si     19.541902     30.765196      7.822962
  O      15.468809     29.863611      8.409954
  O      15.469290     34.745611      8.409841
  O      18.134264     34.478348      8.409866
  O      18.133835     30.130348      8.409967
  O      17.031595     27.689457      8.413015
  O      19.697049     32.304194      8.412927
  O      16.877763     29.230420      6.166978
  O      16.878368     35.378420      6.166836
  O      19.542217     33.845158      6.166891
  O      19.541913     30.763158      6.166962
  Si     16.878660     38.458458      7.822764
  O      15.469718     39.093611      8.409740
  O      18.134744     39.360349      8.409752
  O      17.032504     36.919457      8.412801
  O      16.878672     38.460420      6.166764
  O      20.797808     29.863085      8.409992
  O      20.798289     34.745086      8.409879
  H       4.074657     24.986772      8.036591
  H       1.410409     29.602015      8.036749
  H       1.410409     35.007985      8.036749
  H       4.074657     39.623228      8.036591
  H       8.948181     22.173255      8.038302
  H       8.948181     42.436745      8.038302
  H      14.277762     22.173204      8.038282
  H      14.277762     42.436796      8.038282
  H      18.960557     24.876228      8.036406
  H      18.960557     39.733772      8.036406
  H      21.624717     29.491420      8.036583
  H      21.624717     35.118580      8.036583
  H      13.397967     34.284342      5.856744
  H      10.850907     34.895324      5.719604
  H       8.797394     32.972906      5.762442
  H       9.663975     30.352361      5.768832
  H      12.305533     29.687326      5.771235
  H      14.172739     31.653091      5.783368
  H      13.458035     39.525470      5.781458
  H      10.822196     38.959407      5.769607
  H       8.151695     39.505734      5.766282
  H       6.232903     37.581174      5.764745
  H       5.447526     34.950031      5.772567
  H       3.607262     32.968314      5.763879
  H       4.328341     30.345105      5.764035
  H       6.207474     28.349357      5.768185
  H       7.009568     25.758016      5.767478
  H       9.640439     25.065306      5.765114
  H      12.314847     25.708396      5.771879
  H      14.953871     25.091088      5.765977
  H      16.851483     27.026649      5.761496
  H      17.647583     29.664409      5.771460
  H      19.481625     31.641653      5.764921
  H      18.771059     34.272996      5.768027
  H      16.894405     36.260829      5.769174
  H      16.091131     38.859499      5.769607
126
Coordinates from ORCA-job /data/Seafile/al_surf/flower_ring_al E -11887.488528503771
  Si      3.556200     33.844766      7.822772
  Si      3.555900     30.766766      7.822849
  O       2.147258     34.479918      8.409747
  O       2.146834     30.131919      8.409855
  O       3.710046     32.305766      8.412812
  O       3.555211     33.846725      6.166772
  O       3.554911     30.764726      6.166849
  Si      6.219450     26.151507      7.822980
  Si      8.883301     24.614247      7.823035
  O       4.810384     25.516659      8.409987
  O       7.475359     25.249399      8.410010
  O       9.038148     23.075247      8.413074
  O       6.219461     26.149466      6.166980
  O       8.883312     24.616206      6.167035
  Si      6.219750     29.229507      7.822904
  Si      6.220350     35.381507      7.822751
  Si      8.884200     33.844247      7.822807
  Si      8.883900     30.766247      7.822883
  O       4.810808     29.864659      8.409879
  O       4.811284     34.746659      8.409758
  O       7.476258     34.479399      8.409782
  O       7.475834     30.131399      8.409890
  O       6.373596     27.690506      8.412943
  O       9.039046     32.305247      8.412846
  O       6.219761     29.231466      6.166904
  O       6.220360     35.379465      6.166751
  O       8.884211     33.846206      6.166807
  O       8.883910     30.764206      6.166883
  Si      6.220649     38.459506      7.822675
  Si      8.884799     39.996247      7.822654
  O       4.811707     39.094658      8.409650
  O       7.476734     39.361399      8.409660
  O       6.374496     36.920506      8.412714
  O       9.039946     41.535247      8.412616
  O       6.220660     38.461465      6.166675
  O       8.884810     39.994206      6.166654
  Si     11.548450     26.150988      7.823015
  Si     14.213301     24.613728      7.823070
  O      10.139385     25.516139      8.410021
  O      12.804359     25.248880      8.410045
  O      14.367147     23.074728      8.413109
  O      11.548461     26.148947      6.167015
  O      14.212312     24.615687      6.167070
  Si     11.548750     29.228988      7.822939
  Al     11.549349     35.380987      7.822786
  Si     14.214200     33.843728      7.822842
  Si     14.213900     30.765728      7.822918
  O      10.139808     29.864139      8.409914
  O      10.140284     34.746139      8.409793
  O      12.805258     34.478880      8.409817
  O      12.804834     30.130880      8.409925
  O      11.702596     27.689987      8.412978
  O      14.368046     32.304728      8.412881
  O      11.548761     29.230947      6.166939
  O      11.549360     35.378946      6.166786
  O      14.213210     33.845687      6.166841
  O      14.212910     30.763687      6.166918
  Si     11.549649     38.458987      7.822709
  Si     14.214799     39.995728      7.822688
  O      10.140707     39.094139      8.409684
  O      12.805733     39.360880      8.409695
  O      11.703496     36.919987      8.412749
  O      14.368946     41.534727      8.412651
  O      11.549660     38.460946      6.166709
  O      14.213810     39.993686      6.166688
  Si     16.877450     26.150469      7.823049
  O      15.468384     25.515620      8.410056
  O      18.133358     25.248360      8.410080
  O      16.877460     26.148428      6.167049
  Si     16.877750     29.228468      7.822973
  Si     16.878349     35.380468      7.822820
  Si     19.542199     33.843209      7.822876
  Si     19.541899     30.765209      7.822952
  O      15.468808     29.863620      8.409948
  O      15.469284     34.745620      8.409827
  O      18.134257     34.478361      8.409851
  O      18.133834     30.130361      8.409959
  O      17.031596     27.689468      8.413012
  O      19.697045     32.304208      8.412915
  O      16.877761     29.230427      6.166973
  O      16.878360     35.378427      6.166820
  O      19.542210     33.845168      6.166876
  O      19.541910     30.763168      6.166952
  Si     16.878649     38.458468      7.822744
  O      15.469707     39.093620      8.409719
  O      18.134733     39.360361      8.409729
  O      17.032495     36.919468      8.412783
  O      16.878660     38.460427      6.166744
  O      20.797807     29.863100      8.409983
  O      20.798283     34.745101      8.409861
  H       4.074657     24.986772      8.036591
  H       1.410409     29.602015      8.036749
  H       1.410409     35.007985      8.036749
  H       4.074657     39.623228      8.036591
  H       8.948181     22.173255      8.038302
  H       8.948181     42.436745      8.038302
  H      14.277762     22.173204      8.038282
  H      14.277762     42.436796      8.038282
  H      18.960557     24.876228      8.036406
  H      18.960557     39.733772      8.036406
  H      21.624717     29.491420      8.036583
  H      21.624717     35.118580      8.036583
  H      13.399099     34.285241      5.855009
  H      10.855248     34.892750      5.717206
  H       8.792855     32.973726      5.762144
  H       9.664240     30.352922      5.768870
  H      12.306221     29.686199      5.771245
  H      14.173237     31.653020      5.783060
  H      13.457360     39.526724      5.781193
  H      10.821808     38.958690      5.769696
  H       8.150810     39.507129      5.766231
  H       6.232116     37.581148      5.764760
  H       5.447281     34.950477      5.772603
  H       3.606952     32.968293      5.763882
  H       4.328237     30.344911      5.764041
  H       6.207591     28.349354      5.768195
  H       7.009497     25.757865      5.767489
  H       9.640463     25.065272      5.765125
  H      12.314799     25.708313      5.771887
  H      14.953909     25.091039      5.765983
  H      16.851624     27.026655      5.761485
  H      17.647597     29.664366      5.771445
  H      19.481778     31.641673      5.764909
  H      18.771255     34.273343      5.767972
  H      16.894411     36.260808      5.769162
  H      16.091410     38.860042      5.769539
126
Coordinates from ORCA-job /data/Seafile/al_surf/flower_ring_al E -11887.488497798686
  Si      3.556198     33.844764      7.822764
  Si      3.555900     30.766765      7.822841
  O       2.147255     34.479915      8.409739
  O       2.146835     30.131916      8.409848
  O       3.710045     32.305764      8.412803
  O       3.555208     33.846723      6.166764
  O       3.554911     30.764723      6.166841
  Si      6.219454     26.151507      7.822973
  Si      8.883306     24.614250      7.823028
  O       4.810389     25.516658      8.409980
  O       7.475364     25.249400      8.410004
  O       9.038154     23.075249      8.413067
  O       6.219465     26.149466      6.166973
  O       8.883317     24.616209      6.167028
  Si      6.219752     29.229507      7.822896
  Si      6.220346     35.381507      7.822742
  Si      8.884197     33.844250      7.822798
  Si      8.883900     30.766250      7.822875
  O       4.810809     29.864658      8.409871
  O       4.811281     34.746658      8.409749
  O       7.476255     34.479400      8.409773
  O       7.475835     30.131400      8.409882
  O       6.373599     27.690507      8.412936
  O       9.039045     32.305249      8.412837
  O       6.219762     29.231466      6.166896
  O       6.220357     35.379465      6.166742
  O       8.884208     33.846208      6.166798
  O       8.883911     30.764208      6.166875
  Si      6.220643     38.459507      7.822665
  Si      8.884792     39.996249      7.822643
  O       4.811701     39.094657      8.409640
  O       7.476727     39.361400      8.409650
  O       6.374491     36.920507      8.412704
  O       9.039937     41.535249      8.412605
  O       6.220654     38.461465      6.166665
  O       8.884802     39.994208      6.166643
  Si     11.548454     26.150992      7.823007
  Si     14.213306     24.613735      7.823063
  O      10.139389     25.516143      8.410014
  O      12.804363     25.248886      8.410038
  O      14.367154     23.074735      8.413102
  O      11.548465     26.148951      6.167007
  O      14.212317     24.615694      6.167062
  Si     11.548752     29.228992      7.822930
  Al     11.549346     35.380992      7.822776
  Si     14.214197     33.843735      7.822832
  Si     14.213900     30.765735      7.822909
  O      10.139809     29.864143      8.409906
  O      10.140281     34.746143      8.409783
  O      12.805255     34.478886      8.409807
  O      12.804835     30.130886      8.409916
  O      11.702599     27.689992      8.412970
  O      14.368045     32.304735      8.412871
  O      11.548762     29.230951      6.166930
  O      11.549356     35.378951      6.166776
  O      14.213208     33.845693      6.166832
  O      14.212910     30.763694      6.166909
  Si     11.549643     38.458992      7.822699
  Si     14.214792     39.995735      7.822677
  O      10.140701     39.094143      8.409674
  O      12.805727     39.360886      8.409684
  O      11.703491     36.919992      8.412739
  O      14.368937     41.534735      8.412639
  O      11.549654     38.460950      6.166699
  O      14.213802     39.993693      6.166677
  Si     16.877454     26.150478      7.823041
  O      15.468389     25.515628      8.410048
  O      18.133363     25.248371      8.410072
  O      16.877464     26.148436      6.167041
  Si     16.877751     29.228478      7.822964
  Si     16.878346     35.380477      7.822810
  Si     19.542197     33.843220      7.822866
  Si     19.541900     30.765220      7.822943
  O      15.468809     29.863628      8.409940
  O      15.469281     34.745628      8.409817
  O      18.134255     34.478371      8.409841
  O      18.133835     30.130371      8.409950
  O      17.031599     27.689477      8.413004
  O      19.697045     32.304220      8.412905
  O      16.877762     29.230436      6.166964
  O      16.878356     35.378436      6.166810
  O      19.542208     33.845179      6.166866
  O      19.541910     30.763178      6.166943
  Si     16.878643     38.458477      7.822733
  O      15.469701     39.093628      8.409708
  O      18.134726     39.360371      8.409718
  O      17.032491     36.919477      8.412772
  O      16.878654     38.460436      6.166733
  O      20.797808     29.863113      8.409973
  O      20.798280     34.745114      8.409851
  H       4.074657     24.986772      8.036591
  H       1.410409     29.602015      8.036749
  H       1.410409     35.007985      8.036749
  H       4.074657     39.623228      8.036591
  H       8.948181     22.173255      8.038302
  H       8.948181     42.436745      8.038302
  H      14.277762     22.173204      8.038282
  H      14.277762     42.436796      8.038282
  H      18.960557     24.876228      8.036406
  H      18.960557     39.733772      8.036406
  H      21.624717     29.491420      8.036583
  H      21.624717     35.118580      8.036583
  H      13.399228     34.285312      5.854632
  H      10.856032     34.892182      5.717216
  H       8.793167     32.973742      5.762199
  H       9.663580     30.351607      5.768956
  H      12.306298     29.686089      5.771239
  H      14.174301     31.653003      5.782863
  H      13.457009     39.527505      5.780931
  H      10.821852     38.958722      5.769769
  H       8.149808     39.508610      5.766274
  H       6.231947     37.581165      5.764713
  H       5.447050     34.950938      5.772575
  H       3.606649     32.968270      5.763887
  H       4.328192     30.344841      5.764020
  H       6.207547     28.349359      5.768184
  H       7.009433     25.757722      5.767489
  H       9.640471     25.065269      5.765118
  H      12.314771     25.708258      5.771883
  H      14.953939     25.091007      5.765977
  H      16.851704     27.026661      5.761468
  H      17.647683     29.664207      5.771424
  H      19.481809     31.641687      5.764900
  H      18.771410     34.273584      5.767909
  H      16.894820     36.260794      5.769147
  H      16.091527     38.860285      5.769512
