69
Coordinates from ORCA-job amp_dimer_geom E -2983.672342674558
  O          31.02508278279798     42.08383697277050     64.24685774715702
  P          30.42181670120620     40.80725433464063     64.73056007317575
  C          32.70839412031953     39.50682015885915     64.99192639240992
  H          33.52334011182458     40.21794973855003     65.16127503404159
  H          32.57732739189327     39.38845100621890     63.91181776782335
  O          31.52121213839920     39.96967513514735     65.59923888915992
  C          33.08550948484235     38.16439089703327     65.56076237282576
  H          33.92409852751352     37.76377859276774     64.97957105890953
  O          33.48553379559911     38.29599874459612     66.93055026134726
  C          31.95712402880617     37.14432094876242     65.59677683675658
  H          31.02368276626233     37.64695513519403     65.85869547217764
  O          31.83366097211690     36.45766744558027     64.37144446081717
  C          32.38887319873508     36.22560967739600     66.73111284022906
  H          31.55582333767854     35.68080103959734     67.18148986907799
  O          33.40971084053855     35.34967272514116     66.31369533620567
  H          33.24102361577700     35.13091066990185     65.38789297509352
  C          32.99699668817615     37.23205992036236     67.69675093328607
  H          33.80664289068315     36.77612927856577     68.27194968166748
  N          30.24041478876877     36.15860811173962     71.86652107263602
  C          31.05992187208420     35.41366474974360     71.12506845267124
  H          31.19001592342990     34.38791895868868     71.45980810637981
  N          31.73280329622427     35.76126206123215     70.03581683663528
  C          31.50050496191325     37.03258808730146     69.70256949868013
  C          30.67496025107172     37.92744287483099     70.37336515126832
  C          30.02560173758155     37.43578073316828     71.51748717764826
  N          29.23053115894953     38.19502730598423     72.28390005960789
  H          28.66746076090642     37.74649696917434     72.98706999786054
  H          28.93422478785712     39.09548872178815     71.94812752767440
  N          30.67916613814667     39.15280840478884     69.74859820628498
  C          31.48438637039514     38.99661499766756     68.72864110922016
  H          31.72337082684994     39.74563523234100     67.98984193528666
  N          32.01288318804932     37.73680974803511     68.64749062784553
  O          30.20286626139755     39.88597084345342     63.44113521489470
  H          29.93249455222060     38.94473924165463     63.63554120038075
  O          29.21222555529507     40.83945533394660     65.60460749335773
  P          30.34667386261889     36.14846334954088     63.78302078380953
  C          30.10487635370448     33.89418619547873     65.13707334164145
  H          31.18060064672260     33.85186433197273     65.33115061764033
  H          29.89371156870714     33.28606886556583     64.25236617730427
  O          29.68391323651259     35.23124708261133     64.93152990560387
  C          29.36022667368302     33.31282283162647     66.30710431773201
  H          29.68559458536825     32.26881451845585     66.41219749027987
  O          29.67549651802866     34.03327296619162     67.50416941630849
  C          27.83623200413117     33.36078403944101     66.21296046651271
  H          27.53105559049002     34.31608979380751     65.77966114744447
  O          27.27230799829809     32.34235230944706     65.44015881440252
  H          27.23405570057499     31.55392225720017     65.99901445397242
  C          27.43705395017434     33.31814275836093     67.68873203245536
  H          26.45428361396724     33.74903893841414     67.87503121473921
  O          27.39161569436378     31.99381998065275     68.16848099836572
  H          28.28218290918417     31.63185877426359     68.24621200874599
  C          28.54909146900911     34.14660276822985     68.33367648641416
  H          28.77527744580728     33.77975292650996     69.33841730424530
  N          26.03792740162042     37.59823403651800     71.14644638538424
  C          26.24998878690034     36.29386968817661     71.31920473751276
  H          25.80304335115018     35.86267607361129     72.21113475134084
  N          26.93192209261873     35.45732394516100     70.54738233067187
  C          27.43555502355206     36.07930138382051     69.47961904670225
  C          27.29374926067843     37.42437841392560     69.16115196141267
  C          26.56158095758122     38.20574793665563     70.07068051456865
  N          26.36773441575306     39.51759098917517     69.90447672242885
  H          25.86807618921774     40.04204958150684     70.60169261888709
  H          26.78734451502067     40.00271070699475     69.13114570290934
  N          27.93202498728385     37.71388076147677     67.97757903611604
  C          28.44602828922266     36.57349232431353     67.59572064883892
  H          29.01835625340165     36.40475967824538     66.69647552900094
  N          28.18578712735363     35.54770946880895     68.46564052938749
  O          30.56299039582047     35.38667840555678     62.53299122883791
  O          29.52958930716339     37.39909412165328     63.81209460787776
