69
Coordinates from ORCA-job amp_dimer_geom E -2983.672354045928
  O      31.022434     42.083726     64.248546
  P      30.420018     40.806179     64.730772
  C      32.707356     39.507132     64.991895
  H      33.521655     40.218904     65.161658
  H      32.576549     39.389093     63.911730
  O      31.519680     39.968727     65.599287
  C      33.085612     38.164820     65.560203
  H      33.924478     37.765161     64.978735
  O      33.485828     38.296196     66.929946
  C      31.958178     37.143675     65.596054
  H      31.024371     37.645310     65.858597
  O      31.834898     36.457585     64.370377
  C      32.391354     36.224750     66.729696
  H      31.559120     35.678675     67.180022
  O      33.413157     35.350296     66.311521
  H      33.244162     35.131214     65.385868
  C      32.998581     37.231380     67.695733
  H      33.808789     36.776029     68.270598
  N      30.243079     36.152160     71.864695
  C      31.063472     35.408627     71.122781
  H      31.194970     34.382884     71.456985
  N      31.736139     35.757814     70.033919
  C      31.502402     37.029071     69.701436
  C      30.675763     37.922505     70.372766
  C      30.026865     37.429326     71.516485
  N      29.230917     38.187191     72.283321
  H      28.668456     37.737657     72.986326
  H      28.933581     39.087488     71.948032
  N      30.678617     39.148306     69.748794
  C      31.484092     38.993702     68.728800
  H      31.722232     39.743464     67.990475
  N      32.013993     37.734540     68.646833
  O      30.202513     39.885884     63.440342
  H      29.932783     38.944304     63.633754
  O      29.209948     40.836581     65.604216
  P      30.347958     36.147761     63.782217
  C      30.106390     33.895220     65.139307
  H      31.182024     33.853479     65.334038
  H      29.895932     33.285852     64.255290
  O      29.685121     35.231835     64.931698
  C      29.361304     33.315148     66.309706
  H      29.687287     32.271497     66.416438
  O      29.675354     34.037401     67.506018
  C      27.837328     33.362031     66.214594
  H      27.531849     34.316662     65.780020
  O      27.274608     32.342376     65.442561
  H      27.236108     31.554655     66.002411
  C      27.437303     33.320764     67.690177
  H      26.454211     33.751388     67.875400
  O      27.392217     31.996906     68.171280
  H      28.282930     31.635513     68.250072
  C      28.548474     34.150508     68.334939
  H      28.774591     33.784490     69.340003
  N      26.034358     37.601476     71.145806
  C      26.247542     36.297382     71.319243
  H      25.801127     35.866303     72.211497
  N      26.930218     35.461016     70.547875
  C      27.433319     36.082863     69.479773
  C      27.290337     37.427647     69.160642
  C      26.557517     38.208877     70.069742
  N      26.362645     39.520499     69.902940
  H      25.862777     40.044929     70.600023
  H      26.782117     40.005613     69.129540
  N      27.928435     37.717112     67.976962
  C      28.443254     36.576938     67.595558
  H      29.015730     36.408256     66.696412
  N      28.183960     35.551382     68.466063
  O      30.564398     35.384625     62.533037
  O      29.530867     37.398433     63.809869
69
Coordinates from ORCA-job amp_dimer_geom E -2983.672342674558
  O      31.025083     42.083837     64.246858
  P      30.421817     40.807254     64.730560
  C      32.708394     39.506820     64.991926
  H      33.523340     40.217950     65.161275
  H      32.577327     39.388451     63.911818
  O      31.521212     39.969675     65.599239
  C      33.085509     38.164391     65.560762
  H      33.924099     37.763779     64.979571
  O      33.485534     38.295999     66.930550
  C      31.957124     37.144321     65.596777
  H      31.023683     37.646955     65.858695
  O      31.833661     36.457667     64.371444
  C      32.388873     36.225610     66.731113
  H      31.555823     35.680801     67.181490
  O      33.409711     35.349673     66.313695
  H      33.241024     35.130911     65.387893
  C      32.996997     37.232060     67.696751
  H      33.806643     36.776129     68.271950
  N      30.240415     36.158608     71.866521
  C      31.059922     35.413665     71.125068
  H      31.190016     34.387919     71.459808
  N      31.732803     35.761262     70.035817
  C      31.500505     37.032588     69.702569
  C      30.674960     37.927443     70.373365
  C      30.025602     37.435781     71.517487
  N      29.230531     38.195027     72.283900
  H      28.667461     37.746497     72.987070
  H      28.934225     39.095489     71.948128
  N      30.679166     39.152808     69.748598
  C      31.484386     38.996615     68.728641
  H      31.723371     39.745635     67.989842
  N      32.012883     37.736810     68.647491
  O      30.202866     39.885971     63.441135
  H      29.932495     38.944739     63.635541
  O      29.212226     40.839455     65.604607
  P      30.346674     36.148463     63.783021
  C      30.104876     33.894186     65.137073
  H      31.180601     33.851864     65.331151
  H      29.893712     33.286069     64.252366
  O      29.683913     35.231247     64.931530
  C      29.360227     33.312823     66.307104
  H      29.685595     32.268815     66.412197
  O      29.675497     34.033273     67.504169
  C      27.836232     33.360784     66.212960
  H      27.531056     34.316090     65.779661
  O      27.272308     32.342352     65.440159
  H      27.234056     31.553922     65.999014
  C      27.437054     33.318143     67.688732
  H      26.454284     33.749039     67.875031
  O      27.391616     31.993820     68.168481
  H      28.282183     31.631859     68.246212
  C      28.549091     34.146603     68.333676
  H      28.775277     33.779753     69.338417
  N      26.037927     37.598234     71.146446
  C      26.249989     36.293870     71.319205
  H      25.803043     35.862676     72.211135
  N      26.931922     35.457324     70.547382
  C      27.435555     36.079301     69.479619
  C      27.293749     37.424378     69.161152
  C      26.561581     38.205748     70.070681
  N      26.367734     39.517591     69.904477
  H      25.868076     40.042050     70.601693
  H      26.787345     40.002711     69.131146
  N      27.932025     37.713881     67.977579
  C      28.446028     36.573492     67.595721
  H      29.018356     36.404760     66.696476
  N      28.185787     35.547709     68.465641
  O      30.562990     35.386678     62.532991
  O      29.529589     37.399094     63.812095
