160
Coordinates from ORCA-job /data/Seafile/cmp/frames/frame15/dry/cmp_frame15_dry E -13391.945462506017
  Si          3.55228936183943     33.97611011529965      7.83335818871845
  Si          3.41906301559803     30.88798660309032      7.84593275304727
  O           2.33029615849095     34.93966407504798      8.32626039385901
  O           2.01931293554507     30.25944760149801      8.40024504791760
  O           3.44678250558065     32.43937455092140      8.36825795850183
  O           3.64396530498096     33.91237223555198      6.18859748908484
  O           3.46022208630975     30.95723830600293      6.19862846402589
  Si          6.11272735237912     26.20432611981182      7.81998303693053
  Si          8.74166071750548     24.55775088295982      7.83387004606138
  O           4.68743628220263     25.64766291236208      8.38161696025004
  O           7.40033148907097     25.34218820966901      8.34634356553342
  O           8.62443698349054     23.02206507809233      8.37681296000967
  O           6.16190727021089     26.18660537686837      6.17260918542002
  O           8.72310586815454     24.63205823052747      6.18833683261024
  Si          6.04542446083009     29.28345813811459      7.72014590960292
  Si          6.20123418322242     35.54090236608549      7.80748449156514
  Si          8.92913760024090     33.91618968188549      7.80163650771446
  Si          8.84031430379739     30.85119430975710      7.74521961800546
  O           4.74941733838164     30.07387936271365      8.32712532660464
  O           4.92162931230737     34.69647314664056      8.36388873005774
  O           7.59404759546425     34.78414718997180      8.14776203416460
  O           7.40397762395846     30.12134044248784      7.96436272215936
  O           6.19691511145091     27.76348455461027      8.29631010037174
  O           8.81224382156745     32.38191914627931      8.30436074876789
  O           5.71464470891974     29.16564022781004      6.10663691335475
  O           6.00842325087631     35.72218257931399      6.18032569669920
  O           9.13836896524965     33.85999011942094      6.16214905002214
  O           9.04882894906529     31.05355239226074      6.10778094623504
  Si          6.24734377180378     38.61957208283527      7.85235276255457
  Si          8.98505701850172     40.06119861823310      7.84127484523338
  O           4.97917530768328     39.51032483472314      8.36494274392770
  O           7.58781171604616     39.40661023508357      8.37361376293570
  O           6.22841240531735     37.07403914992625      8.38397184361805
  O           9.24398661358497     41.58089516211100      8.37234452529861
  O           6.35405063446458     38.57338205002986      6.20944229879463
  O           8.96666159862370     39.98330529874296      6.19590286472927
  Si         11.44256593053207     26.03926548851843      7.74647351065768
  Si         14.13074820178930     24.54012162638088      7.83121415955440
  O          10.09597515652587     25.32709122784217      8.34142412838199
  O          12.81349515284524     25.36598395067422      8.32333076708858
  O          13.92289309734689     23.01153619652403      8.36046049392503
  O          11.38422016803727     25.73296781173836      6.12716763853583
  O          14.17270940893134     24.60749308386210      6.18478077870305
  Si         11.47643051455207     29.22311697402264      7.71120545270704
  Si         11.61640150798314     35.37283497102361      7.73731477059407
  Si         14.24831364641371     33.77592963557584      7.75076292867151
  Si         14.16627451559091     30.70500593944298      7.74470585950423
  O          10.11323669884176     29.94722042877658      8.20677670192904
  O          10.25928188173283     34.71273777320861      8.35147000394573
  O          12.98331257394274     34.66410179000909      8.29644277373719
  O          12.84948060478466     29.91293749571758      8.28690717598426
  O          11.42886353727561     27.62967645500237      8.04067880385583
  O          14.28307013366656     32.24067947180355      8.29892999352696
  O          11.49813828510831     29.43716514281037      6.07558295265018
  O          11.61119239216244     35.13883225341570      6.11295411763586
  O          14.06064589935123     33.65379986753877      6.11821033478205
  O          14.01280191691117     30.79714763416048      6.10798153213025
  Si         11.66105697605962     38.55360491201651      7.77350760070105
  Si         14.35370178149815     40.05092344528202      7.86159913518743
  O          10.28526041835562     39.20720640918731      8.35044708249936
  O          13.00478538221495     39.27525774092248      8.37054305512035
  O          11.70176726739654     36.96279430002576      8.09303234176375
  O          14.46218384621041     41.57398447796852      8.43540267347450
  O          11.72345515408824     38.84326088082431      6.15408598998534
  O          14.37002859014460     39.99604559192672      6.21696058206429
  Si         16.85765661368290     26.00820683188127      7.87444586788241
  O          15.50864883780936     25.23325163286630      8.37322544059644
  O          18.13099057671271     25.16143663180153      8.44418534880512
  O          16.80858479777392     26.02714495408408      6.22851358596255
  Si         16.89688355164707     29.09017250691005      7.79832619785240
  Si         17.02362717538760     35.33885291841394      7.75462933498430
  Si         19.66450612204782     33.75137285936350      7.84547673362233
  Si         19.54883484120970     30.65386242583053      7.85089927493716
  O          15.50503972387919     29.85745665519108      8.12463246022092
  O          15.65904062999860     34.52574766849379      8.07839538769651
  O          18.32062413302512     34.54270456516379      8.34994224061885
  O          18.16286562759892     29.95578311895877      8.35839860147984
  O          16.86176957452695     27.56482206433940      8.38417129494165
  O          19.66293021541600     32.20273725048861      8.36809817038572
  O          17.10575044344454     28.90118870044990      6.17429376717019
  O          17.29719238324302     35.42909864043891      6.13374504005529
  O          19.60929419272981     33.69046841277101      6.20114415063895
  O          19.50440587000949     30.69845084251148      6.20418787247353
  Si         16.98339387980921     38.41764285020334      7.82346243185931
  O          15.69684183838863     39.26513573882971      8.36782557706777
  O          18.41400286776441     39.00014566343416      8.34830342974720
  O          16.92270787608420     36.86504246344492      8.33028561237085
  O          16.89821110333841     38.40302879867856      6.17918361669826
  O          20.75504286412312     29.70435963807450      8.39776498250860
  O          21.04596752917588     34.42789490983245      8.39220630878449
  H           4.07465740273706     24.98677201167916      8.03659115323437
  H           1.41040900402289     29.60201498984164      8.03674925666464
  H           1.41040903032924     35.00798498916298      8.03674926308847
  H           4.07465743305342     39.62322797379370      8.03659115969869
  H           8.94818084489069     22.17325472780326      8.03830169052344
  H           8.94818087592487     42.43674529490736      8.03830167958423
  H          14.27776169785477     22.17320386310528      8.03828218829257
  H          14.27776171142878     42.43679614178365      8.03828219322676
  H          18.96055658770947     24.87622777449677      8.03640577887396
  H          18.96055653501112     39.73377223052253      8.03640577822635
  H          21.62471723091529     29.49141993277791      8.03658340870186
  H          21.62471722559652     35.11858007022031      8.03658341002408
  H          13.28752007427890     34.14632852564111      5.79585247810452
  H          10.77582377494431     34.72328747433084      5.82253400145564
  H           9.08665344162874     32.93889401822117      5.84370909252541
  H           9.78838220690534     30.52578868360336      5.77016459401197
  H          12.32659558685864     29.83198163135249      5.76159135844641
  H          14.05653540347628     31.71309498741506      5.78760361740095
  H          13.52958861533794     39.67768355588520      5.84942258411384
  H          10.87735062421350     39.12428935030728      5.77849404334416
  H           8.16911957806561     39.54814116637948      5.85673225209564
  H           6.21526200226976     37.67837160236432      5.85769491526452
  H           5.34514750997101     35.12833645329911      5.80171154434653
  H           3.60866691740247     33.00281701413824      5.85418191005833
  H           4.13767254787019     30.36890342395618      5.82692871323457
  H           5.90338249412938     28.29519812605062      5.73265200522447
  H           6.93629271416399     25.71665124511173      5.82976287059554
  H           9.56488803837815     24.94957270668551      5.82407066257707
  H          12.23036800811992     25.45539322513948      5.75237360760969
  H          14.96906154871293     25.04526168392997      5.85034609710235
  H          16.94391862818992     26.91740538748440      5.86621945023775
  H          17.77166922904382     29.49078183909666      5.79621076717936
  H          19.54008455349753     31.60115259693226      5.85534549220762
  H          18.91364659982528     34.25555315629774      5.82984778188241
  H          17.11105217250794     36.29686576250844      5.75141196432036
  H          16.12751607516783     38.88214740385879      5.84038082196362
  P           7.99219219455372     31.42043795860020     11.62647953742677
  O          10.98106334115245     28.91147926397143     10.83440575673580
  O          10.40616033594455     26.92527389123520     13.18545546981043
  O          11.68286524226968     28.93064767522644     14.30526580800099
  O           8.71008292746847     30.37145424363580     10.55909590313514
  O          13.99363576346588     30.09956794872971     13.15374574293770
  O           8.59728009188536     32.73394610460975     11.29917907833887
  O           8.01813752491235     30.77178844040240     12.95551075337795
  O           6.45068243757550     31.39709963343631     11.09494523843100
  N          12.37285593591240     30.59995376931297     11.65104027632508
  N          14.16151367102988     32.07802336149341     12.03489752644144
  N          14.17972898851576     34.12769294332262     11.04501147958185
  C           9.90384222392989     28.19984708143092     12.83420222444966
  C          10.93666709040395     29.26673221248668     13.16030797712832
  C           9.78185489505051     28.28522459481788     11.31321880601992
  C          11.79748793637810     29.28249089015744     11.89877473563030
  C           8.55630411102394     28.98355043363321     10.72602904800247
  C          11.66388798943818     31.55650638352825     11.02148161988941
  C          13.56259738961156     30.90509478028855     12.32876401781153
  C          12.18601558894625     32.79485765759912     10.86277830113187
  C          13.50728228701374     32.98120644473777     11.33593650123140
  H           8.94794399884633     28.40725787551960     13.32143819290746
  H          10.41802153439996     30.22552084028557     13.27186640387557
  H           9.77096596358856     27.25246845312450     10.94637194496908
  H          12.64347792642395     28.59796981432757     12.00985077632999
  H           7.68966376866070     28.75271789589992     11.35295121759220
  H           8.37514436535588     28.56016532237694      9.73631675253143
  H          11.03661397679732     27.10298746162471     13.89897966651857
  H          12.58559399187993     29.26654205819134     14.15199672960322
  H          10.67745520466843     31.27684871273906     10.67247883736601
  H          11.60392260843888     33.57270672008414     10.39505554700799
  H          13.65966592964453     34.93176103079939     10.74425974890033
  H          15.02807368342468     34.28205920680600     11.56220149569426
  H           6.35967433059329     32.08889197093477     10.43361588660034
