160
Coordinates from ORCA-job cmp_frame15 E -13392.187295005982
  Si          3.50537683388522     33.90150467708263      7.79726146594580
  Si          3.46234999791215     30.79431411198670      7.80833777385709
  O           2.29015272515716     34.80282128804501      8.39771142210847
  O           2.18221602823794     30.02305791689473      8.45488366745230
  O           3.46028222454385     32.35149558723595      8.32808980879768
  O           3.52639729336799     33.89493866372275      6.15902711637984
  O           3.43087032408768     30.85133720310102      6.17266902502856
  Si          6.14506104419405     26.14184395127159      7.79969930696841
  Si          8.81326171761299     24.54293037065330      7.78786662721405
  O           4.79194549761038     25.50403893993504      8.44137793225978
  O           7.48373903100118     25.34882007769808      8.31553841764876
  O           8.75936605361415     23.04577662013559      8.42898865545581
  O           6.12542093445877     26.14167970911542      6.16191341218251
  O           8.74909562373354     24.53806181192955      6.15211578883685
  Si          6.12864840505843     29.23002951836835      7.69245650164553
  Si          6.17275756005503     35.45153995651139      7.71158957948919
  Si          8.90165810225353     33.86386785240295      7.67317710380557
  Si          8.87662529420967     30.80135395049998      7.65136310921735
  O           4.85196663003232     30.05981194769213      8.29235157429852
  O           4.89607070379028     34.62148223653131      8.30312219019638
  O           7.56290272508551     34.68435429402555      8.10553098368540
  O           7.49342284335781     30.04860870714826      8.05889471378852
  O           6.21143935357513     27.71204807621036      8.28534229763318
  O           8.84309147234644     32.33060875260515      8.24593696822562
  O           5.90664790187661     29.16797433125048      6.07249945602874
  O           6.02635357943578     35.58416819550732      6.08767282802011
  O           9.05259481521332     33.81578946751264      6.04430282850641
  O           8.99717918102952     30.93732912483625      6.02281453064681
  Si          6.19270103563212     38.54678400173379      7.79209318011920
  Si          8.91282596062112     40.06745099599144      7.79347018701371
  O           4.92401650636094     39.34804618125184      8.42699332105366
  O           7.55539119083211     39.30570550593465      8.30483844335428
  O           6.22587606874619     36.97953122523580      8.29296716433241
  O           9.04113521338402     41.55560678386510      8.43908879873464
  O           6.21185085210130     38.57715915504075      6.15642384282517
  O           8.92837739548449     40.09126931694839      6.15564227058784
  Si         11.50755544302446     26.05764443726184      7.64821240483406
  Si         14.19446308125346     24.53520788753909      7.77299142145825
  O          10.16365748871791     25.35315047624686      8.26130145680580
  O          12.86817944115137     25.38302264184984      8.25002566639876
  O          14.02330913743642     23.04108036402216      8.39592405375083
  O          11.44967880305913     25.81622645348833      6.03015998876793
  O          14.21048859892960     24.52197198668602      6.13523880743153
  Si         11.52337247007450     29.23309919047842      7.63678457649365
  Si         11.57269335199623     35.37216824813443      7.64036249711605
  Si         14.22787144232813     33.81459597483409      7.65840989934809
  Si         14.19619495654494     30.74294136747006      7.66437613837258
  O          10.17309551298055     29.97208118610117      8.19907634413175
  O          10.22244800750196     34.66009178684990      8.23594041132055
  O          12.92648590350451     34.64397762966102      8.21661156990419
  O          12.88579026377259     29.93265830092071      8.21992513861635
  O          11.47784319742442     27.64852511935058      7.99343264057132
  O          14.26137311891880     32.27925731743651      8.22934222315871
  O          11.49538047590230     29.43831642467275      6.00994071540028
  O          11.60124323889986     35.19599043114301      6.01567979414103
  O          14.11435291780583     33.70232153759923      6.02976500899437
  O          14.05129272197600     30.79298713258783      6.03382822443722
  Si         11.59305696447248     38.53293466252232      7.68403401062280
  Si         14.27900701292078     40.06421525637292      7.80179164734268
  O          10.23745423500982     39.22032625521695      8.28041442197410
  O          12.94811480576265     39.22639086628535      8.28144962827305
  O          11.61079332666461     36.94273160703938      8.06048644564600
  O          14.23785033488381     41.55654368093350      8.45191018742064
  O          11.64281858279890     38.74663114069654      6.06329121103250
  O          14.35358544498887     40.06692276098232      6.16631623737496
  Si         16.90469794403793     26.06151077690817      7.80506267695342
  O          15.54903529952393     25.28555354875644      8.30912249420086
  O          18.20057819566337     25.31846510416204      8.45415790664028
  O          16.88605223143126     26.02238961342271      6.16902369390534
  Si         16.92333964789160     29.15296158050634      7.71760143564181
  Si         16.96475443359300     35.39056608674938      7.70361296821454
  Si         19.63183752680225     33.82505075951604      7.79879096260129
  Si         19.58900732875810     30.70905500377838      7.81072716885099
  O          15.53814244128197     29.93005650728213      8.10203577836832
  O          15.60268135002601     34.57259061635413      8.09099917960168
  O          18.25800014284475     34.58300855651066      8.29631635039165
  O          18.20182722815059     29.97864502549392      8.31193540111668
  O          16.85361943547173     27.62779894404596      8.30486246276271
  O          19.60526288895544     32.26731683304227      8.31668028363987
  O          17.08142349333176     29.01233591020651      6.09518085289480
  O          17.16609615490483     35.44052039399647      6.08061745077752
  O          19.64958195304277     33.78856417138052      6.16333880293718
  O          19.58058559079560     30.67650323953423      6.17267110558724
  Si         16.95162835728700     38.47907489519817      7.78974781177847
  O          15.62966177112645     39.28974043421134      8.32167155408655
  O          18.33668714157353     39.08044869613511      8.39733548307700
  O          16.87942291863730     36.91267875388640      8.28918047600696
  O          16.93977261456546     38.47336924135089      6.15216094763046
  O          20.83130637752670     29.87349853137649      8.44931368830849
  O          20.96081324881835     34.52420090795321      8.43104830717063
  H           4.07465742952127     24.98677204140699      8.03659115459496
  H           1.41040897102514     29.60201497080419      8.03674925671431
  H           1.41040903207953     35.00798499329338      8.03674926252920
  H           4.07465743540342     39.62322797328064      8.03659115929369
  H           8.94818084682704     22.17325470777308      8.03830168963325
  H           8.94818087701284     42.43674530524356      8.03830167993956
  H          14.27776169709406     22.17320385470125      8.03828218832666
  H          14.27776170993536     42.43679614538877      8.03828219326146
  H          18.96055658369424     24.87622777471433      8.03640577875385
  H          18.96055653436084     39.73377222693674      8.03640577827448
  H          21.62471722829588     29.49141993181983      8.03658340862969
  H          21.62471723422452     35.11858007473181      8.03658341018832
  H          13.34941516186548     34.16253642054711      5.65010879552331
  H          10.81198362228074     34.76245828552794      5.65241397408156
  H           9.03269899965410     32.91676674096250      5.67665026619202
  H           9.77275425107100     30.48468735858373      5.65310734917396
  H          12.28979384358601     29.86889845036267      5.65541335162117
  H          14.08786307786646     31.68848793963623      5.66195525408877
  H          13.54074556541701     39.78643229897018      5.72294465189940
  H          10.83042845300250     39.10007396499240      5.67488563679096
  H           8.16967694419464     39.66351872206992      5.73636733417425
  H           6.09891609822204     37.71255689028258      5.73633041603808
  H           5.32376664160581     35.04515281744446      5.69752372017071
  H           3.51539925059042     33.01262675303485      5.76182798826949
  H           4.09652532393049     30.29821347844796      5.73914499385771
  H           6.01950408613831     28.29213444388357      5.67799184537796
  H           6.87016367344134     25.68245727864140      5.74979982862162
  H           9.55647255509589     24.84771999942489      5.71704927194425
  H          12.26097545105387     25.46505184444255      5.63849131718783
  H          14.96580360137370     24.97565545903282      5.73638659147514
  H          17.02462144390773     26.88162394397804      5.74535703631740
  H          17.79200643689559     29.54563252611626      5.71111838476596
  H          19.61753382495387     31.54384776984527      5.74756265240342
  H          18.95341657914240     34.31387213754375      5.74310349986225
  H          17.04557846861605     36.31159141934032      5.67814844992171
  H          16.17962878837050     38.92276027632339      5.75631372999340
  P           7.56135596391423     30.22845474000405     12.12907250125187
  O          11.31365251529344     28.60945002876957     10.84386253606970
  O          11.19316801634109     26.41487559270229     13.00313700693531
  O          11.97251268692401     28.57950849947238     14.33066672400525
  O           8.80912751229961     29.71367194756565     11.23419086919050
  O          13.95979519856144     30.21067886367579     13.37954369918539
  O           7.82436024583411     31.67723778978370     12.35160714379038
  O           7.32540307639466     29.29423697506645     13.26399215250317
  O           6.28948935995130     30.03474118756269     11.14024464136951
  N          12.40517330552359     30.46381091882885     11.75230024069200
  N          13.88740995447127     32.20653180520214     12.30085544731344
  N          13.70309562773426     34.23144737498129     11.27571131440944
  C          10.41605182605802     27.57287825583359     12.77549043484140
  C          11.20398138413753     28.81005182873634     13.17949905274043
  C          10.23244997882420     27.76643480470064     11.27554123962277
  C          12.05441995158551     29.05593790714661     11.93293145837215
  C           8.91408496910334     28.35939541721152     10.83431871466538
  C          11.68423287539946     31.28338130903758     10.95720488609512
  C          13.45908243497675     30.95542584941214     12.51964950956923
  C          12.04047739834647     32.57645659253129     10.80006699201845
  C          13.22295033929433     33.00025822756356     11.46717275735943
  H           9.45266403310789     27.50970838448320     13.29006634671542
  H          10.51736236531334     29.65362995685039     13.31301607875766
  H          10.33956093058947     26.79455566638907     10.78418120315624
  H          13.00299470533704     28.51541575248913     12.01463035571892
  H           8.10141191106610     27.75412315247467     11.24659948659826
  H           8.85351473782686     28.32148402095355      9.74579792269627
  H          11.75212334534967     26.62125188537370     13.76692816577922
  H          12.79547449820399     29.09701801208799     14.20836035398550
  H          10.83254326021282     30.83245596841788     10.46878516441582
  H          11.47700723745983     33.23729556880906     10.15909860795177
  H          13.26199009606735     34.86945401839214     10.63745300075223
  H          14.54631825058680     34.51502550990261     11.74513801048337
  H           6.27534668940614     30.70333684041211     10.44576337615619
