161
15 Eopt=-23.1805058099 (Eh) Einter=-30.523044 (kcal/mol)
Si 3.55625019680104781372 33.84481352216364768992 7.82283052361092323679
Si 3.55593639354982915535 30.76681374910781840981 7.82283149584639669882
O  2.14730563797469997667 34.47995712180041749662 8.40980825220726302405
O  2.14686231984744679835 30.13195801645270321956 8.40980966041398225741
O  3.71008409395238913930 32.30579811973632331501 8.41283350941386487420
O  3.55527628733659017968 33.84681297578967473783 6.16683050721920977821
O  3.55496202326502341862 30.76481349824159039485 6.16683148091199573315
Si 6.21946585191696676986 26.15154206550388238384 7.82287394210428033148
Si 8.88330921745431645320 24.61427031991185288007 7.82291554160480817615
O  4.81039181905300683439 25.51668623369122457234 8.40985212637358792165
O  7.47536479252335617218 25.24941401027381004951 8.40989357685844751700
O  9.03814384292508776753 23.07525464039975204855 8.41291806266354491584
O  6.21949137436192689421 26.14954191153778495504 6.16687394244305231439
O  8.88333532801620506802 24.61627018262248611791 6.16691554180481205094
Si 6.21977960256903639191 29.22954199009915399188 7.82287340521045493347
Si 6.22040692535166961363 35.38154178591564402723 7.82287165199042533459
Si 8.88425013648096850716 33.84427021276585634268 7.82291376936136373388
Si 8.88393626442489647843 30.76627031591044669767 7.82291461070681126699
O  4.81083522054753398578 29.86468585871614322969 8.40985130294733806977
O  4.81133299299541494776 34.74668571270473194090 8.40984984589453787862
O  7.47630573982781232445 34.47941394050160113238 8.40989159395970631294
O  7.47586239008399022765 30.13141403527246708904 8.40989279756997554216
O  6.37361355200131285414 27.69052643018830650590 8.41287612242517646166
O  9.03908399950264396239 32.30525463131764496438 8.41291665079134709515
O  6.21980562025786287705 29.23154162448836856925 6.16687340495961322517
O  6.22043261159974836261 35.37954121059531331639 6.16687165176915552678
O  8.88427616604843883863 33.84626969886127767495 6.16691376061915974560
O  8.88396189517710688222 30.76426993022839440073 6.16691461094286541567
Si 6.22072074921599327268 38.45954160411611155723 7.82287044068108183836
Si 8.88487750790545760537 39.99627011166624868110 7.82291136054096281072
O  4.81177610575778036406 39.09468497581985246825 8.40984815268544672051
O  7.47680356792410005795 39.36141386274510978183 8.40988966685505978660
O  6.37455463192700122477 36.92052622794705740716 8.41287352544354938289
O  9.04002569563143687503 41.53525449564809690628 8.41291307839095559018
O  6.22074678675573800035 38.46154080483090353937 6.16687043981348637089
O  8.88490322477240113130 39.99426934122605814537 6.16691135296448944558
Si 11.54846575562739552367 26.15099867935229127625 7.82295698222051782977
Si 14.21330911521316764379 24.61372707272406046286 7.82299879683102528105
O  10.13939192921391452273 25.51614235720511558725 8.40993508438496739643
O  12.80436466481180168842 25.24887074068949743832 8.40997670754360271417
O  14.36714371845361171154 23.07471152267650538192 8.41300136402084675069
O  11.54849138182812495756 26.14899848637817569852 6.16695698267495462375
O  14.21233531242891778845 24.61572701470870327967 6.16699878114549981944
Si 11.54877946216259054779 29.22899861814022770545 7.82295650526443164807
Si 11.54940705602299289012 35.38099857538373527177 7.82295468719149234005
Si 14.21424991468159682029 33.84372686045256273246 7.82299678869501491363
Si 14.21393602580154080783 30.76572695675753621458 7.82299768505945802843
O  10.13983509381276348904 29.86414239010678528530 8.40993441586559420386
O  10.14033285685260032949 34.74614237197630473020 8.40993310186516396243
O  12.80530556664929875410 34.47887069536510296075 8.40997468874606290967
O  12.80486220217614423689 30.13087072192778848034 8.40997590888847490476
O  11.70261341805661992055 27.68998304555288569873 8.41295918406905762765
O  14.36808380008891816715 32.30471138418487697663 8.41299968587055779778
O  11.54880548602778667089 29.23099828705043634614 6.16695650513018645000
O  11.54943229082437206046 35.37899791358059786717 6.16695482836028840978
O  14.21327587290240224149 33.84572642676944553841 6.16699678870487133509
O  14.21296159032388928267 30.76372664693786518342 6.16699767040266078055
Si 11.54972097053386903553 38.45899850159636201852 7.82295355382186929916
Si 14.21487725193127715784 39.99572648314444478501 7.82299437545361975310
O  10.14077626155036249145 39.09414226390306623671 8.40993138925252203819
O  12.80580345637228134592 39.36087060501109391453 8.40997272290681863183
O  11.70355407458715113478 36.91998293885230708611 8.41295674790740655169
O  14.36902552850226655323 41.53471117448217597712 8.41299611789923673655
O  11.54974659965307814957 38.46099770986902655068 6.16695359113272978391
O  14.21390304157513284622 39.99372602236851292901 6.16699440248464902936
Si 16.87746539909387166745 26.15045546532351394831 7.82304011501563678621
O  15.46839169467321895013 25.51559922180346262621 8.41001837192561296774
O  18.13336401808053111040 25.24832718036341105972 8.41005977576368657367
O  16.87749085161915374442 26.14845510350850688042 6.16704011558502696033
Si 16.87777918048526970551 29.22845537945893568121 7.82303948013465078049
Si 16.87840632525119133334 35.38045526083716652010 7.82303768125244225473
Si 19.54224959554937868234 33.84318369985669505695 7.82307944169725377748
Si 19.54193573137449035926 30.76518362545073514980 7.82308037203661399417
O  15.46883485840679739454 29.86359915392110053745 8.41001744450348098781
O  15.46933272008172721712 34.74559913153100154659 8.41001600281576955354
O  18.13430536280857552356 34.47832742941022843297 8.41005748842891698303
O  18.13386196593989652115 30.13032742060533308859 8.41005879027824754246
O  17.03161313522504727302 27.68943984316313944305 8.41304221843155097815
O  19.69708353849578941208 32.30416803689985982828 8.41308232501082819965
O  16.87780511008785211402 29.23045500242227490162 6.16703947987442369083
O  16.87843204667955987475 35.37845465477800388499 6.16703764902815887439
O  19.54227536005556942200 33.84518324351169837882 6.16707943744114217566
O  19.54196108725199110268 30.76318307839474996968 6.16708037289915189660
Si 16.87872017960313542062 38.45845497333832696540 7.82303641408390770806
O  15.46977633441829702576 39.09359933953558652320 8.41001448570304610541
O  18.13480302055473458722 39.36032783647947042027 8.41005557292068672837
O  17.03255455538556972783 36.91943980138965741844 8.41303941702672908320
O  16.87874627856747622445 38.46045467253565419696 6.16703646555108786487
O  20.79783428710169346232 29.86305523107244752623 8.41010005884381328656
O  20.79833211796393754867 34.74505628093142206581 8.41009857368056223947
H  4.07465742959921595201 24.98677204103065463414 8.03659115489381470354
H  1.41040896895077061401 29.60201496922843134030 8.03674925623156433119
H  1.41040900772398991592 35.00798498498874522511 8.03674926153846769239
H  4.07465743673046976170 39.62322797228848969553 8.03659115986832084388
H  8.94818084703040028671 22.17325470626254713125 8.03830168964482538740
H  8.94818087888861590784 42.43674530310021708601 8.03830168085004181933
H  14.27776169752269908031 22.17320385293022155793 8.03828218835484342719
H  14.27776172529486942153 42.43679616502423357360 8.03828219238273078417
H  18.96055658673218147214 24.87622777056431999654 8.03640577849683346301
H  18.96055655365966785553 39.73377219809965765762 8.03640578497469881825
H  21.62471722974039067822 29.49141993085223134585 8.03658340865844955658
H  21.62471723459698935699 35.11858007570415907139 8.03658341024968159161
H  13.43954240705188674099 34.27033905959073933900 5.76911863033810412560
H  10.79702477877094324299 34.91824968808693085975 5.76839601836314663785
H  8.90770700538536885915 32.96594596312237257507 5.76499475693093010875
H  9.65945432596557296279 30.34299409087207877178 5.76888004986641522720
H  12.30259136199063974004 29.68912269735173481422 5.76803922561524728962
H  14.18560353536841311950 31.64418152034720321808 5.76552258414804086328
H  13.46208428473882356968 39.53603768758615899515 5.76468154631039197966
H  10.78553468057227071597 38.90473305982342111520 5.77122838823149475473
H  8.14831461405581514157 39.50994490523260793680 5.76699955065653036002
H  6.23317386266412221119 37.58286575798712902952 5.76180503589192305469
H  5.45415702078246766860 34.93908511479315848192 5.77152547605696852884
H  3.60566386880472933285 32.96814933236115052750 5.76410508780447994326
H  4.32812544120601483399 30.34544671554549921666 5.76331957717699250310
H  6.21212642427704864190 28.34933201797482738016 5.76816829130575570161
H  7.00946743378538350555 25.75759721985158634538 5.76754704175041332803
H  9.64012207146603472552 25.06582757776833148000 5.76488469559746086190
H  12.31500792560114554419 25.70853944700186843875 5.77192568457142130001
H  14.95343799048818311803 25.09203406453621809646 5.76610003219539901664
H  16.85241664019785190476 27.02653749609453015523 5.76116217504229943813
H  17.64630213792702306819 29.66655897893097204587 5.77122747418047143952
H  19.48194552512785548970 31.64158903525821742164 5.76482831427755382236
H  18.77355784011155748203 34.27390176286678524775 5.76498788632468261994
H  16.88031296763957200824 36.26100719568322006126 5.76894103234313160300
H  16.09309772941850269490 38.86024082341141649977 5.76722976499286232865
P  12.48539636942580166590 31.34527983067623324587 11.18043746773068392031
O  16.39906549128489388067 31.53605935129778359283 10.66421149405127444254
O  18.39300906444867678147 30.07722033241288883687 12.54450042821548194638
O  18.54922550404387848744 32.67101262278383444482 13.18677646159817129501
O  13.92706273763899815776 30.74444055561449573588 10.81968175281805244481
O  17.87163577562700211843 35.18046381600391470101 11.86729292052894990661
O  12.07193626035885003489 32.36831076948143248728 10.14779907237111444829
O  12.55933710594412389128 31.99226903725047321814 12.54997283764724969046
O  11.44310036763928017933 30.13035922017247258964 11.16969203123452203386
N  16.09013721188433265752 33.83385096179508622072 11.36590682338129632001
N  15.92074404773341456121 36.17800982299404211062 11.21397267731379088218
N  13.96331031137338030135 37.16026767521084650525 10.31823917380222077611
C  17.13312388156088772462 30.67241376081616266447 12.77199977998070146157
C  17.26349086836599155959 32.21257477439068139802 12.82394666614442613195
C  16.17819945349135224433 30.44804651419072527574 11.56440377586778822661
C  16.94465658055236900736 32.65247848521668316835 11.37629512176786050759
C  14.68638967387751215199 30.41524840931624851237 11.94441551103943588430
C  14.75527261375161636181 33.71988241832250565722 11.11206494258263610675
C  16.70637782184568109756 35.07967508689269209299 11.51480103540983002119
C  13.99086171364249331361 34.82173834537864820504 10.90114922921538287426
C  14.59964621981552568286 36.08425873313267828735 10.85567855711895646209
H  16.71733687080180530415 30.25788140853264351904 13.70255978404578911523
H  16.52790190312207840861 32.65077126825175923841 13.51591093105006358144
H  16.46859417587613449996 29.54592803862904304424 11.00449864842166647350
H  17.87452686003744872778 32.91042220728441947131 10.84811343289118745759
H  14.47934490011929398179 31.16760480722406612131 12.72261234199172363901
H  14.36186562663425547726 29.43127632028486928562 12.31962968660167057067
H  19.09450911401920336630 30.70811345799958402836 12.82058402612643277507
H  18.58391613942386300096 33.60554466414011898223 12.87844325589128047227
H  14.36047910544611028172 32.73099312959013929003 10.95352334785028780573
H  12.95788516899565578910 34.71052490845753624171 10.61506404749341569982
H  13.11174120125646069823 37.03467056049554173569 9.77814504264406636480
H  14.50338124403619133318 37.90394069779151209332 9.88316271887072872460
H  10.96814530873307447223 30.10301710874042413479 10.31320131040629739516
H  16.38188880236172906280 37.07689825091899393783 11.17498054059511858327
