162
15 Eopt=-407.5372491329 (Eh) Einter=-21.121521 (kcal/mol)
Si 3.55625020007165826286 33.84481351741821697487 7.82283052544434021058
Si 3.55593637079666180512 30.76681371316811564043 7.82283148179151233137
O  2.14730563622228665110 34.47995712210369134709 8.40980825181232738430
O  2.14686232443389357627 30.13195801306824250787 8.40980966033136567717
O  3.71008409440152053804 32.30579812467900779893 8.41283351400937640108
O  3.55527628731033473741 33.84681297678259426220 6.16683050691783751773
O  3.55496203026888757392 30.76481351090948734850 6.16683148298138128496
Si 6.21946585620688896512 26.15154206572234585337 7.82287394100246746831
Si 8.88330920533932300032 24.61427024698025078919 7.82291553793041760656
O  4.81039181815905170225 25.51668623269140567800 8.40985212621965949609
O  7.47536479345047411016 25.24941401711885902159 8.40989357798879133554
O  9.03814384248094526697 23.07525464577156881774 8.41291806241883932671
O  6.21949137341963087522 26.14954191056648369340 6.16687394227300522687
O  8.88333532800590930378 24.61627018718557025068 6.16691554265042096716
Si 6.21977958820172371901 29.22954195175958602704 7.82287339033027429025
Si 6.22040695161112910938 35.38154181292089361932 7.82287168014016653927
Si 8.88425033128568486518 33.84426985816363497861 7.82291400109468604285
Si 8.88393626760969468137 30.76627030829708075998 7.82291461605974358662
O  4.81083524888335123393 29.86468591233945346630 8.40985132251482880861
O  4.81133298682273480296 34.74668571405835848509 8.40984984189027784396
O  7.47630570104773095608 34.47941392594021436935 8.40989155316237635418
O  7.47586239250583872717 30.13141403954811536892 8.40989280224314583734
O  6.37361354634535004493 27.69052643206281771882 8.41287612214723345971
O  9.03908398106590382781 32.30525466969982772980 8.41291660655664585988
O  6.21980561966502243365 29.23154163301177987933 6.16687340679979634217
O  6.22043260617880200414 35.37954120616888786799 6.16687164713965252361
O  8.88427615208313348205 33.84626975590239084113 6.16691371944971500341
O  8.88396189456997120715 30.76426993270411003323 6.16691461032639764994
Si 6.22072075887464936983 38.45954159776215419697 7.82287044501246153771
Si 8.88487752229820415550 39.99627011506080265235 7.82291136392198360738
O  4.81177610379395304108 39.09468497431628009053 8.40984815215703029878
O  7.47680356152697100924 39.36141386813990550309 8.40988966663677750546
O  6.37455462219385537992 36.92052622334465183940 8.41287351987455167546
O  9.04002570043604514183 41.53525449155813475954 8.41291307688432077327
O  6.22074678550253779008 38.46154080586582324486 6.16687043859454853134
O  8.88490321745081246263 39.99426934583770076870 6.16691135399867107481
Si 11.54846572835681506319 26.15099868615708089692 7.82295699238246289298
Si 14.21330911687912035291 24.61372707528661507581 7.82299879779517137735
O  10.13939193207330191626 25.51614236286357240147 8.40993508109749399182
O  12.80436466459241628968 25.24887073454003072470 8.40997670750888204338
O  14.36714371840833770477 23.07471152262398561561 8.41300136419619981609
O  11.54849138665218255539 26.14899848300025198000 6.16695698166452199729
O  14.21233531207944800201 24.61572701446417710258 6.16699878106639598485
Si 11.54877943442748211567 29.22899861847499636269 7.82295651420582771607
Si 11.54940685924239573978 35.38099825394330366635 7.82295490633110546241
Si 14.21424992080831017915 33.84372687176720262414 7.82299680254776941268
Si 14.21393602780656451046 30.76572695475600127679 7.82299768500078585021
O  10.13983509733972354638 29.86414238944559329525 8.40993441002665242934
O  10.14033257297155898868 34.74614296427902360165 8.40993282581703027745
O  12.80530558512773353641 34.47887069366209544796 8.40997465250181086560
O  12.80486220281210663074 30.13087072360099227808 8.40997591031660007843
O  11.70261345956281928693 27.68998304046252556532 8.41295917052755548582
O  14.36808379802687163362 32.30471137861073316344 8.41299968218537763676
O  11.54880549146284529627 29.23099828824518198189 6.16695650421988261769
O  11.54943230357586614332 35.37899801127451127059 6.16695479528722501072
O  14.21327586985247570794 33.84572642176166823447 6.16699678637469350662
O  14.21296158937842157854 30.76372664760397412920 6.16699767073502247428
Si 11.54972063933134762692 38.45899845858606624915 7.82295360600431877174
Si 14.21487736893464237653 39.99572665257331749444 7.82299442308321157924
O  10.14077627347491983301 39.09414226542190107239 8.40993137260937650979
O  12.80580346102137134778 39.36087063001409092067 8.40997275835746371797
O  11.70355461125668128375 36.91998297233760695235 8.41295667411876735287
O  14.36902552208773542475 41.53471116582954891783 8.41299609822383054336
O  11.54974664239164106050 38.46099769496879616781 6.16695359079911575861
O  14.21390300872341327931 39.99372600559689772126 6.16699440243603991263
Si 16.87746539915595889170 26.15045546530929243545 7.82304011492735362765
O  15.46839169431563121293 25.51559922203506403093 8.41001837167908661286
O  18.13336401811593390221 25.24832717952815031026 8.41005977557530925992
O  16.87749085151236982938 26.14845510349548973750 6.16704011565415388674
Si 16.87777918102937135814 29.22845537829097750659 7.82303948051481601311
Si 16.87840646341204120517 35.38045526488117786812 7.82303766234797048895
Si 19.54224959986388654443 33.84318370394620956176 7.82307943964669405545
Si 19.54193580562436238779 30.76518359765681154272 7.82308036772734904929
O  15.46883485842259986498 29.86359915396128528187 8.41001744507669179995
O  15.46933269992068815668 34.74559912936496886005 8.41001601012808741586
O  18.13430534454243314713 34.47832742210839285235 8.41005748183246382155
O  18.13386195847283488547 30.13032742622215209849 8.41005878980780074983
O  17.03161313613902194675 27.68943984242127953621 8.41304221803214780095
O  19.69708353139848355795 32.30416804005131581334 8.41308232863471339158
O  16.87780511042725706261 29.23045500180933942147 6.16703948000028212562
O  16.87843200865405535183 35.37845465693573032695 6.16703765146311155831
O  19.54227536065369363882 33.84518324202792172173 6.16707943850307493960
O  19.54196108286799926645 30.76318308084982788841 6.16708037381990958892
Si 16.87872038832624355109 38.45845522974786234727 7.82303647064249751963
O  15.46977615276365369823 39.09359903666258162502 8.41001439289243002406
O  18.13480303034815932506 39.36032777654063607997 8.41005555308176155904
O  17.03255437321181275934 36.91943977481167848964 8.41303945912418704722
O  16.87874624372406273665 38.46045460597264309399 6.16703645753042106747
O  20.79783428222059882273 29.86305523388134020024 8.41010005820001715904
O  20.79833211907208578850 34.74505628332109807843 8.41009857249903625132
H  4.07465742953317899833 24.98677204118543926370 8.03659115493962517007
H  1.41040896761765921497 29.60201497196997166839 8.03674925487925229106
H  1.41040900866228291477 35.00798498522190982385 8.03674926208500117752
H  4.07465743757498177757 39.62322797378174499272 8.03659116056258859828
H  8.94818084734771979072 22.17325470605799608848 8.03830168905569664162
H  8.94818087378340720761 42.43674530322846294439 8.03830168221260343842
H  14.27776169752375068356 22.17320385287699480159 8.03828218834863506004
H  14.27776172901002027515 42.43679616376464736049 8.03828219235933438824
H  18.96055658448838698860 24.87622777377983496194 8.03640577883042794838
H  18.96055653593981915606 39.73377222628339922039 8.03640577882232776119
H  21.62471722992894740401 29.49141993089687829865 8.03658340812533822373
H  21.62471723482639873737 35.11858007482074839345 8.03658341040616797102
H  13.43954240900498575684 34.27033906293358000994 5.76911863029146765314
H  10.79702479078168408932 34.91824964934523478632 5.76839602606540946539
H  8.90770699589103287508 32.96594595675202299390 5.76499476430953450290
H  9.65945432554395821967 30.34299409078128562101 5.76888004974721191331
H  12.30259136166030131676 29.68912269650316204661 5.76803922533700230701
H  14.18560353570587473371 31.64418152036218145895 5.76552258414248175455
H  13.46208429549949059378 39.53603768080852631783 5.76468154346651129316
H  10.78553468595678133113 38.90473307522621837506 5.77122839000590026615
H  8.14831461726737416029 39.50994490218278087923 5.76699954977091167052
H  6.23317386246135018979 37.58286575829058051568 5.76180503605251637111
H  5.45415702246860600866 34.93908511495828861371 5.77152547564824303095
H  3.60566386855297338343 32.96814933094692179338 5.76410508815629896162
H  4.32812543925432624548 30.34544671048169206529 5.76331957713111631136
H  6.21212642604085640841 28.34933201673504754581 5.76816829172989997687
H  7.00946743407261863013 25.75759722052025324501 5.76754704184050659421
H  9.64012207184516256575 25.06582757658721760663 5.76488469504852840686
H  12.31500792535499222424 25.70853944883784691910 5.77192568414572093616
H  14.95343799063553369422 25.09203406440968464608 5.76610003223196976307
H  16.85241664024875518635 27.02653749628724355603 5.76116217506945371696
H  17.64630213730524133098 29.66655897926526819219 5.77122747412848102755
H  19.48194552621945163651 31.64158903491917129713 5.76482831381938964910
H  18.77355784077751721384 34.27390176224891149559 5.76498788575087495190
H  16.88031297975519606780 36.26100719905449665248 5.76894103323766938018
H  16.09309773710936397606 38.86024083970058029536 5.76722976461845693308
P  14.07395207447230944808 37.11199815151760361687 10.00446206107528546170
O  13.94727476803009658113 38.42861467048338397490 10.66574538257097337635
O  14.15771082969987304523 36.89905897238665488658 8.53458389813736495455
O  15.30719601251591122093 36.30791327556166692148 10.71702339739518450301
O  12.82150443040908527337 36.14979965897743596770 10.66635429049332728368
C  12.10266921269970019637 36.75803435353028447707 11.68157414312540254286
C  10.91133779103080136963 37.55587793779238126035 11.13016463966126856633
O  9.99028090520088341009 36.81179769438055160435 10.33016582592409982055
C  9.99633405025645416231 38.14184356234543571418 12.19845861988821056343
O  9.22839366416695128237 39.21453569022736473926 11.69066332097143501301
C  9.04537270836088858061 36.95336111824380509461 12.50132275273649362646
O  7.79588541309536786628 37.38922104705872584418 12.93833974900830519061
C  9.01461720937591159952 36.21866277426681079987 11.12388471254539012989
N  9.19680812288316928971 34.78763772721627844930 11.23433174482326002419
C  10.34321139993262406165 34.04207483980475501539 11.11856971091562229503
N  10.13884228736034565088 32.76147293805258442490 11.17791362883001227146
C  8.78044026624372975220 32.61714394148334861256 11.29311673243290670143
C  7.91814496540599677132 31.51420391299546253094 11.27313811220889405718
N  8.37155946678490536783 30.22855958241552443155 11.23954764835759867481
N  6.60287665263309442309 31.73359598263375502825 11.33753536091703928435
C  6.16461430139822041951 32.98364650334406178445 11.39230369586716662411
N  6.86168117700810586967 34.10203390448171489879 11.39133325526261053540
C  8.17541120756011707726 33.88806932708150299050 11.31736971932727975343
H  15.49449291923418314809 35.58887259976580708098 10.11983052997971199716
H  11.77311722269402771701 35.99005996716165611815 12.39529741913914051565
H  12.74602548328559947777 37.48613766710137440441 12.19196731980076364721
H  11.34871968057159463683 38.31423515949366986888 10.47898879615340916871
H  10.51636146611618549684 38.50224760506414156680 13.08799866989694749009
H  9.22786531536158349809 39.14344888006633738087 10.72531224803922000888
H  9.45238236901367123721 36.29724613662005339165 13.27557988295253288413
H  7.63291073845482515026 38.22572162356579639209 12.46942317045624193383
H  8.02861209637011619122 36.34981463854817462789 10.65108572787424634498
H  11.30281160222113179259 34.48371886895807136852 10.93378190988770448655
H  9.30526105107290213425 30.13664815633751103974 10.86844357645462544326
H  7.69778340402533167719 29.56208149381313177173 10.89526278919909607623
H  5.08923504756836742047 33.09698521367647572333 11.43362961209513173344
