163
13 Eopt=-23.7255645855 (Eh) Einter=-31.269357 (kcal/mol)
Si 3.55619756529577646376 33.84476442101237836368 7.82276357883634165802
Si 3.55590021473922490713 30.76676463554457541250 7.82284079938880339000
O  2.14725499029015232111 34.47991502706514665988 8.40973852805670318844
O  2.14683493839461903008 30.13191590799910102305 8.40984764333100542899
O  3.71004511287015947829 32.30576445540845753612 8.41280327149748075044
O  3.55520840939633853139 33.84672284842424261342 6.16676352248287340529
O  3.55491063406547969095 30.76472336487914205350 6.16684084231161566692
Si 6.21945435556613013262 26.15150720013123475383 7.82297308248539025044
Si 8.88330592851756861705 24.61424974963332346078 7.82302825144513569455
O  4.81038912582327338185 25.51665836873812764907 8.40997994424219896814
O  7.47536352003256698850 25.24940042998748168657 8.41000350510725169784
O  9.03815421408042496410 23.07524948856393010033 8.41306749681992904755
O  6.21946467331317887073 26.14946602883407678064 6.16697313095633514735
O  8.88331681861191846394 24.61620855035135235767 6.16702821618343932641
Si 6.21975159598496407654 29.22950716084746147772 7.82289624185218457342
Si 6.22034605096645965006 35.38150694156098552412 7.82274210921040769051
Si 8.88419735287963163728 33.84424952435985289867 7.82279766547887778216
Si 8.88389988804961028279 30.76624983378978939186 7.82287502952128388500
O  4.81080926822492305206 29.86465802637449229451 8.40987141227806489496
O  4.81128092448368160916 34.74665783639539284877 8.40974902717283434583
O  7.47625513849660450205 34.47940039576536008781 8.40977296955673203627
O  7.47583515009498000836 30.13140036505238228415 8.40988185063532434071
O  6.37359925202645349884 27.69050701551622140073 8.41293574060428994699
O  9.03904518470751305870 32.30524952583181885757 8.41283739004432007391
O  6.21976241842058463760 29.23146574519042673046 6.16689625294860555016
O  6.22035653480536598892 35.37946534339376825073 6.16674220472618372924
O  8.88420829520898358567 33.84620807346631465862 6.16679787254325262325
O  8.88391057615064028141 30.76420828681236230295 6.16687499801155780688
Si 6.22064342918282076056 38.45950676213995222952 7.82266469572324130155
Si 8.88479196014682415239 39.99624949713867039236 7.82264305122364778100
O  4.81170078928570799093 39.09465713975791345547 8.40963963271551051548
O  7.47672682213471873069 39.36140026861881580089 8.40965003010277634132
O  6.37449096318870100930 36.92050680404932450074 8.41270448919485680506
O  9.03993734315124441991 41.53524934003323210163 8.41260523435119544899
O  6.22065423090332192402 38.46146494131603787991 6.16666464514911094597
O  8.88480247262750744142 39.99420773061365252943 6.16664310186807007597
Si 11.54845404122925600632 26.15099252946495766992 7.82300689907643054255
Si 14.21330582873459391635 24.61373495664727073517 7.82306253909484450304
O  10.13938935544953601209 25.51614285049054231536 8.41001404323931467388
O  12.80436349381313654305 25.24888562770822630910 8.41003775872365721966
O  14.36715409332024506739 23.07473485858135120452 8.41310181573710735847
O  11.54846473238006154816 26.14895110588679116859 6.16700731232354470990
O  14.21231681535219770751 24.61569389043545896811 6.16706248546502777685
Si 11.54875178669079893723 29.22899257539436845832 7.82293085603366922243
Al 11.54934586150713649033 35.38099215804624719794 7.82277632168092118548
Si 14.21419729490281369522 33.84373476586015527801 7.82283190364692249119
Si 14.21389985756159113350 30.76573485523980266976 7.82290904201745362911
O  10.13980899424779558160 29.86414281127721892517 8.40990537376974955919
O  10.14028084534641749315 34.74614307733130402767 8.40978331416984659086
O  12.80525496795798190419 34.47888561256166894964 8.40980701639065308939
O  12.80483468560443505169 30.13088556222122349482 8.40991579464674643418
O  11.70259914084324925909 27.68999197783722010513 8.41296976760356685077
O  14.36804483910531260449 32.30473472012058522296 8.41287149419833468755
O  11.54876222386802275821 29.23095092287861973546 6.16693019646544993151
O  11.54935627653854979258 35.37895056150207295786 6.16677637473244910638
O  14.21320800214115109839 33.84569329855289510078 6.16683184588954524941
O  14.21291021112222630052 30.76369352355282060785 6.16690908545432137089
Si 11.54964333587882308052 38.45899207663692465076 7.82269886933887459435
Si 14.21479182907254568136 39.99573458403168757513 7.82267713330744740574
O  10.14070098828666566249 39.09414297032844842761 8.40967387946065692006
O  12.80572673726010712869 39.36088552704030973928 8.40968415504693567186
O  11.70349088889449973294 36.91999209450918328912 8.41273861457526450636
O  14.36893718034474254353 41.53473451527197823907 8.41263927939286304536
O  11.54965410742238773878 38.46095034756054076297 6.16669881931690522237
O  14.21380227362331183372 39.99369288774084907345 6.16667717685484362278
Si 16.87745391190189891972 26.15047761311101481851 7.82304130658227148132
O  15.46838899273699396986 25.51562837560229723977 8.41004824071687728804
O  18.13336275363170813080 25.24837058501673325850 8.41007177060840227512
O  16.87746415312997072533 26.14843622786153432003 6.16704135712127587965
Si 16.87775123265230803327 29.22847752998888992693 7.82296442328738184102
Si 16.87834565535311170947 35.38047741639958587712 7.82281020134871685201
Si 19.54219697590813353827 33.84322009490880134308 7.82286558244888574620
Si 19.54189956415409668011 30.76522001712994125455 7.82294276190206172572
O  15.46880891843906802308 29.86362830635393095235 8.40993960832181386422
O  15.46928063601344227607 34.74562827718666824239 8.40981723877827924696
O  18.13425471610170092163 34.47837082567120603471 8.40984083058815201639
O  18.13383458721346030984 30.13037082284648704444 8.40994984609148765742
O  17.03159884009565416818 27.68947742677200096750 8.41300387044137387704
O  19.69704456894772448550 32.30421987335790134921 8.41290516854057734975
O  16.87776192706461486637 29.23043612969862081741 6.16696437224737081806
O  16.87835593850665105720 35.37843578685117762461 6.16681025247040537351
O  19.54220750780916660005 33.84517861426853357898 6.16686553303164863848
O  19.54190971135536614156 30.76317845062536093792 6.16694281244523256902
Si 16.87864312446953363178 38.45847737737768312627 7.82273276682717799702
O  15.46970084726323513280 39.09362819377015085820 8.40970792208846340543
O  18.13472631086835207270 39.36037116599614904544 8.40971797630630391041
O  17.03249067077508271950 36.91947736029238313904 8.41277248490545126458
O  16.87865370783389806775 38.46043573889405564614 6.16673271731656846839
O  20.79780834068510131374 29.86311288063218682964 8.40997325101366399736
O  20.79828007401711431612 34.74511392520299324360 8.40985083187727155973
H  4.07465742880414083515 24.98677204379565708336 8.03659115484524022577
H  1.41040896821231953595 29.60201497125464342730 8.03674925567382025804
H  1.41040901541507501804 35.00798497934836461809 8.03674926474781337049
H  4.07465743566995897140 39.62322796955363202187 8.03659115906765109116
H  8.94818084963725901559 22.17325470576929902222 8.03830169225965995849
H  8.94818087909743020703 42.43674530210331852231 8.03830168089990237945
H  14.27776170303258851391 22.17320385394387471933 8.03828218896470581001
H  14.27776173065929299355 42.43679616705133383903 8.03828218970069130478
H  18.96055658482086414551 24.87622777304652288421 8.03640577860272919963
H  18.96055653324771128609 39.73377222819731713344 8.03640577820969959078
H  21.62471722977756627415 29.49141993063041411460 8.03658340868295084647
H  21.62471723341645457594 35.11858007541930248863 8.03658341031174749958
H  13.39922795894937834760 34.28531247593029007703 5.85463176743747037989
H  10.85603172345680711430 34.89218234301262810959 5.71721595668930238077
H  8.79316678493056258503 32.97374190064039112258 5.76219940235463390366
H  9.66357961516028041160 30.35160699903665459942 5.76895567583147350632
H  12.30629752245839370062 29.68608879613838880118 5.77123883830705253217
H  14.17430145280358289028 31.65300279653362380827 5.78286316980254877507
H  13.45700859327196141635 39.52750482904615125790 5.78093078824530071103
H  10.82185198504185486001 38.95872177462891272626 5.76976940787071601591
H  8.14980839574559112748 39.50861002858837167651 5.76627385358139221694
H  6.23194667499509247222 37.58116492146456266710 5.76471310431571026811
H  5.44704956068057555285 34.95093754566621413460 5.77257541009877250815
H  3.60664936350810982901 32.96826993038620656762 5.76388710759018785268
H  4.32819223287919818688 30.34484056044784949790 5.76402041699442779787
H  6.20754700142352966452 28.34935900205299574850 5.76818374033554270852
H  7.00943285673745464237 25.75772182265706788939 5.76748914504794640834
H  9.64047060387787091429 25.06526887565443928452 5.76511829247907670037
H  12.31477062563270230555 25.70825776636092641070 5.77188273521498551588
H  14.95393929865734961027 25.09100721845936732279 5.76597661995144328273
H  16.85170393415551259864 27.02666099263108634432 5.76146800087806632007
H  17.64768340345662878121 29.66420704365281935111 5.77142433872445526077
H  19.48180900496273437739 31.64168672094853462795 5.76490010377129102892
H  18.77140968681730370804 34.27358367915407200144 5.76790924670348381653
H  16.89481965196743473712 36.26079389697205357379 5.76914703420338348394
H  16.09152697021799127697 38.86028470156602310226 5.76951241489328481293
P  10.82383063247256238526 25.70663057397999295972 14.31570537845536250643
O  11.26793584860394403790 27.09551781658769797900 14.73563182526897463731
O  10.15176735127873364206 24.99689931597328396151 15.47202136634271241178
O  9.73954072928682634824 25.83789426186802629104 13.14755292183937029904
O  12.09733965128325650085 24.83091921597077700312 13.81999444850602998258
C  13.22076623742171719300 25.63915803878531818327 13.60256830542155626063
C  13.31905841012839175619 26.10837261606152992499 12.14875082840225317682
O  12.09666727653055318115 26.73375443362316516982 11.73064875955084751524
C  14.48777004532068346521 27.10675142905428813833 11.90956683748884259444
O  15.61023756155979214100 26.47583910312955879363 11.33772834487104219647
C  13.88328850279250481492 28.16502343576486921961 10.96114532998147694798
O  14.18776331472528795530 27.84010173208007898893 9.62453575127749338947
C  12.35857722989156748383 28.03622060286174999533 11.20157555212135669365
N  11.71370918055183985018 29.09149795958584050481 12.00197202945834362708
C  10.45318205487458484981 28.86590693747616143128 12.54601665729943249517
N  9.67750148521348307895 29.91358218537940771853 12.48155170755905629676
C  10.41028048779473458296 30.89929882344267042527 11.89753572846246676420
C  9.99075636560776025874 32.11209483311961321306 11.30596999454430573451
N  8.69706412293928465829 32.52613589950634320758 11.31825609756251793669
N  10.94915618306603555254 32.72990680569548516132 10.56502774253729626253
C  12.20843541955329136783 32.21079389040183116322 10.41110290243883085282
N  12.63993174997482249466 31.09290827168629434141 10.89861658609944861098
C  11.70816281128221447716 30.42356287376930268351 11.61568809107459010477
H  8.91548352071725247470 25.42160568508868934146 13.45493208848273880562
H  13.15912249607459472145 26.50441372923736693679 14.28334302865084026735
H  14.11180573054878450989 25.05546379060831441166 13.88499896610237982486
H  13.43628275170578945108 25.23867757519728627358 11.48636290686266292482
H  14.80667862004695045641 27.55723473487785923908 12.85981620626544241759
H  15.40310193532389959614 26.16354416563715545863 10.42065685688283949162
H  14.22589252156584471720 29.18991006679949151703 11.17374559546202483773
H  15.15248799920745881309 27.95676396858220158492 9.42099822435261557985
H  11.85082065403129547576 28.06759382143809133936 10.23026812066264490397
H  10.10597530967790369516 27.88335661041264046389 12.85251410293588847367
H  7.96878148023780852327 31.92670724820350613982 11.67511690989239170335
H  8.34910118347707275177 33.16132844138433455328 10.61279951429624901493
H  12.87253345818191263561 32.73047576062600683144 9.74105105097036627626
H  10.66098439218797189199 33.49888361559716543070 9.95105796095285732861
