195
7 Eopt=-476.5265951222 (Eh) Einter=7.987971 (kcal/mol)
Si 3.55625029071749843013 33.84481332519698071337 7.82283046733236364645
Si 3.55593682811152422829 30.76681352239607392107 7.82283154237764399852
O  2.14730569920734026823 34.47995716246312269959 8.40980832739505679285
O  2.14686216867083068394 30.13195814960528906568 8.40980962153851230312
O  3.71008383912984562869 32.30579832715127253095 8.41283358302120731764
O  3.55527632486479383545 33.84681303153085707436 6.16683051347996524783
O  3.55496193062378296190 30.76481356573169989588 6.16683142469976797173
Si 6.21946584181631045851 26.15154205839688472679 7.82287393964655031198
Si 8.88330922037244619105 24.61427032747892695852 7.82291554187068083337
O  4.81039181385498437749 25.51668623864249241251 8.40985212404602577863
O  7.47536478794211145527 25.24941400884845066344 8.40989357775514889681
O  9.03814384445868768125 23.07525464064600129177 8.41291806282068499456
O  6.21949137149726460905 26.14954191090917134943 6.16687394174997471907
O  8.88333532783815549294 24.61627018266977273697 6.16691554186556523121
Si 6.21977956022536293545 29.22954217546016053575 7.82287328463103293075
Si 6.22040704689334145172 35.38154184161104609530 7.82287176229285652340
Si 8.88425001783178558412 33.84427021201792484817 7.82291368191600255955
Si 8.88393617946994673673 30.76627036742815946013 7.82291453129487912577
O  4.81083509916642171333 29.86468578720253930214 8.40985124192770605589
O  4.81133287844449153425 34.74668579189364692184 8.40984974299149712351
O  7.47630572519325919956 34.47941387248901179419 8.40989163025553132513
O  7.47586245770992618986 30.13141389007612858109 8.40989290779351073013
O  6.37361358981436598725 27.69052640629829298291 8.41287616712154040499
O  9.03908410853554755704 32.30525458841915309449 8.41291667235263496138
O  6.21980563109866757543 29.23154160481372798586 6.16687344383470659182
O  6.22043256693398305401 35.37954121841966781403 6.16687163179165764859
O  8.88427621822941304686 33.84626970384108091139 6.16691377971187115747
O  8.88396190792562379102 30.76426991829483625907 6.16691462782335353410
Si 6.22072071602809995028 38.45954160868170390586 7.82287044889780069923
Si 8.88487749960344963540 39.99627009490604478970 7.82291135347840160819
O  4.81177610957249957124 39.09468497757261218339 8.40984815096623883335
O  7.47680357205670897969 39.36141386108182871340 8.40988966467098109092
O  6.37455465718701574929 36.92052618801139374227 8.41287349254977101509
O  9.04002569353736085134 41.53525449227638688399 8.41291308169592788602
O  6.22074678797571856137 38.46154080469052161106 6.16687044046918142470
O  8.88490322617670003069 39.99426934370731601120 6.16691135435634407713
Si 11.54846574992807184401 26.15099868064355703723 7.82295698221482549428
Si 14.21330910764891797271 24.61372708041977119819 7.82299879890863358867
O  10.13939192632185992693 25.51614235593211788000 8.40993508148936896873
O  12.80436466008952400841 25.24887073682106120032 8.40997671178954853133
O  14.36714374934554427909 23.07471150458564679298 8.41300135810593552321
O  11.54849138107743833359 26.14899848565475082296 6.16695698467417763311
O  14.21233531461747823244 24.61572701461862067163 6.16699878133321988116
Si 11.54877934165355668483 29.22899846511429089446 7.82295659601503245995
Si 11.54940680870473102004 35.38099852158401148472 7.82295479534648841025
Si 14.21424987487623781135 33.84372685642082245749 7.82299684621741064916
Si 14.21393598367917832093 30.76572696432012676837 7.82299775338311853545
O  10.13983518892127300148 29.86414256490424534718 8.40993438432725248788
O  10.14033285621838231805 34.74614241918135348897 8.40993309947904066348
O  12.80530557354962972738 34.47887067776469649516 8.40997466988824982081
O  12.80486223392782463293 30.13087074016117128394 8.40997587261820633842
O  11.70261345221362780933 27.68998306685898924684 8.41295914923474086322
O  14.36808387092029093424 32.30471139364966859375 8.41299963364420477774
O  11.54880551501553398452 29.23099827264775640856 6.16695649577050186707
O  11.54943232940315489543 35.37899793775974188748 6.16695480325287270773
O  14.21327588108738382289 33.84572642429369437878 6.16699677676858648567
O  14.21296159189394003874 30.76372664789681365960 6.16699765651307885150
Si 11.54972065835196914918 38.45899842372654831024 7.82295359472243934107
Si 14.21487736627433484671 39.99572668671865471879 7.82299441397486905458
O  10.14077630503144078489 39.09414231331637523681 8.40993138159690722944
O  12.80580347910724903215 39.36087061445048362884 8.40997276751007483142
O  11.70355450886955850365 36.91998299359252655449 8.41295663573628971221
O  14.36902547626776538436 41.53471109296032182101 8.41299610977188550009
O  11.54974665233867270331 38.46099771192891836336 6.16695359053526104276
O  14.21390301195066818707 39.99372599639848857578 6.16699440335433912708
Si 16.87746539974018489261 26.15045546423267097680 7.82304011587379566350
O  15.46839169358928778308 25.51559922320718598598 8.41001837128891871487
O  18.13336401789994312139 25.24832717934250325698 8.41005977520170411310
O  16.87749085157128092760 26.14845510354257740460 6.16704011546149288847
Si 16.87777918850697744801 29.22845538140790466741 7.82303948139762095337
Si 16.87840650793405217200 35.38045526023540077176 7.82303765538251294487
Si 19.54224959841951658746 33.84318370355357075141 7.82307943915349301989
Si 19.54193573012092599583 30.76518362678901041818 7.82308037145120138689
O  15.46883484393573127136 29.86359915043263413281 8.41001743475664476080
O  15.46933269607873739915 34.74559914242249192284 8.41001600751106614950
O  18.13430534072681510338 34.47832742111083348391 8.41005747878745779644
O  18.13386196671466876751 30.13032741914134859940 8.41005879014760893142
O  17.03161313627075301724 27.68943984350714160314 8.41304221883778069468
O  19.69708354032225372521 32.30416803831757022181 8.41308232676668588113
O  16.87780510966180713694 29.23045500196450063868 6.16703948033280013874
O  16.87843199447343778274 35.37845465842178782623 6.16703765376661117159
O  19.54227536104891171931 33.84518324308155001745 6.16707943900398802839
O  19.54196108731121483970 30.76318307825197351235 6.16708037284256604948
Si 16.87872042373869518883 38.45845522651509895695 7.82303645928705826407
O  15.46977615492787627716 39.09359903757530219082 8.41001440128286859022
O  18.13480302856679315937 39.36032777491941914150 8.41005555188522002652
O  17.03255432092758425711 36.91943977511237306999 8.41303947276276531397
O  16.87874623705283028130 38.46045460919727076998 6.16703645965424662734
O  20.79783428681332324572 29.86305523083198210088 8.41010005886596800906
O  20.79833211843414986220 34.74505628398061674034 8.41009857307235186852
H  4.07465744324224043993 24.98677205265774858844 8.03659115764968134954
H  1.41040902777590204664 29.60201490116430278476 8.03674929053328845896
H  1.41040896422454409276 35.00798499518037942835 8.03674923672611818404
H  4.07465743725784879103 39.62322797124203077601 8.03659115961417214180
H  8.94818084596058582747 22.17325470568435719088 8.03830168967930980273
H  8.94818087814999607588 42.43674530330850558357 8.03830168073283424235
H  14.27776168941254830713 22.17320385937307491986 8.03828219317729519844
H  14.27776174180138291092 42.43679617909803170051 8.03828218255535631442
H  18.96055658459104265035 24.87622777406906493525 8.03640577895346197579
H  18.96055653572373600468 39.73377222691217269812 8.03640577810972800421
H  21.62471722990656530783 29.49141993093000735371 8.03658340868157949899
H  21.62471723486888919297 35.11858007472244480596 8.03658341033495204897
H  13.43954240365052221762 34.27033906490817827262 5.76911863180860962075
H  10.79702477813638950010 34.91824966683270758949 5.76839602512621141273
H  8.90770698651046188843 32.96594596024773693443 5.76499475743869105315
H  9.65945432586893915072 30.34299408979409307108 5.76888004824337485843
H  12.30259135004241066724 29.68912271652831691426 5.76803922021817783161
H  14.18560353727479217412 31.64418151724217764809 5.76552258520566240918
H  13.46208428945891455442 39.53603768340078516985 5.76468154383232089799
H  10.78553467875011051547 38.90473306684846477310 5.77122838979493035794
H  8.14831461413829138962 39.50994490522015212264 5.76699955024922861213
H  6.23317386331123657328 37.58286576073258089536 5.76180503532591181681
H  5.45415701503696848107 34.93908509296485931372 5.77152547601908150199
H  3.60566385619557294717 32.96814931541513971069 5.76410509306854379474
H  4.32812544783509878243 30.34544671028452000883 5.76331959753947753455
H  6.21212641734582771136 28.34933201929089818805 5.76816828336533937716
H  7.00946743518181047961 25.75759722096389836565 5.76754704220079261745
H  9.64012207152801359200 25.06582757734446786912 5.76488469559191329949
H  12.31500792587065085115 25.70853944758980347274 5.77192568438618636151
H  14.95343799103457271826 25.09203406409837455726 5.76610003212238453330
H  16.85241664003442352282 27.02653749638517055587 5.76116217507355798944
H  17.64630213768990429912 29.66655897901635441372 5.77122747423504911524
H  19.48194552527693446109 31.64158903495754415758 5.76482831429927156108
H  18.77355784183434650458 34.27390176098423069107 5.76498788539668449715
H  16.88031298448066053197 36.26100719889105050697 5.76894103301814809015
H  16.09309773683396471711 38.86024083805587281404 5.76722976416063115579
O  11.01153520673215169268 26.58666185512636559451 11.06790453710969401868
P  10.57181978382127951477 27.99114726518251217158 10.94794648409802384492
C  9.32950588680297521194 27.57622893409890352245 13.18956800780645011173
H  9.89900459749026673251 26.63911786355890143341 13.22307353595039813854
H  8.35742392412613455122 27.37324300792216291711 12.72113786917033806390
O  10.04358783646083530527 28.51422680636090589701 12.45482932255190178239
C  9.07103155933958582580 28.08951254688365040124 14.60689508531944724723
H  8.55756292070244128922 27.30549985016211422817 15.18428661764101228471
O  10.29262462430415681069 28.40757401805250381699 15.28385038387005678828
C  8.21748844943913780980 29.36578379327216481443 14.66066090835598956232
H  8.48365577920588265215 30.01305840573646932512 13.81646627080160172341
O  6.85081526988500932873 29.05357064819283863244 14.61569015141597738250
C  8.71291172212215059290 30.01347983682512676751 15.96896935221921509651
H  8.56132914090356145209 31.09971900470819150542 15.96622835575465515490
O  8.17701078671485426241 29.43271329607113528937 17.11937947262536852122
H  7.20605455492412350083 29.64459606700324201256 17.09215446130136939473
C  10.20555770915733084792 29.65480655931371956058 15.90063031083408873201
H  10.62516096192167935897 29.58422973132554645304 16.91548102320437863000
N  11.73827792652796375705 34.56593002022169969223 15.78351308672474218042
C  11.15630946239699383682 33.84228248164880170634 16.73073707735651183270
H  10.91758021982221649182 34.38225012696177174121 17.64063674728468100739
N  10.80515785112172544302 32.57205830276947722268 16.71773746576106134398
C  11.14765481548429626457 31.95708038048776700180 15.57928912121863618268
C  11.84492737694455577468 32.58110681148991716327 14.52661501034842395086
C  12.07472758494111886307 33.95943788284773745545 14.63625212734027414285
N  12.65516437155278595128 34.67365634284765008033 13.64023658769539792956
H  12.55213546566451476849 35.67302951098397301166 13.72376821109718036951
H  12.50098311010900253848 34.29278348352043792602 12.70430848625712272337
N  12.09525221829778018900 31.67018919427745871076 13.54081872477373060804
C  11.55095028284072711244 30.56495232986143051335 13.94542980843625201715
H  11.52473313111767794226 29.66043619246508100673 13.37055037710801919104
N  10.95668295147518023214 30.66641469433936606492 15.17855501506388549160
O  9.16116443247418033025 28.06987833171306334634 10.14459064972774271496
H  8.91629710242334638792 28.99716773349317477937 10.16124439167616877455
O  11.49844795958756371590 29.09023376395324689270 10.52384738592991730854
P  5.73176992744413116299 30.10194253883761206225 15.15877901385279180602
C  5.72787149616864965651 32.65625055092964146297 14.82488275265721888729
H  6.40598973867979015751 33.42969396356835432016 15.20503098245883677464
H  4.94688429718104050181 32.46145366534385345858 15.57070215220290876346
O  6.46767493640370982888 31.49640732180445112931 14.61201466651376179584
C  5.08320849903051197316 33.18687825176377970138 13.53510359630902826211
H  4.20500324818666193494 33.79552686490667667840 13.80072179013529520830
O  5.98685909587066955595 34.02019063469872151018 12.81774831246187673628
C  4.66629877190826736211 32.07292527418032079822 12.55861567762872788023
H  5.38634491128588877018 31.25664715846162167168 12.65031132781882661220
O  3.36734917369861008751 31.59419243042812297517 12.76441675183279755856
H  3.50728526256529882232 30.85860045331784462519 13.41098969146036878897
C  4.85623334781347448796 32.76027056107604096269 11.19934385631679418793
H  5.00050545271797730607 32.05064323762223210679 10.37929040207252207040
O  3.76919729949105519751 33.60892445439118603190 10.91031726030830029117
H  2.98390653983269160676 33.09796069052790556952 11.14670576333345053399
C  6.11023297791824226977 33.58941249509174298282 11.48039549249656054997
H  6.17751934920705458865 34.48568867202390464399 10.85258527697033059667
N  11.19782700752367787800 33.88009729825174076723 11.26417837953326639422
C  10.24914674394166169691 34.78737549019497521385 11.43063293304408389872
H  10.60148386102767936734 35.80394030337639321715 11.57036819215765888202
N  8.94037095888952570988 34.63961532946282773082 11.44813541998006911626
C  8.58065425630208800101 33.35741573950637928192 11.30723454306111008805
C  9.46631532456632740491 32.28810937190964125421 11.13034954416919752873
C  10.84665441390316154013 32.58939217684510225581 11.04505651425888146377
N  11.76373155307232387656 31.69803089063636036826 10.72783640427045526167
H  12.72582968052214447141 31.98688689354252545627 10.73326653999148305729
H  11.54799373983913390873 30.67651839488502929498 10.66660503628331113646
N  8.75310023967082528884 31.12553585107107778640 11.00837882311554061232
C  7.50988354476361585910 31.46898793269010852214 11.11685143839076062022
H  6.70851190339027247944 30.76231284540477517453 11.04802783073853866824
N  7.31855364895595794650 32.82031106427353250865 11.28897446130154769151
O  5.68910606701126120299 30.15554510869353777025 16.65353797384345213572
O  4.44713102449515229608 29.85282420188744012535 14.44868190590527134987
