159
8 Eopt=-404.2339918026 (Eh) Einter=-3.486262 (kcal/mol)
Si 3.55625020091248167375 33.84481352094506689809 7.82283052201113626722
Si 3.55593643389249347564 30.76681380035558532882 7.82283154259920898710
O  2.14730563626342352279 34.47995711994151690760 8.40980825228285056028
O  2.14686231232209578934 30.13195803583317911034 8.40980965579543315869
O  3.71008409092743463020 32.30579812200414835388 8.41283349745315156554
O  3.55527628661681216471 33.84681297512248931980 6.16683050788658082553
O  3.55496201769244102309 30.76481348579137176102 6.16683147487310190371
Si 6.21946584480272690598 26.15154206420043081494 7.82287394291815907366
Si 8.88330922187769189691 24.61427032401041259391 7.82291553936375994027
O  4.81039181785139291492 25.51668623361788945658 8.40985212616974031619
O  7.47536479395445230267 25.24941401048368661009 8.40989357926338421123
O  9.03814384527314196305 23.07525464025338024499 8.41291806295226329837
O  6.21949137420775688412 26.14954191097379521125 6.16687394252825882290
O  8.88333532815011928108 24.61627018286714374540 6.16691554278132070266
Si 6.21977962393966343768 29.22954204742325146071 7.82287345359716645987
Si 6.22040692126635441639 35.38154177554440593667 7.82287164740847451583
Si 8.88424997372042923871 33.84427030600879504618 7.82291390360383687153
Si 8.88393627345492831182 30.76627033254123588790 7.82291461930009646153
O  4.81083516372948860607 29.86468575612141052034 8.40985124566901554033
O  4.81133299191564756114 34.74668572102363839349 8.40984985007364294063
O  7.47630577822904029972 34.47941390572291453509 8.40989153896610019956
O  7.47586238220132415222 30.13141404112214161159 8.40989278179333332730
O  6.37361356791778987940 27.69052643166633842498 8.41287611826756709377
O  9.03908401599785449321 32.30525460481805311019 8.41291660690274056833
O  6.21980561807517684514 29.23154161745424417518 6.16687339917323562588
O  6.22043261276401082682 35.37954121465891432763 6.16687165674161263951
O  8.88427617633353783333 33.84626966881157983380 6.16691371907471008740
O  8.88396189371986544359 30.76426992693284745428 6.16691460785400380473
Si 6.22072072695353650573 38.45954163257376734464 7.82287042585763980895
Si 8.88487748069920968419 39.99627012415734128581 7.82291134001241950102
O  4.81177611206585176262 39.09468498200059372039 8.40984815372504712627
O  7.47680359048880394113 39.36141381393477445272 8.40988967862458913771
O  6.37455463707932157291 36.92052623435739633351 8.41287353300683804491
O  9.04002568676797402247 41.53525449095295130064 8.41291308320957753608
O  6.22074678867999075749 38.46154079938322212229 6.16687044344469548207
O  8.88490323242241153423 39.99426933412464535422 6.16691135647871124803
Si 11.54846571792414877677 26.15099868106790381717 7.82295700252503856120
Si 14.21330911524397500045 24.61372707148688121492 7.82299879355573857254
O  10.13939191739945222537 25.51614235717970657902 8.40993507895328207269
O  12.80436465476668672636 25.24887073989525987372 8.40997670913079709010
O  14.36714372383596227678 23.07471151549049892537 8.41300136418248989401
O  11.54849138122487950397 26.14899848871601051314 6.16695698360271826743
O  14.21233531506010194789 24.61572701498556270394 6.16699878195080763987
Si 11.54877943963798081484 29.22899846189529426965 7.82295639885916926914
Si 11.54940670218019072024 35.38099839355065512336 7.82295464414178987056
Si 14.21424990768835527888 33.84372687204935914451 7.82299674387360788330
Si 14.21393596486482024943 30.76572652029662080508 7.82299719633104206906
O  10.13983509977106756139 29.86414238648621477523 8.40993444580336557692
O  10.14033300554491745515 34.74614236357129470889 8.40993307598973593997
O  12.80530560456385913426 34.47887075311444959880 8.40997475053073273443
O  12.80486215693143670080 30.13087097537719216689 8.40997608705463228773
O  11.70261351091132162594 27.68998305790932690229 8.41295916835679591372
O  14.36808381296986247833 32.30471145631751994642 8.41299985005365691393
O  11.54880547209526220342 29.23099831308860530044 6.16695651568874314563
O  11.54943231725451369130 35.37899799275589884928 6.16695485803648857370
O  14.21327586882827631598 33.84572642750715942839 6.16699678660516159567
O  14.21296161505329891384 30.76372680892746913628 6.16699782217859038269
Si 11.54972067167466498461 38.45899842088138598228 7.82295358627992953870
Si 14.21487735437299448904 39.99572667202870235315 7.82299441885264457142
O  10.14077631566549442255 39.09414230990844174585 8.40993138671924178595
O  12.80580348301560000834 39.36087060711820839742 8.40997276431540008446
O  11.70355448702089873336 36.91998305836315097395 8.41295668803978102801
O  14.36902552338706762214 41.53471116601042467664 8.41299609908251433410
O  11.54974665232421671135 38.46099771174370829385 6.16695358650733194139
O  14.21390301322436577891 39.99372599953247231497 6.16699440326985914851
Si 16.87746539556536973237 26.15045546496872219677 7.82304011735656334992
O  15.46839169766805355266 25.51559922407694358526 8.41001837236665927833
O  18.13336401970908440262 25.24832717983125007777 8.41005977581195729442
O  16.87749085370814583484 26.14845510381912419007 6.16704011598160839469
Si 16.87777915511269100080 29.22845533518359673053 7.82303945644907905432
Si 16.87840650189827584882 35.38045526468920343177 7.82303765409908891115
Si 19.54224959969729980003 33.84318370440720258330 7.82307943928756266416
Si 19.54193573157126095907 30.76518362494170943933 7.82308037388916055477
O  15.46883496105008326538 29.86359935142168708921 8.41001759390787739790
O  15.46933269706521230091 34.74559911605537365631 8.41001602164638484282
O  18.13430534143041938933 34.47832742194460564633 8.41005747881814258449
O  18.13386195830397795703 30.13032739483005428838 8.41005879727031135928
O  17.03161312219419443181 27.68943982578156948193 8.41304220017841863921
O  19.69708355380156916681 32.30416804197562186118 8.41308232649339515774
O  16.87780511065808042304 29.23045501108364874199 6.16703946852165962866
O  16.87843199487797107849 35.37845465836203118215 6.16703765286740690499
O  19.54227536070774462473 33.84518324331725125376 6.16707943901873090198
O  19.54196108787137831087 30.76318307886031888643 6.16708037264222852514
Si 16.87872042507591885396 38.45845522923681159000 7.82303645966529348499
O  15.46977615170844799763 39.09359903756156029431 8.41001439925358340588
O  18.13480302839202096266 39.36032777489195666476 8.41005555167700968866
O  17.03255432165917682141 36.91943977473275140255 8.41303947227902959582
O  16.87874623682375130329 38.46045460900089096867 6.16703645961211144311
O  20.79783428657594512856 29.86305523294159414149 8.41010005866837495603
O  20.79833211867528319772 34.74505628348857300125 8.41009857287105155876
H  4.07465742972166555802 24.98677204097090864821 8.03659115483566921512
H  1.41040897336405102180 29.60201495659810433381 8.03674925982281251891
H  1.41040900919109191136 35.00798498581899309556 8.03674926214542928449
H  4.07465743434934424272 39.62322796730993701431 8.03659115792120815058
H  8.94818084555747361719 22.17325470602428083566 8.03830168977774128791
H  8.94818088261706279241 42.43674530350585172300 8.03830167890713198631
H  14.27776169566621433660 22.17320385427192519501 8.03828218892368440152
H  14.27776173083791633189 42.43679616591964531835 8.03828219066456739483
H  18.96055658442197255908 24.87622777353365677300 8.03640577880551454371
H  18.96055653564179976911 39.73377222672063169284 8.03640577825111002142
H  21.62471722918978400685 29.49141993063305378087 8.03658340885728783576
H  21.62471723415164603921 35.11858007471559517398 8.03658341049165514391
H  13.43954242285768785337 34.27033906872995316917 5.76911863111934231085
H  10.79702479700406314578 34.91824965571911576490 5.76839602171020882082
H  8.90770700943154736251 32.96594596800443355278 5.76499475694448104690
H  9.65945432577832185927 30.34299409427987725962 5.76888005230667300083
H  12.30259135421852967340 29.68912267853972508647 5.76803922502782739912
H  14.18560353478924440651 31.64418144908464114451 5.76552257094282971650
H  13.46208429033047160317 39.53603768147616648321 5.76468154393125686852
H  10.78553467638421814456 38.90473306804184261409 5.77122839100663664880
H  8.14831461296033232600 39.50994490979925899410 5.76699954991434804441
H  6.23317386393927019839 37.58286575820198294196 5.76180503512401465116
H  5.45415702058553275577 34.93908511250528903247 5.77152547621529432575
H  3.60566386901418489686 32.96814933249613233102 5.76410508748765870735
H  4.32812544231915730109 30.34544671816412986232 5.76331957682179307767
H  6.21212642110888957347 28.34933201591027085442 5.76816828961403427201
H  7.00946743444756403818 25.75759722052585942720 5.76754704184901356712
H  9.64012207087748329570 25.06582757744460110416 5.76488469557678140376
H  12.31500793081319855560 25.70853944584244388238 5.77192568260336891228
H  14.95343798965966009007 25.09203406494474819510 5.76610003215988342617
H  16.85241663926618116420 27.02653749561017093583 5.76116217476399228303
H  17.64630214131683061396 29.66655897893693705214 5.77122747626681409372
H  19.48194552469105289561 31.64158903432484137852 5.76482831411150886680
H  18.77355784187623299886 34.27390176074290195629 5.76498788520307314798
H  16.88031298429471149802 36.26100719861144483502 5.76894103285189174812
H  16.09309773694625178564 38.86024083826630715066 5.76722976411781740325
N  8.14383818315515028985 33.89590961908569965999 11.27122110830592660591
C  6.83331728722730957770 34.21117406132533034224 11.02187010227139829510
N  5.97626005943891591699 33.15683917417764092761 10.95154931340396409212
C  6.28185418866045530706 31.80352979245336797476 11.16220871145346649200
C  7.67698753160587443745 31.58471109298271528587 11.43659639580371489842
C  8.55709562434137360754 32.60753475572005299910 11.45520153324982715048
O  6.44201066778814457336 35.36942489093715380477 10.93624775850504704522
O  5.38418187389109093033 30.98460582832498388939 11.14653080965851827955
C  9.10081202083867069064 34.98871466776579097768 11.15253376194191048398
C  9.04114063300325021544 36.00798533057407979641 12.31792709302594346354
C  10.53256375419747215005 36.39055922994108271951 12.52078736846995177245
C  11.29907232351424362093 35.43807728940867463052 11.56080981496181081525
O  10.78541692471932300634 37.74362165873927210669 12.27524474261159070920
O  10.37407303692353721658 34.47273038869015948649 11.11973634971512048253
C  12.45285852752028610269 34.67105662015141831489 12.21889124758850186936
O  13.03520564891209509994 33.76760921173027441000 11.35189908562357707922
P  12.34451906345629801365 32.23934216342627934182 11.27876268643467838615
O  11.35081927883929076017 32.13753381391597940819 12.39196480625611052062
O  11.56194858405173597760 32.29079183126986407615 9.83391358928540171291
O  13.45343092540329266171 31.26467877926123151155 11.15008377101873371373
H  5.02597289438598071598 33.37517824889304307590 10.67360247447569499002
H  8.01083017668946162360 30.57563298175323751593 11.59631772659449744367
H  9.62480900004547734738 32.47008356159604858249 11.65784083543608495859
H  8.84771454495976428234 35.53778607129324740299 10.22631910188646031656
H  10.84176708163152724751 36.20783379085598596703 13.55475239063740389156
H  11.67733277630752652954 36.01305126650490961993 10.70432737711243298406
H  10.18931368687480620849 38.02916668827455026758 11.56918170549822377779
H  13.22123952458187190473 35.38184325232110438719 12.54810465945029562818
H  12.03741657013486410222 34.12581641143023603036 13.07797319343772812772
H  12.01532362800001862979 31.57587127351338551762 9.40106225963133823598
O  8.27575616272670089302 37.13372049489841941750 11.98546586042271755446
H  8.64061962963829444107 35.52003563378582384757 13.21957485968435186408
H  7.47494186466009669090 36.80249414082516778990 11.53258173480268666822
