163
Coordinates from ORCA-job /data/Seafile/amp/al_surf/protonated_al_surf/frames/frame12/dry/amp_al_frame12_dry E -13417.825907310793
  Si      3.452438     33.841709      7.837889
  Si      3.477130     30.741473      7.826241
  O       2.191245     34.642921      8.480919
  O       2.217497     29.931463      8.466561
  O       3.466104     32.289743      8.360472
  O       3.446195     33.853564      6.198771
  O       3.434702     30.817202      6.191462
  Si      6.158753     26.087631      7.804879
  Si      8.853007     24.534824      7.795979
  O       4.860896     25.361714      8.465194
  O       7.518587     25.334010      8.311675
  O       8.819981     23.044323      8.452408
  O       6.116712     26.106430      6.167586
  O       8.805876     24.507865      6.161275
  Si      6.126487     29.171060      7.692865
  Si      6.107627     35.401160      7.714702
  Si      8.855323     33.840886      7.707128
  Si      8.864501     30.757413      7.644989
  O       4.867824     30.013073      8.306833
  O       4.817396     34.605778      8.324446
  O       7.463452     34.610873      8.125967
  O       7.510147     29.950302      8.053154
  O       6.184121     27.655158      8.295211
  O       8.769282     32.272645      8.231582
  O       5.888721     29.108525      6.075140
  O       5.939162     35.508752      6.086377
  O       8.961042     33.792280      6.068009
  O       8.998066     30.862963      6.015886
  Si      6.134341     38.492463      7.697750
  Si      8.860090     40.106493      7.692564
  O       4.952397     39.384792      8.386806
  O       7.557048     39.205980      8.092242
  O       6.171157     36.944743      8.258866
  O       8.594852     41.582405      8.335204
  O       5.960344     38.445769      6.076742
  O       9.098381     40.127680      6.071974
  Si     11.526587     26.080152      7.684622
  Si     14.193800     24.529787      7.784295
  O      10.184603     25.365327      8.282649
  O      12.880819     25.387541      8.273991
  O      14.005874     23.034205      8.397536
  O      11.469366     25.882118      6.061405
  O      14.206816     24.528263      6.146678
  Si     11.544393     29.242152      7.669316
  Al     11.605017     35.380426      7.795460
  Si     14.260499     33.807781      7.847125
  Si     14.207013     30.755844      7.753466
  O      10.179312     29.960207      8.219348
  O      10.108990     34.616253      8.326819
  O      13.052353     34.636689      8.496404
  O      12.879297     29.951837      8.296487
  O      11.503013     27.665018      8.074312
  O      14.328992     32.245728      8.400166
  O      11.557613     29.423598      6.043327
  O      11.805923     35.129299      6.060264
  O      14.055858     33.693697      6.218095
  O      14.041019     30.894018      6.129451
  Si     11.595123     38.648611      7.744947
  Si     14.333921     40.079901      7.816427
  O      10.240926     39.433468      8.258073
  O      12.942410     39.389104      8.338007
  O      11.549072     37.111770      8.219157
  O      14.536127     41.581173      8.417790
  O      11.698249     38.809344      6.111526
  O      14.351445     40.044884      6.178246
  Si     16.906526     26.037083      7.819948
  O      15.551503     25.265448      8.325992
  O      18.189750     25.276582      8.471367
  O      16.890992     26.000951      6.183851
  Si     16.914120     29.123431      7.733413
  Si     17.027288     35.347890      7.750599
  Si     19.682321     33.775782      7.807397
  Si     19.578514     30.671372      7.816378
  O      15.523007     29.872399      8.129383
  O      15.715144     34.496320      8.180238
  O      18.354631     34.583745      8.331663
  O      18.182887     29.965469      8.322712
  O      16.866733     27.599541      8.323599
  O      19.632446     32.222983      8.336779
  O      17.065497     28.983266      6.109710
  O      17.202574     35.385664      6.121125
  O      19.654759     33.729228      6.170667
  O      19.568329     30.660274      6.178075
  Si     16.972742     38.441822      7.806428
  O      15.631927     39.217931      8.337051
  O      18.346705     39.077311      8.407938
  O      16.935675     36.879602      8.314562
  O      16.961428     38.430824      6.168018
  O      20.787476     29.776672      8.437152
  O      21.061300     34.412032      8.396560
  H       4.074657     24.986772      8.036591
  H       1.410409     29.602015      8.036749
  H       1.410409     35.007985      8.036749
  H       4.074657     39.623228      8.036591
  H       8.948181     22.173255      8.038302
  H       8.948181     42.436745      8.038302
  H      14.277762     22.173204      8.038282
  H      14.277762     42.436796      8.038282
  H      18.960557     24.876228      8.036406
  H      18.960557     39.733772      8.036406
  H      21.624717     29.491420      8.036583
  H      21.624717     35.118580      8.036583
  H      13.224845     34.176363      5.958901
  H      11.026870     34.757607      5.633824
  H       8.961289     32.895268      5.703711
  H       9.786950     30.429240      5.655304
  H      12.335723     29.903689      5.713523
  H      14.020932     31.830800      5.849527
  H      13.530863     39.697792      5.793634
  H      10.906184     39.188024      5.702984
  H       8.347230     40.295663      5.495893
  H       5.927052     37.547367      5.715624
  H       5.222931     34.969095      5.722002
  H       3.419593     32.975931      5.792072
  H       4.086648     30.258311      5.745162
  H       6.000661     28.231928      5.681582
  H       6.834476     25.627150      5.733319
  H       9.600511     24.853285      5.730243
  H      12.278975     25.536686      5.661327
  H      14.968583     24.973147      5.749923
  H      17.022394     26.862959      5.762972
  H      17.771278     29.518876      5.720498
  H      19.583057     31.537121      5.769598
  H      18.946991     34.256973      5.771450
  H      17.090887     36.257027      5.717314
  H      16.195518     38.867909      5.770204
  P       4.021152     36.666418     12.055530
  O       4.524006     35.272934     11.858673
  O       3.277354     37.350594     10.963169
  O       3.110289     36.745395     13.383815
  O       5.255510     37.601067     12.555405
  C       6.279369     37.896287     11.623391
  C       7.592471     38.016549     12.359250
  O       7.968008     36.759203     12.950241
  C       8.744345     38.414021     11.459751
  O       9.698497     39.140978     12.197577
  C       9.332587     37.060611     11.040820
  O      10.711104     37.126082     10.822760
  C       9.040304     36.190165     12.268400
  N       8.705351     34.807303     11.942260
  C       7.452359     34.269856     11.796642
  N       7.475889     32.986222     11.532100
  C       8.803717     32.672452     11.495207
  C       9.456474     31.457472     11.257158
  N       8.854115     30.308738     11.038553
  N      10.811310     31.551170     11.268628
  C      11.490299     32.702345     11.519307
  N      10.932264     33.843175     11.771686
  C       9.588294     33.792935     11.744616
  H       3.421159     36.132521     14.059821
  H       6.346711     37.121734     10.852032
  H       6.063395     38.848677     11.127289
  H       7.481856     38.732340     13.177341
  H       8.397813     38.985044     10.593680
  H      10.557601     38.911754     11.812122
  H       8.800509     36.671070     10.168837
  H      10.909190     37.127264      9.865138
  H       9.933118     36.145462     12.899840
  H       6.544980     34.856031     11.903202
  H       7.847343     30.275544     11.028295
  H       9.363481     29.462116     10.841168
  H      12.568944     32.607672     11.496270
  H      11.361971     30.719694     11.089711
163
Coordinates from ORCA-job /data/Seafile/amp/al_surf/protonated_al_surf/frames/frame12/dry/amp_al_frame12_dry E -13417.391023048824
  Si      3.449070     33.846481      7.862191
  Si      3.471773     30.745791      7.843239
  O       2.176796     34.641659      8.480253
  O       2.208154     29.923701      8.467590
  O       3.459430     32.286468      8.371140
  O       3.438140     33.838379      6.214909
  O       3.433329     30.803807      6.202659
  Si      6.157114     26.084213      7.825117
  Si      8.852817     24.534990      7.821293
  O       4.851573     25.355655      8.469009
  O       7.516201     25.329329      8.330771
  O       8.819623     23.033277      8.457334
  O       6.121632     26.089109      6.183959
  O       8.814176     24.513827      6.183284
  Si      6.116815     29.168652      7.704323
  Si      6.097188     35.405639      7.721586
  Si      8.849170     33.848987      7.709400
  Si      8.854186     30.761260      7.649432
  O       4.862400     30.009107      8.313361
  O       4.813269     34.609363      8.329083
  O       7.459687     34.614964      8.123181
  O       7.500720     29.950621      8.058421
  O       6.179183     27.650535      8.307306
  O       8.761994     32.271959      8.229583
  O       5.879382     29.086184      6.084420
  O       5.916762     35.513035      6.090049
  O       8.963560     33.783437      6.070221
  O       9.002399     30.844298      6.019529
  Si      6.133008     38.495196      7.700751
  Si      8.858172     40.104174      7.711762
  O       4.952003     39.394576      8.374710
  O       7.557284     39.209363      8.101827
  O       6.168736     36.948713      8.250007
  O       8.595380     41.591933      8.335304
  O       5.983804     38.449128      6.074173
  O       9.084789     40.122500      6.084019
  Si     11.526576     26.078200      7.716346
  Si     14.196343     24.530031      7.814191
  O      10.183320     25.362972      8.308709
  O      12.882125     25.384332      8.300898
  O      14.007297     23.022799      8.404858
  O      11.476528     25.868872      6.092100
  O      14.218166     24.533510      6.173518
  Si     11.543840     29.244884      7.687459
  Al     11.601410     35.386151      7.811225
  Si     14.259145     33.820013      7.877062
  Si     14.210573     30.766266      7.790981
  O      10.170561     29.962573      8.232584
  O      10.100452     34.620515      8.333564
  O      13.048522     34.643400      8.511560
  O      12.873562     29.955344      8.326384
  O      11.500211     27.665918      8.096529
  O      14.326056     32.252032      8.433436
  O      11.578006     29.426275      6.062182
  O      11.808474     35.123137      6.078900
  O      14.062162     33.696227      6.247032
  O      14.050236     30.904888      6.166432
  Si     11.601888     38.653644      7.773648
  Si     14.338210     40.082967      7.852872
  O      10.241939     39.438252      8.274947
  O      12.947487     39.397616      8.371909
  O      11.546082     37.115593      8.234276
  O      14.540228     41.597581      8.428668
  O      11.705134     38.832839      6.139809
  O      14.355556     40.041598      6.212004
  Si     16.907199     26.039230      7.855455
  O      15.554849     25.259869      8.354543
  O      18.199894     25.267068      8.480148
  O      16.885919     26.015267      6.216068
  Si     16.915288     29.125117      7.781851
  Si     17.027511     35.351643      7.794879
  Si     19.680822     33.777962      7.841560
  Si     19.579990     30.673622      7.851726
  O      15.524880     29.876790      8.169995
  O      15.715047     34.505419      8.213271
  O      18.360736     34.586079      8.367395
  O      18.188791     29.965235      8.359726
  O      16.870211     27.596113      8.363653
  O      19.640157     32.223348      8.366787
  O      17.074212     28.982533      6.156353
  O      17.212845     35.396863      6.163564
  O      19.639458     33.728584      6.202087
  O      19.565134     30.669367      6.209997
  Si     16.975460     38.444292      7.842222
  O      15.640825     39.226928      8.369148
  O      18.360979     39.085548      8.418866
  O      16.941604     36.885793      8.349240
  O      16.958400     38.435501      6.200442
  O      20.799733     29.771332      8.446436
  O      21.072186     34.418431      8.404218
  H       4.074657     24.986772      8.036591
  H       1.410409     29.602015      8.036749
  H       1.410409     35.007985      8.036749
  H       4.074657     39.623228      8.036591
  H       8.948181     22.173255      8.038302
  H       8.948181     42.436745      8.038302
  H      14.277762     22.173204      8.038282
  H      14.277762     42.436796      8.038282
  H      18.960557     24.876228      8.036406
  H      18.960557     39.733772      8.036406
  H      21.624717     29.491420      8.036583
  H      21.624717     35.118580      8.036583
  H      13.235098     34.191551      5.984052
  H      11.026711     34.759103      5.655940
  H       8.955398     32.885511      5.720708
  H       9.787551     30.399551      5.676069
  H      12.365831     29.900826      5.749974
  H      14.043030     31.847336      5.894709
  H      13.536092     39.687695      5.836962
  H      10.909238     39.202695      5.743037
  H       8.321662     40.269030      5.525940
  H       5.961014     37.547852      5.724212
  H       5.197872     34.973961      5.745930
  H       3.406627     32.958986      5.828811
  H       4.088588     30.245482      5.771258
  H       5.996505     28.210206      5.706340
  H       6.836439     25.602555      5.763405
  H       9.608393     24.862925      5.762816
  H      12.288002     25.526898      5.703940
  H      14.985331     24.972224      5.789442
  H      17.014538     26.880375      5.808224
  H      17.776779     29.522162      5.777117
  H      19.585723     31.548880      5.814553
  H      18.925727     34.254496      5.816558
  H      17.095181     36.267624      5.771355
  H      16.193087     38.877960      5.815071
  P       4.013030     38.100975     11.423827
  O       4.429999     36.702111     11.059890
  O       3.541753     39.085655     10.398484
  O       2.937341     38.052067     12.633853
  O       5.278844     38.739003     12.274974
  C       6.420874     38.969324     11.509209
  C       7.657674     38.609595     12.334200
  O       7.596623     37.186466     12.692527
  C       8.974383     38.792245     11.577445
  O      10.052464     39.073999     12.482514
  C       9.181656     37.373224     10.931656
  O      10.564202     37.061214     10.802386
  C       8.506563     36.426639     11.955609
  N       7.737864     35.301048     11.296024
  C       6.337636     35.248356     10.995086
  N       5.970794     34.075329     10.417400
  C       7.163002     33.352661     10.318931
  C       7.421387     32.049673      9.779440
  N       6.473594     31.198484      9.257767
  N       8.767501     31.671028      9.813376
  C       9.791687     32.469076     10.367811
  N       9.603582     33.669026     10.913784
  C       8.281027     34.091400     10.863675
  H       3.103933     37.279368     13.188552
  H       6.388296     38.318378     10.625614
  H       6.467372     40.028518     11.167013
  H       7.675743     39.194511     13.266805
  H       8.881205     39.595189     10.817236
  H      10.849364     38.654796     12.096007
  H       8.623470     37.301221      9.974541
  H      10.829650     37.106376      9.860405
  H       9.301188     35.953202     12.595005
  H       5.612431     36.088294     11.228896
  H       5.479394     31.517375      9.221762
  H       6.718524     30.271239      8.851597
  H      10.806215     32.011605     10.318780
  H       9.041291     30.750485      9.410186
163
Coordinates from ORCA-job /data/Seafile/amp/al_surf/protonated_al_surf/frames/frame12/dry/amp_al_frame12_dry E -13417.803151228030
  Si      3.451482     33.847218      7.877122
  Si      3.474891     30.744240      7.843235
  O       2.173240     34.639702      8.487251
  O       2.210228     29.922087      8.465811
  O       3.459822     32.284091      8.378406
  O       3.452790     33.844540      6.230485
  O       3.440923     30.808255      6.203252
  Si      6.158355     26.081028      7.824557
  Si      8.853301     24.533637      7.828144
  O       4.851737     25.355115      8.468403
  O       7.515470     25.326753      8.334445
  O       8.818083     23.031207      8.460121
  O       6.125455     26.086038      6.183551
  O       8.819609     24.516713      6.190204
  Si      6.120757     29.162886      7.700078
  Si      6.100356     35.411295      7.768973
  Si      8.849247     33.849726      7.757843
  Si      8.863348     30.757689      7.670581
  O       4.865012     30.003595      8.310038
  O       4.811143     34.610274      8.360335
  O       7.458979     34.615414      8.174651
  O       7.505177     29.944604      8.060016
  O       6.180949     27.646777      8.304346
  O       8.764494     32.267774      8.257397
  O       5.884977     29.082770      6.080142
  O       5.933611     35.520033      6.136755
  O       8.966512     33.795542      6.118831
  O       9.022622     30.852995      6.042316
  Si      6.136691     38.500730      7.740217
  Si      8.858122     40.103890      7.742938
  O       4.947347     39.402701      8.392117
  O       7.558482     39.214029      8.145500
  O       6.168420     36.957954      8.302630
  O       8.595965     41.597764      8.347983
  O       6.003262     38.449942      6.112358
  O       9.079812     40.101126      6.114851
  Si     11.527901     26.076431      7.737745
  Si     14.196944     24.529425      7.827347
  O      10.182870     25.358944      8.323066
  O      12.883049     25.380451      8.319686
  O      14.007872     23.020147      8.410364
  O      11.478277     25.877288      6.112279
  O      14.216575     24.539833      6.186926
  Si     11.548395     29.240704      7.727331
  Al     11.597338     35.388579      7.880241
  Si     14.253158     33.818244      7.935738
  Si     14.209695     30.764307      7.836723
  O      10.174242     29.955231      8.270310
  O      10.097439     34.617626      8.394957
  O      13.041468     34.640260      8.575519
  O      12.875563     29.950186      8.370530
  O      11.502396     27.660893      8.128028
  O      14.323466     32.248299      8.484508
  O      11.585616     29.425176      6.102569
  O      11.807314     35.135834      6.146541
  O      14.053904     33.699745      6.305671
  O      14.049466     30.909808      6.212952
  Si     11.596680     38.651505      7.805418
  Si     14.336587     40.079854      7.859048
  O      10.243340     39.444914      8.308747
  O      12.947115     39.400968      8.383779
  O      11.541343     37.124505      8.300106
  O      14.540057     41.597164      8.428020
  O      11.693960     38.805624      6.168480
  O      14.345270     40.024082      6.218956
  Si     16.907234     26.039197      7.870107
  O      15.556426     25.256914      8.369301
  O      18.201749     25.264315      8.486068
  O      16.881470     26.022813      6.230969
  Si     16.913804     29.125429      7.811169
  Si     17.022127     35.348904      7.832927
  Si     19.678178     33.778116      7.860772
  Si     19.578177     30.674526      7.869679
  O      15.524744     29.874126      8.209051
  O      15.712073     34.502498      8.265787
  O      18.361091     34.586608      8.397072
  O      18.190204     29.964411      8.385363
  O      16.871832     27.593931      8.386292
  O      19.641936     32.223754      8.386939
  O      17.062644     28.988956      6.184322
  O      17.193746     35.384936      6.200119
  O      19.624900     33.727779      6.221968
  O      19.553413     30.671542      6.228327
  Si     16.973477     38.442268      7.857845
  O      15.640066     39.228639      8.380984
  O      18.360986     39.087867      8.425300
  O      16.940780     36.886963      8.378217
  O      16.951171     38.422547      6.216568
  O      20.802140     29.770810      8.453633
  O      21.074726     34.418678      8.410184
  H       4.074657     24.986772      8.036591
  H       1.410409     29.602015      8.036749
  H       1.410409     35.007985      8.036749
  H       4.074657     39.623228      8.036591
  H       8.948181     22.173255      8.038302
  H       8.948181     42.436745      8.038302
  H      14.277762     22.173204      8.038282
  H      14.277762     42.436796      8.038282
  H      18.960557     24.876228      8.036406
  H      18.960557     39.733772      8.036406
  H      21.624717     29.491420      8.036583
  H      21.624717     35.118580      8.036583
  H      13.227316     34.195981      6.044977
  H      11.028329     34.775071      5.717959
  H       8.959040     32.898507      5.764135
  H       9.808829     30.411989      5.698715
  H      12.372622     29.899548      5.790919
  H      14.041813     31.853095      5.945022
  H      13.521602     39.666254      5.853176
  H      10.897260     39.170563      5.768398
  H       8.314810     40.239444      5.556806
  H       5.983606     37.550424      5.761972
  H       5.217416     34.981558      5.785576
  H       3.424867     32.965693      5.841277
  H       4.098139     30.250669      5.772137
  H       6.002261     28.206388      5.701253
  H       6.840395     25.598692      5.763673
  H       9.615279     24.866645      5.772764
  H      12.289123     25.537749      5.721166
  H      14.982816     24.979607      5.802724
  H      17.008801     26.889500      5.826168
  H      17.761664     29.529880      5.801423
  H      19.571773     31.550163      5.832070
  H      18.908941     34.252823      5.840331
  H      17.072235     36.252287      5.802550
  H      16.184885     38.862490      5.830211
  P       4.076649     37.780966     11.825395
  O       4.609864     36.386907     11.670008
  O       3.439967     38.516427     10.694518
  O       3.092733     37.847803     13.109397
  O       5.313993     38.673520     12.448653
  C       6.383620     38.878234     11.575846
  C       7.689755     38.796016     12.364308
  O       7.799167     37.466190     12.950582
  C       8.939384     38.977800     11.507756
  O      10.018187     39.504434     12.280391
  C       9.262696     37.510691     11.079352
  O      10.653449     37.295538     10.907076
  C       8.741970     36.689870     12.286145
  N       8.064796     35.417407     11.899955
  C       6.677461     35.181366     11.720175
  N       6.414411     33.906525     11.391749
  C       7.664495     33.308172     11.339742
  C       8.029815     31.979499     11.025627
  N       7.136449     30.997088     10.731534
  N       9.403969     31.746639     11.033026
  C      10.356765     32.725561     11.359328
  N      10.061114     33.965683     11.688643
  C       8.710623     34.227027     11.657019
  H       3.373923     37.205610     13.771007
  H       6.378698     38.078201     10.813571
  H       6.295896     39.858775     11.060698
  H       7.688850     39.524633     13.187507
  H       8.726017     39.630341     10.639481
  H      10.829005     39.103245     11.909429
  H       8.677186     37.252347     10.175459
  H      10.874916     37.259266      9.949117
  H       9.610260     36.412822     12.935841
  H       5.884208     35.972224     11.853368
  H       6.128156     31.237000     10.715264
  H       7.422561     30.043670     10.465148
  H      11.414801     32.386800     11.320748
  H       9.754758     30.806382     10.782258
163
Coordinates from ORCA-job /data/Seafile/amp/al_surf/protonated_al_surf/frames/frame12/dry/amp_al_frame12_dry E -13417.824962054645
  Si      3.452285     33.847668      7.873353
  Si      3.475225     30.745090      7.839354
  O       2.175109     34.639015      8.485890
  O       2.212054     29.922584      8.464585
  O       3.461552     32.283842      8.373703
  O       3.449296     33.844881      6.226183
  O       3.437262     30.807927      6.199169
  Si      6.159027     26.081362      7.819493
  Si      8.853521     24.533522      7.822492
  O       4.853316     25.356399      8.466538
  O       7.516434     25.327905      8.327986
  O       8.818536     23.032766      8.458068
  O       6.123777     26.083277      6.178200
  O       8.818630     24.512935      6.184230
  Si      6.120696     29.163536      7.690263
  Si      6.100498     35.411224      7.761183
  Si      8.849769     33.850331      7.746342
  Si      8.863700     30.758987      7.654582
  O       4.866837     30.004591      8.303184
  O       4.811972     34.609553      8.353391
  O       7.459679     34.615200      8.162940
  O       7.505455     29.945379      8.045798
  O       6.182433     27.648036      8.296074
  O       8.764610     32.266737      8.244383
  O       5.880212     29.080866      6.071282
  O       5.930512     35.520878      6.128966
  O       8.968345     33.796908      6.107169
  O       9.022998     30.854248      6.026704
  Si      6.135787     38.500194      7.733719
  Si      8.856996     40.102644      7.735662
  O       4.949513     39.401566      8.387521
  O       7.558220     39.213167      8.137287
  O       6.169217     36.956816      8.295768
  O       8.595858     41.595501      8.344746
  O       6.000501     38.450445      6.105202
  O       9.078480     40.102806      6.106757
  Si     11.528109     26.076521      7.726851
  Si     14.196898     24.529998      7.822527
  O      10.183011     25.360051      8.313594
  O      12.882848     25.381832      8.310883
  O      14.007208     23.021668      8.408288
  O      11.478979     25.872225      6.101538
  O      14.218880     24.536908      6.181692
  Si     11.549456     29.241830      7.712044
  Al     11.597969     35.388224      7.873750
  Si     14.253840     33.818152      7.930935
  Si     14.210249     30.764983      7.827609
  O      10.174585     29.956304      8.252527
  O      10.097078     34.617032      8.385128
  O      13.042126     34.639431      8.570475
  O      12.875168     29.950383      8.357560
  O      11.502845     27.661637      8.112876
  O      14.323564     32.247539      8.477954
  O      11.587768     29.427379      6.087316
  O      11.810205     35.136399      6.140178
  O      14.056185     33.700345      6.300499
  O      14.051555     30.911523      6.203462
  Si     11.594993     38.649827      7.798621
  Si     14.334872     40.078506      7.857789
  O      10.241074     39.442867      8.299440
  O      12.944757     39.399292      8.379798
  O      11.539682     37.123376      8.293385
  O      14.539147     41.595685      8.427699
  O      11.694036     38.806376      6.161879
  O      14.345271     40.024539      6.217217
  Si     16.906905     26.039792      7.866319
  O      15.555520     25.258252      8.364177
  O      18.200557     25.265170      8.484686
  O      16.883594     26.021581      6.226732
  Si     16.914041     29.125747      7.804985
  Si     17.022345     35.348693      7.830476
  Si     19.678061     33.777863      7.859601
  Si     19.578249     30.674646      7.867668
  O      15.525033     29.874284      8.200470
  O      15.712703     34.502295      8.262182
  O      18.361126     34.585934      8.394763
  O      18.189764     29.964652      8.380551
  O      16.871049     27.594363      8.380258
  O      19.641346     32.223408      8.384778
  O      17.066140     28.988178      6.177976
  O      17.195854     35.385927      6.197411
  O      19.626689     33.728324      6.220302
  O      19.556565     30.671847      6.225806
  Si     16.972457     38.441875      7.857157
  O      15.638443     39.227411      8.379538
  O      18.360296     39.087054      8.425276
  O      16.940201     36.886603      8.375913
  O      16.951745     38.423909      6.215355
  O      20.801361     29.770602      8.452955
  O      21.074438     34.418142      8.410004
  H       4.074657     24.986772      8.036591
  H       1.410409     29.602015      8.036749
  H       1.410409     35.007985      8.036749
  H       4.074657     39.623228      8.036591
  H       8.948181     22.173255      8.038302
  H       8.948181     42.436745      8.038302
  H      14.277762     22.173204      8.038282
  H      14.277762     42.436796      8.038282
  H      18.960557     24.876228      8.036406
  H      18.960557     39.733772      8.036406
  H      21.624717     29.491420      8.036583
  H      21.624717     35.118580      8.036583
  H      13.230165     34.196836      6.039503
  H      11.031274     34.775825      5.710232
  H       8.960901     32.900265      5.751346
  H       9.810115     30.412577      5.683232
  H      12.375690     29.902208      5.777186
  H      14.044422     31.854972      5.936666
  H      13.521689     39.667010      5.850681
  H      10.896230     39.171669      5.761967
  H       8.311971     40.241785      5.549932
  H       5.980540     37.550932      5.754213
  H       5.213107     34.982047      5.778926
  H       3.420285     32.965154      5.836987
  H       4.093952     30.249944      5.766587
  H       5.996797     28.202862      5.693589
  H       6.839064     25.594348      5.758798
  H       9.615000     24.862446      5.766065
  H      12.290834     25.531345      5.711965
  H      14.986611     24.976170      5.798181
  H      17.011727     26.888837      5.821838
  H      17.766308     29.529429      5.796227
  H      19.575898     31.551241      5.830115
  H      18.910608     34.253994      5.838613
  H      17.074171     36.254268      5.800432
  H      16.185280     38.864462      5.829075
  P       3.871268     38.141046     11.841350
  O       4.173136     36.688755     11.657054
  O       3.277737     38.961867     10.752800
  O       2.977635     38.330164     13.177350
  O       5.245113     38.865856     12.404139
  C       6.342706     38.979803     11.533437
  C       7.655317     38.836134     12.320575
  O       7.776647     37.511593     12.929555
  C       8.906394     38.985002     11.463671
  O       9.980471     39.514782     12.237806
  C       9.238320     37.518027     11.053610
  O      10.629068     37.310893     10.891735
  C       8.729067     36.716828     12.276900
  N       8.093473     35.414311     11.935560
  C       6.731656     35.111373     11.763798
  N       6.523853     33.821430     11.488264
  C       7.789153     33.276592     11.462640
  C       8.207977     31.958982     11.208822
  N       7.363036     30.933246     10.961036
  N       9.581020     31.785006     11.226645
  C      10.484283     32.811153     11.510052
  N      10.139693     34.043638     11.785212
  C       8.787126     34.247591     11.740908
  H       3.203813     37.649061     13.819552
  H       6.281673     38.200442     10.754270
  H       6.326979     39.972355     11.040544
  H       7.667683     39.575880     13.131656
  H       8.696575     39.624805     10.588365
  H      10.794917     39.115684     11.886437
  H       8.663385     37.239878     10.151991
  H      10.862080     37.267421      9.938540
  H       9.597755     36.472092     12.931268
  H       5.906080     35.868366     11.864938
  H       6.352871     31.129514     10.933724
  H       7.686552     29.987455     10.740808
  H      11.549139     32.515318     11.487244
  H       9.969781     30.855986     11.017805
163
Coordinates from ORCA-job /data/Seafile/amp/al_surf/protonated_al_surf/frames/frame12/dry/amp_al_frame12_dry E -13417.836214993233
  Si      3.453453     33.847200      7.855964
  Si      3.475623     30.745601      7.827489
  O       2.181211     34.636253      8.478815
  O       2.216962     29.923321      8.461075
  O       3.466115     32.283379      8.357559
  O       3.435919     33.841162      6.208247
  O       3.426898     30.803272      6.187162
  Si      6.160263     26.081940      7.809780
  Si      8.853933     24.533643      7.811683
  O       4.856556     25.359376      8.463392
  O       7.518431     25.330587      8.316015
  O       8.819648     23.036414      8.454645
  O       6.119857     26.075692      6.168153
  O       8.815291     24.504629      6.173043
  Si      6.119975     29.164162      7.666167
  Si      6.100325     35.409135      7.720705
  Si      8.851532     33.851831      7.698554
  Si      8.862436     30.761322      7.609129
  O       4.870606     30.006660      8.285020
  O       4.815976     34.607106      8.322407
  O       7.461682     34.614457      8.114069
  O       7.505732     29.947509      8.009085
  O       6.185767     27.651141      8.278089
  O       8.764187     32.267002      8.198713
  O       5.866858     29.073447      6.049846
  O       5.917571     35.517854      6.089236
  O       8.974337     33.796036      6.059563
  O       9.019963     30.851396      5.981522
  Si      6.134533     38.497123      7.696350
  Si      8.855968     40.101656      7.705464
  O       4.959462     39.396580      8.363669
  O       7.558179     39.209835      8.097776
  O       6.173128     36.951436      8.254188
  O       8.594172     41.588167      8.330697
  O       5.992590     38.449058      6.067055
  O       9.082159     40.116905      6.076144
  Si     11.527558     26.077430      7.701974
  Si     14.196293     24.531595      7.810956
  O      10.183264     25.363527      8.293832
  O      12.881786     25.385903      8.290334
  O      14.005304     23.025694      8.403445
  O      11.478812     25.858725      6.077853
  O      14.223509     24.530238      6.169489
  Si     11.549667     29.244803      7.672342
  Al     11.600302     35.387687      7.835959
  Si     14.255920     33.818800      7.900683
  Si     14.210575     30.767227      7.793402
  O      10.172337     29.960660      8.207444
  O      10.096626     34.616513      8.340104
  O      13.043299     34.638759      8.536908
  O      12.873719     29.952748      8.318905
  O      11.502381     27.664718      8.076567
  O      14.323354     32.247677      8.445699
  O      11.589594     29.429780      6.047434
  O      11.818281     35.135907      6.103133
  O      14.062607     33.699977      6.269530
  O      14.053413     30.913993      6.168544
  Si     11.594219     38.648864      7.774433
  Si     14.332797     40.077168      7.853425
  O      10.236974     39.438461      8.268309
  O      12.940442     39.396327      8.367363
  O      11.536777     37.119890      8.259415
  O      14.538014     41.592542      8.427611
  O      11.701269     38.818029      6.139347
  O      14.350273     40.031553      6.211874
  Si     16.905855     26.041207      7.855758
  O      15.553291     25.261625      8.351551
  O      18.197220     25.267801      8.480792
  O      16.887987     26.016679      6.215479
  Si     16.914511     29.126315      7.783006
  Si     17.024086     35.349023      7.813224
  Si     19.678042     33.777222      7.851407
  Si     19.578659     30.674698      7.857997
  O      15.524686     29.875913      8.169269
  O      15.713706     34.502539      8.236865
  O      18.360270     34.584611      8.381036
  O      18.187916     29.965470      8.362381
  O      16.868586     27.596642      8.362329
  O      19.639593     32.222676      8.374371
  O      17.078199     28.982628      6.156838
  O      17.207717     35.392350      6.180642
  O      19.633624     33.729212      6.211176
  O      19.566246     30.672419      6.215270
  Si     16.971027     38.441530      7.851259
  O      15.635953     39.224880      8.373227
  O      18.358623     39.084070      8.423489
  O      16.939237     36.885123      8.362337
  O      16.954861     38.430486      6.208557
  O      20.798241     29.770292      8.449444
  O      21.072574     34.416327      8.407649
  H       4.074657     24.986772      8.036591
  H       1.410409     29.602015      8.036749
  H       1.410409     35.007985      8.036749
  H       4.074657     39.623228      8.036591
  H       8.948181     22.173255      8.038302
  H       8.948181     42.436745      8.038302
  H      14.277762     22.173204      8.038282
  H      14.277762     42.436796      8.038282
  H      18.960557     24.876228      8.036406
  H      18.960557     39.733772      8.036406
  H      21.624717     29.491420      8.036583
  H      21.624717     35.118580      8.036583
  H      13.238441     34.197666      6.006604
  H      11.038789     34.776369      5.670024
  H       8.966452     32.898747      5.703062
  H       9.808588     30.407013      5.638677
  H      12.379998     29.905035      5.739933
  H      14.048057     31.857958      5.903501
  H      13.528027     39.675485      5.840610
  H      10.901627     39.184185      5.738807
  H       8.312933     40.256425      5.520487
  H       5.972027     37.548101      5.715807
  H       5.195754     34.977486      5.744879
  H       3.402672     32.958622      5.820471
  H       4.082381     30.244002      5.751224
  H       5.981810     28.191705      5.675293
  H       6.835499     25.582726      5.749937
  H       9.612583     24.853489      5.752528
  H      12.293504     25.514825      5.692126
  H      14.995169     24.967791      5.787602
  H      17.017502     26.884861      5.809313
  H      17.782180     29.524950      5.778797
  H      19.588981     31.554425      5.821566
  H      18.917230     34.256408      5.828610
  H      17.086044     36.264302      5.786606
  H      16.188032     38.873864      5.823043
  P       3.814648     38.058452     11.908189
  O       4.114216     36.615302     11.670785
  O       3.160328     38.899556     10.880802
  O       2.990579     38.203376     13.293414
  O       5.209622     38.771807     12.424743
  C       6.279616     38.914466     11.525566
  C       7.588432     38.741559     12.288889
  O       7.697736     37.408695     12.850718
  C       8.836828     38.909400     11.441784
  O       9.891706     39.404585     12.242208
  C       9.164039     37.466802     10.983956
  O      10.546074     37.254829     10.834866
  C       8.639157     36.638672     12.173095
  N       7.997608     35.364551     11.790838
  C       6.649571     35.091759     11.609690
  N       6.425160     33.829274     11.306237
  C       7.665280     33.268249     11.269762
  C       8.059237     31.963123     10.995730
  N       7.219454     30.963633     10.738391
  N       9.406179     31.769225     11.008271
  C      10.309942     32.760196     11.308493
  N       9.994594     33.976174     11.607995
  C       8.664533     34.205023     11.566767
  H       3.255848     37.505250     13.897489
  H       6.207407     38.168277     10.724262
  H       6.261261     39.915201     11.068971
  H       7.602511     39.446463     13.124332
  H       8.641968     39.575605     10.593167
  H      10.703403     39.018783     11.888392
  H       8.603445     37.222177     10.073213
  H      10.807052     37.231288      9.891372
  H       9.489302     36.364537     12.816155
  H       5.845430     35.848278     11.725639
  H       6.230383     31.168214     10.710367
  H       7.530402     30.033021     10.513343
  H      11.350435     32.446323     11.279917
  H       9.775030     30.853855     10.781782
163
Coordinates from ORCA-job /data/Seafile/amp/al_surf/protonated_al_surf/frames/frame12/dry/amp_al_frame12_dry E -13417.838388417254
  Si      3.453959     33.847937      7.842626
  Si      3.474459     30.746869      7.816691
  O       2.184763     34.634104      8.470968
  O       2.219332     29.923593      8.456665
  O       3.468786     32.282345      8.342564
  O       3.425639     33.837496      6.193194
  O       3.417259     30.798047      6.175425
  Si      6.160756     26.081662      7.802735
  Si      8.854147     24.533838      7.807728
  O       4.857393     25.361510      8.460107
  O       7.518910     25.332202      8.308202
  O       8.819469     23.037428      8.452666
  O       6.117784     26.066826      6.160171
  O       8.816010     24.500256      6.168081
  Si      6.117563     29.163768      7.643265
  Si      6.099868     35.406978      7.691167
  Si      8.854494     33.854685      7.669331
  Si      8.861888     30.763368      7.576261
  O       4.872978     30.007888      8.267266
  O       4.818243     34.605029      8.296962
  O       7.463570     34.613903      8.079396
  O       7.503965     29.948821      7.976686
  O       6.187041     27.653121      8.261470
  O       8.762577     32.266082      8.167357
  O       5.854179     29.063993      6.029075
  O       5.908186     35.515607      6.059688
  O       8.985022     33.796024      6.030898
  O       9.026140     30.849086      5.949888
  Si      6.133505     38.494830      7.672182
  Si      8.855437     40.100091      7.690743
  O       4.964988     39.391747      8.345636
  O       7.558238     39.207451      8.074963
  O       6.174958     36.946258      8.223558
  O       8.593882     41.584942      8.322018
  O       5.992650     38.448873      6.041362
  O       9.083869     40.122515      6.059881
  Si     11.527394     26.078223      7.694754
  Si     14.196002     24.532687      7.810048
  O      10.182500     25.364962      8.285931
  O      12.881318     25.387397      8.284181
  O      14.004503     23.026061      8.402193
  O      11.480222     25.852074      6.070563
  O      14.226791     24.528077      6.167477
  Si     11.549556     29.246996      7.658900
  Al     11.603797     35.389462      7.825571
  Si     14.258089     33.820282      7.898572
  Si     14.210263     30.769390      7.788257
  O      10.167656     29.963441      8.183936
  O      10.095972     34.616956      8.318020
  O      13.045002     34.639450      8.531739
  O      12.870838     29.954231      8.308701
  O      11.501288     27.666157      8.063018
  O      14.323247     32.247614      8.442125
  O      11.594142     29.430984      6.033901
  O      11.828991     35.138422      6.093690
  O      14.069322     33.699451      6.266693
  O      14.054690     30.916063      6.162737
  Si     11.594683     38.648788      7.763858
  Si     14.332401     40.076563      7.852090
  O      10.235193     39.436950      8.252247
  O      12.939649     39.396389      8.359939
  O      11.536397     37.121599      8.249441
  O      14.537520     41.592311      8.427090
  O      11.705569     38.823713      6.128999
  O      14.353794     40.034505      6.209333
  Si     16.905160     26.042484      7.856080
  O      15.552293     25.262760      8.349223
  O      18.196772     25.267685      8.480202
  O      16.889622     26.016657      6.214602
  Si     16.913921     29.127355      7.781758
  Si     17.025593     35.349748      7.814957
  Si     19.678103     33.777135      7.854387
  Si     19.578316     30.675401      7.860336
  O      15.524406     29.876841      8.164016
  O      15.715926     34.503843      8.236466
  O      18.361933     34.584477      8.382295
  O      18.187454     29.966067      8.360784
  O      16.867441     27.596939      8.359822
  O      19.639674     32.222408      8.375404
  O      17.083290     28.981171      6.155120
  O      17.214114     35.395468      6.181813
  O      19.635457     33.729663      6.212951
  O      19.569510     30.673875      6.216288
  Si     16.970675     38.441973      7.853086
  O      15.635374     39.224817      8.371597
  O      18.359528     39.084238      8.424585
  O      16.939953     36.886251      8.361864
  O      16.957702     38.433757      6.209064
  O      20.798246     29.769255      8.450158
  O      21.074038     34.416053      8.408646
  H       4.074657     24.986772      8.036591
  H       1.410409     29.602015      8.036749
  H       1.410409     35.007985      8.036749
  H       4.074657     39.623228      8.036591
  H       8.948181     22.173255      8.038302
  H       8.948181     42.436745      8.038302
  H      14.277762     22.173204      8.038282
  H      14.277762     42.436796      8.038282
  H      18.960557     24.876228      8.036406
  H      18.960557     39.733772      8.036406
  H      21.624717     29.491420      8.036583
  H      21.624717     35.118580      8.036583
  H      13.246962     34.198534      6.001453
  H      11.050511     34.780907      5.657023
  H       8.977262     32.898886      5.674646
  H       9.816069     30.402810      5.611849
  H      12.386567     29.906225      5.730891
  H      14.051474     31.860818      5.900000
  H      13.531529     39.678350      5.837580
  H      10.904191     39.188557      5.729866
  H       8.311260     40.259853      5.508142
  H       5.973287     37.546985      5.691280
  H       5.183582     34.974066      5.721733
  H       3.389141     32.952999      5.809511
  H       4.071470     30.237554      5.738860
  H       5.968203     28.179429      5.659874
  H       6.833814     25.570279      5.745998
  H       9.614682     24.848913      5.749255
  H      12.296697     25.507591      5.688767
  H      15.000940     24.964768      5.788988
  H      17.019675     26.886254      5.810841
  H      17.788265     29.524699      5.780449
  H      19.594165     31.557362      5.825744
  H      18.918431     34.257792      5.832423
  H      17.091191     36.268746      5.790597
  H      16.190638     38.878768      5.825394
  P       3.844646     37.830663     11.935017
  O       4.249972     36.406966     11.730582
  O       3.139560     38.605008     10.893378
  O       3.015785     37.948106     13.321724
  O       5.194278     38.636088     12.436239
  C       6.238061     38.805714     11.522150
  C       7.552503     38.705916     12.270934
  O       7.715761     37.400588     12.868131
  C       8.779732     38.897898     11.404107
  O       9.819735     39.452437     12.174528
  C       9.150818     37.460048     10.983366
  O      10.531790     37.286609     10.823809
  C       8.672565     36.653797     12.203280
  N       8.088001     35.339781     11.884543
  C       6.756315     34.992423     11.732826
  N       6.599879     33.710759     11.491716
  C       7.862085     33.212875     11.469157
  C       8.322746     31.922414     11.256453
  N       7.542940     30.868614     11.055799
  N       9.671663     31.798898     11.266255
  C      10.519868     32.844587     11.510134
  N      10.143710     34.050726     11.751655
  C       8.809043     34.210690     11.709619
  H       3.333459     37.278469     13.931249
  H       6.192808     38.038503     10.744610
  H       6.171419     39.787491     11.036622
  H       7.549166     39.430462     13.087322
  H       8.553163     39.530623     10.540911
  H      10.638677     39.085289     11.819747
  H       8.591796     37.169909     10.088565
  H      10.795783     37.250184      9.883409
  H       9.537731     36.438626     12.839933
  H       5.915776     35.704580     11.821195
  H       6.549205     31.016993     11.020140
  H       7.905018     29.952590     10.871517
  H      11.568820     32.583053     11.489133
  H      10.085248     30.898929     11.078438
163
Coordinates from ORCA-job /data/Seafile/amp/al_surf/protonated_al_surf/frames/frame12/dry/amp_al_frame12_dry E -13417.840894647428
  Si      3.454208     33.847625      7.831473
  Si      3.475035     30.746118      7.807457
  O       2.185483     34.628053      8.463051
  O       2.222706     29.920736      8.451695
  O       3.471669     32.279559      8.328507
  O       3.417140     33.830393      6.180256
  O       3.412298     30.789817      6.165027
  Si      6.162238     26.079830      7.803165
  Si      8.855536     24.534280      7.816883
  O       4.856673     25.362309      8.459339
  O       7.518563     25.331516      8.311407
  O       8.817977     23.035408      8.455668
  O       6.122018     26.056591      6.159356
  O       8.822251     24.502594      6.175852
  Si      6.117752     29.160952      7.625447
  Si      6.097528     35.408170      7.664486
  Si      8.855803     33.858622      7.644746
  Si      8.866028     30.763151      7.557959
  O       4.876391     30.006348      8.251913
  O       4.819470     34.603774      8.273544
  O       7.463020     34.615064      8.046028
  O       7.504930     29.947281      7.951320
  O       6.189422     27.653188      8.251495
  O       8.759894     32.266117      8.142164
  O       5.845221     29.050216      6.013225
  O       5.896407     35.514115      6.032901
  O       8.999265     33.793762      6.007607
  O       9.045065     30.840492      5.933516
  Si      6.134672     38.496035      7.646167
  Si      8.858830     40.099637      7.676234
  O       4.973102     39.394459      8.320987
  O       7.560966     39.207141      8.050469
  O       6.177861     36.945911      8.193149
  O       8.593484     41.582701      8.311003
  O       5.999463     38.448100      6.013946
  O       9.091867     40.128320      6.044054
  Si     11.527744     26.078894      7.712475
  Si     14.196285     24.534010      7.823307
  O      10.181764     25.363995      8.298221
  O      12.882041     25.386240      8.298204
  O      14.004581     23.023450      8.406603
  O      11.481958     25.851041      6.087390
  O      14.227997     24.534354      6.179415
  Si     11.551451     29.247304      7.677654
  Al     11.604538     35.391545      7.827607
  Si     14.256046     33.820536      7.914269
  Si     14.209811     30.771118      7.808144
  O      10.163405     29.965041      8.189310
  O      10.091172     34.617990      8.303942
  O      13.041012     34.639099      8.541083
  O      12.870117     29.954414      8.328362
  O      11.500782     27.665649      8.079725
  O      14.321885     32.247800      8.460198
  O      11.602935     29.427485      6.052259
  O      11.841117     35.136651      6.098010
  O      14.071780     33.691264      6.282100
  O      14.051523     30.915853      6.182222
  Si     11.600058     38.649859      7.757506
  Si     14.335723     40.076898      7.854215
  O      10.238253     39.438938      8.237324
  O      12.942677     39.398632      8.357122
  O      11.535806     37.125471      8.245631
  O      14.540365     41.593961      8.427217
  O      11.717011     38.829622      6.122793
  O      14.361098     40.035538      6.210101
  Si     16.904428     26.044029      7.869572
  O      15.553448     25.261086      8.360918
  O      18.198405     25.264942      8.484346
  O      16.885530     26.021862      6.226702
  Si     16.913247     29.128012      7.798996
  Si     17.024181     35.348681      7.828996
  Si     19.676041     33.777184      7.865814
  Si     19.577362     30.676504      7.872374
  O      15.524941     29.877089      8.180139
  O      15.714910     34.504591      8.250192
  O      18.362521     34.584440      8.394454
  O      18.188802     29.966094      8.373141
  O      16.868121     27.596198      8.374374
  O      19.641376     32.222488      8.385564
  O      17.085767     28.978642      6.171678
  O      17.218345     35.395405      6.195289
  O      19.628849     33.727942      6.223241
  O      19.565454     30.677421      6.226872
  Si     16.971572     38.440701      7.860469
  O      15.638235     39.226615      8.374439
  O      18.362615     39.084004      8.427692
  O      16.941118     36.886986      8.369962
  O      16.958609     38.431683      6.215017
  O      20.799802     29.767653      8.454481
  O      21.076257     34.415835      8.411681
  H       4.074657     24.986772      8.036591
  H       1.410409     29.602015      8.036749
  H       1.410409     35.007985      8.036749
  H       4.074657     39.623228      8.036591
  H       8.948181     22.173255      8.038302
  H       8.948181     42.436745      8.038302
  H      14.277762     22.173204      8.038282
  H      14.277762     42.436796      8.038282
  H      18.960557     24.876228      8.036406
  H      18.960557     39.733772      8.036406
  H      21.624717     29.491420      8.036583
  H      21.624717     35.118580      8.036583
  H      13.253008     34.193574      6.012044
  H      11.063462     34.785239      5.655810
  H       8.989958     32.895961      5.652970
  H       9.836594     30.392005      5.604997
  H      12.398276     29.900848      5.754600
  H      14.052044     31.861555      5.921490
  H      13.538608     39.677245      5.839438
  H      10.912947     39.188359      5.723858
  H       8.314027     40.250610      5.496367
  H       5.981887     37.544187      5.668394
  H       5.168701     34.971530      5.703254
  H       3.377673     32.943168      5.803174
  H       4.067847     30.229113      5.730457
  H       5.960226     28.163160      5.650834
  H       6.839009     25.555680      5.752606
  H       9.622890     24.853378      5.763075
  H      12.300989     25.509978      5.708679
  H      15.004989     24.970576      5.806492
  H      17.013500     26.894449      5.828800
  H      17.789166     29.526227      5.799937
  H      19.591725     31.563521      5.842039
  H      18.908404     34.255893      5.848405
  H      17.090199     36.269545      5.807226
  H      16.190585     38.879527      5.835495
  P       3.855911     38.321440     11.533766
  O       4.210863     36.881737     11.326369
  O       3.290560     39.159853     10.459983
  O       2.919844     38.449709     12.851670
  O       5.204601     39.024775     12.168222
  C       6.305674     39.113765     11.323670
  C       7.561236     38.933231     12.137764
  O       7.608078     37.626269     12.736582
  C       8.833035     39.056937     11.329051
  O       9.867227     39.544297     12.142244
  C       9.127577     37.606497     10.922000
  O      10.493077     37.343913     10.819258
  C       8.546052     36.837920     12.113296
  N       7.921040     35.566185     11.742026
  C       6.585073     35.282220     11.515917
  N       6.396670     34.014011     11.233867
  C       7.636451     33.465921     11.261861
  C       8.059483     32.168320     11.030484
  N       7.245083     31.160978     10.746516
  N       9.401664     31.989133     11.107728
  C      10.274882     32.991668     11.427266
  N       9.925616     34.201527     11.685971
  C       8.604306     34.416562     11.579849
  H       3.154124     37.741763     13.456001
  H       6.257284     38.346309     10.545476
  H       6.334953     40.090437     10.828131
  H       7.562888     39.650003     12.960139
  H       8.688469     39.700925     10.457719
  H      10.674813     39.123199     11.815934
  H       8.594398     37.348929     10.003860
  H      10.778098     37.291923      9.888046
  H       9.363642     36.570757     12.787022
  H       5.770698     36.021657     11.573437
  H       6.265441     31.364697     10.649514
  H       7.572932     30.239553     10.533497
  H      11.315002     32.697330     11.444596
  H       9.791957     31.083432     10.900921
163
Coordinates from ORCA-job /data/Seafile/amp/al_surf/protonated_al_surf/frames/frame12/dry/amp_al_frame12_dry E -13417.843251273973
  Si      3.454876     33.847517      7.831344
  Si      3.476040     30.745062      7.808184
  O       2.184326     34.624599      8.461339
  O       2.223714     29.918302      8.451312
  O       3.472846     32.278105      8.327164
  O       3.415379     33.825966      6.179472
  O       3.412658     30.785648      6.165240
  Si      6.163267     26.078365      7.806802
  Si      8.856397     24.533783      7.822932
  O       4.856063     25.361521      8.460319
  O       7.518696     25.329914      8.315695
  O       8.817567     23.033592      8.458005
  O       6.125069     26.053060      6.162341
  O       8.824288     24.503449      6.181307
  Si      6.118860     29.158746      7.624542
  Si      6.097305     35.409661      7.660076
  Si      8.855314     33.858598      7.635790
  Si      8.869499     30.760694      7.554045
  O       4.878137     30.004670      8.251470
  O       4.820353     34.603328      8.269218
  O       7.463212     34.614728      8.036690
  O       7.507190     29.944803      7.946256
  O       6.191166     27.651697      8.252375
  O       8.759788     32.264660      8.133483
  O       5.842377     29.044131      6.013133
  O       5.893052     35.510868      6.028204
  O       9.003070     33.790713      5.999279
  O       9.052337     30.833095      5.930204
  Si      6.136620     38.496363      7.630105
  Si      8.860300     40.100624      7.668237
  O       4.979816     39.398532      8.301242
  O       7.562247     39.208348      8.035558
  O       6.181253     36.948431      8.183590
  O       8.591692     41.582439      8.303803
  O       6.007810     38.441554      5.997132
  O       9.099338     40.131437      6.036200
  Si     11.528286     26.078098      7.720368
  Si     14.196895     24.534080      7.828959
  O      10.182164     25.362780      8.304918
  O      12.882975     25.385053      8.304116
  O      14.004620     23.022066      8.408396
  O      11.482304     25.847555      6.095208
  O      14.229126     24.536909      6.184485
  Si     11.554160     29.246384      7.685378
  Al     11.603081     35.391014      7.829694
  Si     14.254185     33.820392      7.919812
  Si     14.210268     30.771821      7.814169
  O      10.164438     29.963450      8.193940
  O      10.088531     34.615941      8.298927
  O      13.037970     34.637757      8.544581
  O      12.871899     29.953537      8.335643
  O      11.501969     27.664376      8.086085
  O      14.321863     32.247520      8.466002
  O      11.607321     29.425763      6.059618
  O      11.843979     35.136258      6.100747
  O      14.071064     33.687805      6.287626
  O      14.048930     30.916559      6.188401
  Si     11.599603     38.648349      7.762304
  Si     14.334594     40.076032      7.860364
  O      10.237134     39.439986      8.234290
  O      12.941043     39.399270      8.362688
  O      11.530955     37.124203      8.250198
  O      14.540898     41.594783      8.429145
  O      11.722780     38.829535      6.127802
  O      14.361362     40.033342      6.215732
  Si     16.904418     26.044307      7.875047
  O      15.554577     25.259683      8.365753
  O      18.199127     25.263377      8.485959
  O      16.883903     26.023202      6.231573
  Si     16.913740     29.127806      7.804271
  Si     17.022969     35.348773      7.835380
  Si     19.674694     33.777610      7.870646
  Si     19.576961     30.677348      7.876922
  O      15.525853     29.876930      8.183444
  O      15.713666     34.504642      8.254782
  O      18.362251     34.584906      8.399822
  O      18.189524     29.965956      8.376903
  O      16.868772     27.595812      8.379489
  O      19.642248     32.222837      8.389555
  O      17.089705     28.975311      6.177086
  O      17.221419     35.397393      6.201708
  O      19.624752     33.727651      6.227618
  O      19.563854     30.680145      6.230798
  Si     16.970589     38.440679      7.866455
  O      15.638257     39.227596      8.379833
  O      18.363690     39.084002      8.429894
  O      16.941090     36.887403      8.375153
  O      16.955900     38.431384      6.220420
  O      20.800151     29.766785      8.455750
  O      21.077300     34.415367      8.412416
  H       4.074657     24.986772      8.036591
  H       1.410409     29.602015      8.036749
  H       1.410409     35.007985      8.036749
  H       4.074657     39.623228      8.036591
  H       8.948181     22.173255      8.038302
  H       8.948181     42.436745      8.038302
  H      14.277762     22.173204      8.038282
  H      14.277762     42.436796      8.038282
  H      18.960557     24.876228      8.036406
  H      18.960557     39.733772      8.036406
  H      21.624717     29.491420      8.036583
  H      21.624717     35.118580      8.036583
  H      13.253686     34.192454      6.015928
  H      11.066352     34.788377      5.655837
  H       8.992155     32.892536      5.645418
  H       9.844237     30.383080      5.605220
  H      12.403917     29.898527      5.764078
  H      14.051164     31.863277      5.929418
  H      13.538726     39.673905      5.846234
  H      10.918513     39.184259      5.726597
  H       8.319472     40.243505      5.489161
  H       5.991768     37.536387      5.656432
  H       5.164283     34.967953      5.702716
  H       3.374833     32.937599      5.805988
  H       4.069222     30.225352      5.732176
  H       5.958236     28.156473      5.653229
  H       6.842654     25.550603      5.759033
  H       9.625530     24.855692      5.771189
  H      12.302743     25.508080      5.718122
  H      15.007855     24.972749      5.814669
  H      17.010687     26.897360      5.836529
  H      17.792432     29.525151      5.807178
  H      19.591102     31.567940      5.849520
  H      18.902297     34.255809      5.856251
  H      17.090148     36.271968      5.815752
  H      16.187122     38.880692      5.843971
  P       3.748020     38.174712     11.709764
  O       4.120611     36.746785     11.452218
  O       3.091591     39.018811     10.694233
  O       2.892492     38.251398     13.085764
  O       5.117985     38.896878     12.278110
  C       6.188527     39.009121     11.390133
  C       7.472444     38.855171     12.171291
  O       7.551459     37.547003     12.761094
  C       8.737043     39.008870     11.349505
  O       9.770743     39.508599     12.157992
  C       9.059396     37.567310     10.929615
  O      10.431900     37.327365     10.820781
  C       8.496586     36.781174     12.120381
  N       7.884908     35.507322     11.735983
  C       6.545690     35.228377     11.515592
  N       6.352632     33.963550     11.215339
  C       7.592142     33.412741     11.226418
  C       8.005570     32.116800     10.968659
  N       7.170989     31.125952     10.669580
  N       9.351161     31.927727     11.035464
  C      10.234082     32.922588     11.368342
  N       9.889634     34.132317     11.649780
  C       8.567151     34.357316     11.553798
  H       3.183397     37.533549     13.654067
  H       6.133071     38.240043     10.606938
  H       6.182951     39.987828     10.895620
  H       7.472721     39.565150     13.000613
  H       8.574581     39.657064     10.483877
  H      10.583419     39.103459     11.820653
  H       8.524467     37.305498     10.012763
  H      10.729690     37.281295      9.891648
  H       9.325547     36.517950     12.784913
  H       5.732738     35.971010     11.585735
  H       6.193349     31.353435     10.574683
  H       7.479020     30.202937     10.427590
  H      11.276412     32.625480     11.373948
  H       9.736886     31.023564     10.803421
163
Coordinates from ORCA-job /data/Seafile/amp/al_surf/protonated_al_surf/frames/frame12/dry/amp_al_frame12_dry E -13417.845003667126
  Si      3.455028     33.846084      7.826447
  Si      3.477335     30.743004      7.806145
  O       2.183577     34.618741      8.458002
  O       2.226084     29.915132      8.449897
  O       3.474733     32.276016      8.322498
  O       3.412548     33.820789      6.174197
  O       3.413142     30.780436      6.162917
  Si      6.164643     26.077381      7.809064
  Si      8.857469     24.534088      7.827904
  O       4.856268     25.361356      8.460863
  O       7.518896     25.328838      8.319115
  O       8.817087     23.032796      8.459915
  O       6.129155     26.050483      6.164056
  O       8.827042     24.506060      6.185757
  Si      6.120154     29.156764      7.621837
  Si      6.097081     35.409299      7.648428
  Si      8.857346     33.859535      7.627842
  Si      8.872571     30.759542      7.550193
  O       4.880202     30.003201      8.249446
  O       4.821387     34.601555      8.258670
  O       7.463440     34.614070      8.023271
  O       7.509194     29.942702      7.940191
  O       6.193277     27.650932      8.251896
  O       8.759316     32.264428      8.125316
  O       5.840327     29.038711      6.011356
  O       5.890514     35.506273      6.016339
  O       9.012960     33.789497      5.992399
  O       9.061090     30.826219      5.927398
  Si      6.139261     38.496129      7.611833
  Si      8.863862     40.100072      7.659217
  O       4.987302     39.403184      8.280222
  O       7.565157     39.206976      8.019056
  O       6.184422     36.948646      8.167974
  O       8.589798     41.580196      8.295732
  O       6.016121     38.436949      5.978413
  O       9.109438     40.132974      6.027549
  Si     11.528416     26.078748      7.727816
  Si     14.196704     24.535105      7.834383
  O      10.182413     25.362579      8.311177
  O      12.883189     25.385109      8.310219
  O      14.003896     23.021681      8.410045
  O      11.482492     25.845805      6.102556
  O      14.229427     24.542094      6.189443
  Si     11.555468     29.247341      7.694755
  Al     11.604738     35.391681      7.838142
  Si     14.254133     33.819585      7.931383
  Si     14.210118     30.772392      7.825227
  O      10.163525     29.963335      8.199628
  O      10.087703     34.614995      8.297723
  O      13.037467     34.636533      8.555491
  O      12.872432     29.952978      8.346735
  O      11.501890     27.664621      8.092759
  O      14.322973     32.246934      8.478281
  O      11.611860     29.427967      6.068806
  O      11.851441     35.136909      6.110034
  O      14.071311     33.683120      6.299414
  O      14.045227     30.918248      6.199781
  Si     11.602766     38.647437      7.764938
  Si     14.336823     40.075494      7.863632
  O      10.239618     39.441833      8.229600
  O      12.942919     39.400465      8.365452
  O      11.530408     37.125246      8.257191
  O      14.543831     41.595408      8.429427
  O      11.731701     38.827068      6.130306
  O      14.364523     40.029716      6.218686
  Si     16.903789     26.044695      7.880948
  O      15.555156     25.258342      8.371126
  O      18.198956     25.261554      8.487880
  O      16.880756     26.026391      6.236958
  Si     16.913737     29.127435      7.811962
  Si     17.023397     35.347664      7.844182
  Si     19.674406     33.776835      7.876523
  Si     19.576632     30.677255      7.882585
  O      15.526126     29.876177      8.190506
  O      15.714474     34.503716      8.263930
  O      18.363552     34.584464      8.407611
  O      18.190301     29.965134      8.383083
  O      16.869063     27.595211      8.386504
  O      19.644378     32.222161      8.395255
  O      17.091886     28.972424      6.184778
  O      17.224656     35.396493      6.210413
  O      19.619671     33.725762      6.233229
  O      19.559993     30.682620      6.235992
  Si     16.971398     38.439246      7.871829
  O      15.640736     39.228667      8.384100
  O      18.365863     39.082921      8.431920
  O      16.942893     36.886916      8.381875
  O      16.954059     38.427578      6.225353
  O      20.800595     29.765100      8.457488
  O      21.079338     34.414048      8.413314
  H       4.074657     24.986772      8.036591
  H       1.410409     29.602015      8.036749
  H       1.410409     35.007985      8.036749
  H       4.074657     39.623228      8.036591
  H       8.948181     22.173255      8.038302
  H       8.948181     42.436745      8.038302
  H      14.277762     22.173204      8.038282
  H      14.277762     42.436796      8.038282
  H      18.960557     24.876228      8.036406
  H      18.960557     39.733772      8.036406
  H      21.624717     29.491420      8.036583
  H      21.624717     35.118580      8.036583
  H      13.256678     34.191480      6.025750
  H      11.073596     34.794807      5.660528
  H       9.000539     32.891585      5.638325
  H       9.854450     30.373759      5.606686
  H      12.410142     29.901120      5.776216
  H      14.050067     31.865920      5.942468
  H      13.541376     39.668524      5.851167
  H      10.925717     39.175216      5.725570
  H       8.327107     40.227846      5.479952
  H       5.999194     37.530246      5.640924
  H       5.159881     34.963004      5.694068
  H       3.370648     32.930857      5.803518
  H       4.071230     30.220775      5.730848
  H       5.958370     28.149931      5.653345
  H       6.848514     25.546763      5.764074
  H       9.629405     24.860832      5.778553
  H      12.305361     25.509199      5.726601
  H      15.010576     24.977746      5.822890
  H      17.006009     26.903041      5.845346
  H      17.792887     29.525857      5.815598
  H      19.587823     31.572468      5.858190
  H      18.894663     34.254192      5.865734
  H      17.088238     36.271077      5.825021
  H      16.184383     38.878487      5.851609
  P       3.720882     38.172944     11.620928
  O       4.122270     36.754188     11.357908
  O       3.061361     39.010586     10.602216
  O       2.842006     38.220037     12.983516
  O       5.068286     38.918989     12.216322
  C       6.162701     39.034466     11.353478
  C       7.437466     38.895465     12.157928
  O       7.522439     37.591780     12.765594
  C       8.708973     39.042709     11.345423
  O       9.740015     39.549210     12.155540
  C       9.037407     37.596419     10.939931
  O      10.411550     37.357590     10.835991
  C       8.475530     36.818045     12.138625
  N       7.875405     35.531247     11.770575
  C       6.540099     35.235237     11.552505
  N       6.358761     33.964657     11.267836
  C       7.603469     33.427024     11.284860
  C       8.030596     32.133699     11.034469
  N       7.206830     31.134864     10.737927
  N       9.376480     31.959511     11.102779
  C      10.248126     32.966394     11.428706
  N       9.892472     34.174095     11.701625
  C       8.568565     34.385386     11.602551
  H       3.139215     37.500052     13.546035
  H       6.129844     38.258652     10.577072
  H       6.160445     40.007809     10.847115
  H       7.426073     39.617781     12.977036
  H       8.549848     39.683324     10.473598
  H      10.552262     39.138437     11.827312
  H       8.504880     37.322957     10.024649
  H      10.712356     37.302278      9.909094
  H       9.305909     36.569936     12.809441
  H       5.719097     35.972225     11.610969
  H       6.230285     31.357716     10.629006
  H       7.524309     30.217923     10.485085
  H      11.293437     32.682059     11.434078
  H       9.772117     31.060939     10.867472
163
Coordinates from ORCA-job /data/Seafile/amp/al_surf/protonated_al_surf/frames/frame12/dry/amp_al_frame12_dry E -13417.846652286344
  Si      3.455101     33.844602      7.816048
  Si      3.478162     30.740504      7.799837
  O       2.183951     34.612334      8.451644
  O       2.229021     29.912104      8.446836
  O       3.477096     32.273835      8.312715
  O       3.407619     33.815005      6.163570
  O       3.410546     30.773995      6.156490
  Si      6.165840     26.075977      7.807984
  Si      8.858415     24.533915      7.829901
  O       4.856878     25.361583      8.459941
  O       7.519219     25.327962      8.319162
  O       8.816576     23.032439      8.460895
  O       6.131919     26.045983      6.162388
  O       8.828802     24.505817      6.187209
  Si      6.120968     29.153930      7.612040
  Si      6.096847     35.408577      7.626391
  Si      8.859739     33.860119      7.607504
  Si      8.876501     30.757234      7.536046
  O       4.882590     30.001529      8.241641
  O       4.823568     34.599024      8.239652
  O       7.464146     34.612960      7.997042
  O       7.511456     29.939981      7.924127
  O       6.195703     27.650233      8.246114
  O       8.759447     32.263787      8.105044
  O       5.834877     29.031099      6.003180
  O       5.885196     35.501339      5.994502
  O       9.024165     33.787094      5.973526
  O       9.070453     30.818135      5.914550
  Si      6.141909     38.495567      7.584316
  Si      8.868031     40.100295      7.643221
  O       4.995415     39.405636      8.252081
  O       7.568013     39.206045      7.992946
  O       6.189171     36.948183      8.142033
  O       8.588471     41.576987      8.284186
  O       6.023513     38.431790      5.950752
  O       9.121151     40.137998      6.012128
  Si     11.528559     26.078590      7.729808
  Si     14.196790     24.535614      7.836408
  O      10.182722     25.362399      8.312965
  O      12.883456     25.384975      8.311489
  O      14.003203     23.021651      8.410299
  O      11.482365     25.841113      6.104706
  O      14.230482     24.545293      6.190931
  Si     11.556839     29.247395      7.696723
  Al     11.605920     35.392926      7.836676
  Si     14.253141     33.818751      7.934778
  Si     14.209681     30.772834      7.827804
  O      10.162353     29.962188      8.198180
  O      10.086437     34.613852      8.284886
  O      13.035562     34.635502      8.557458
  O      12.873007     29.952002      8.349738
  O      11.502022     27.664206      8.092429
  O      14.323352     32.246263      8.482065
  O      11.616044     29.428248      6.070319
  O      11.859771     35.137842      6.109612
  O      14.071909     33.678494      6.302905
  O      14.041396     30.919334      6.202637
  Si     11.607058     38.647314      7.759466
  Si     14.339676     40.075975      7.862829
  O      10.242634     39.443285      8.217168
  O      12.945131     39.401927      8.362008
  O      11.529436     37.126910      8.254696
  O      14.546428     41.595834      8.428776
  O      11.742737     38.828364      6.125019
  O      14.369933     40.029806      6.217486
  Si     16.903474     26.044865      7.883308
  O      15.555789     25.257170      8.372816
  O      18.198322     25.260127      8.488448
  O      16.879439     26.027422      6.238704
  Si     16.913899     29.126969      7.813343
  Si     17.023390     35.346825      7.847014
  Si     19.674035     33.776514      7.878735
  Si     19.576406     30.677423      7.884456
  O      15.526281     29.875644      8.189256
  O      15.714261     34.502936      8.265514
  O      18.363957     34.584242      8.410426
  O      18.190633     29.964538      8.383714
  O      16.869009     27.594967      8.388373
  O      19.645883     32.221864      8.396968
  O      17.096312     28.968041      6.186491
  O      17.229449     35.396807      6.213386
  O      19.616805     33.724766      6.235024
  O      19.557894     30.685125      6.237307
  Si     16.972521     38.438348      7.873601
  O      15.643203     39.229921      8.384192
  O      18.367534     39.081778      8.432929
  O      16.944263     36.886436      8.383355
  O      16.953883     38.425498      6.226606
  O      20.800167     29.763817      8.457694
  O      21.080622     34.412608      8.412898
  H       4.074657     24.986772      8.036591
  H       1.410409     29.602015      8.036749
  H       1.410409     35.007985      8.036749
  H       4.074657     39.623228      8.036591
  H       8.948181     22.173255      8.038302
  H       8.948181     42.436745      8.038302
  H      14.277762     22.173204      8.038282
  H      14.277762     42.436796      8.038282
  H      18.960557     24.876228      8.036406
  H      18.960557     39.733772      8.036406
  H      21.624717     29.491420      8.036583
  H      21.624717     35.118580      8.036583
  H      13.259596     34.189682      6.026641
  H      11.082965     34.800403      5.654704
  H       9.011148     32.889217      5.619466
  H       9.865137     30.363864      5.598071
  H      12.415594     29.902200      5.780519
  H      14.047825     31.868129      5.947065
  H      13.546256     39.667670      5.850959
  H      10.935855     39.172100      5.717375
  H       8.336393     40.218697      5.465017
  H       6.005962     37.523523      5.616690
  H       5.152234     34.957812      5.676813
  H       3.364096     32.923326      5.796426
  H       4.069243     30.214300      5.724844
  H       5.954144     28.140901      5.647958
  H       6.852942     25.540722      5.766343
  H       9.632340     24.862149      5.782576
  H      12.307433     25.506469      5.730682
  H      15.014032     24.980862      5.828159
  H      17.004076     26.906143      5.850254
  H      17.796431     29.524402      5.818957
  H      19.586368     31.577186      5.863626
  H      18.890011     34.254159      5.871104
  H      17.089216     36.271868      5.829413
  H      16.183371     38.878403      5.855936
  P       3.687054     38.297636     11.443190
  O       4.092055     36.882076     11.168005
  O       3.060389     39.153064     10.417652
  O       2.763855     38.323038     12.776782
  O       5.017175     39.030125     12.093199
  C       6.143425     39.129845     11.268572
  C       7.397023     38.978089     12.104696
  O       7.458208     37.673537     12.718920
  C       8.682807     39.108843     11.312259
  O       9.710057     39.604025     12.135883
  C       8.999901     37.657050     10.915217
  O      10.372998     37.402171     10.829888
  C       8.414533     36.887594     12.108738
  N       7.813235     35.603783     11.731407
  C       6.480382     35.316455     11.490641
  N       6.294854     34.047494     11.200033
  C       7.536349     33.502728     11.235203
  C       7.960230     32.208709     10.979060
  N       7.133543     31.221572     10.658280
  N       9.303363     32.026749     11.066272
  C      10.175195     33.026782     11.412948
  N       9.822534     34.234165     11.690232
  C       8.501873     34.453906     11.571781
  H       3.042833     37.589664     13.331650
  H       6.125160     38.352008     10.495280
  H       6.167966     40.100504     10.757267
  H       7.379440     39.703551     12.921171
  H       8.543006     39.749970     10.437364
  H      10.519916     39.180271     11.819497
  H       8.475560     37.384186      9.994800
  H      10.682047     37.333467      9.908109
  H       9.233906     36.635480     12.792665
  H       5.664563     36.060713     11.531347
  H       6.163837     31.460289     10.523879
  H       7.447460     30.309738     10.382549
  H      11.219785     32.739833     11.429383
  H       9.698444     31.130687     10.820143
163
Coordinates from ORCA-job /data/Seafile/amp/al_surf/protonated_al_surf/frames/frame12/dry/amp_al_frame12_dry E -13417.848861892486
  Si      3.454769     33.842055      7.799299
  Si      3.479120     30.736382      7.791508
  O       2.183969     34.601943      8.441352
  O       2.232724     29.907701      8.442864
  O       3.480334     32.270821      8.298866
  O       3.400915     33.806100      6.146788
  O       3.407967     30.764191      6.148183
  Si      6.167280     26.074015      7.807220
  Si      8.859533     24.533480      7.831915
  O       4.857608     25.361260      8.458733
  O       7.519489     25.326306      8.319514
  O       8.815954     23.031882      8.462005
  O       6.135997     26.041948      6.160799
  O       8.830581     24.505642      6.188508
  Si      6.121980     29.149801      7.602526
  Si      6.097079     35.406286      7.593449
  Si      8.864113     33.860116      7.582733
  Si      8.881618     30.753606      7.520328
  O       4.885282     29.999358      8.233899
  O       4.826342     34.595206      8.210712
  O       7.465487     34.610645      7.961261
  O       7.514365     29.935883      7.907078
  O       6.198534     27.648847      8.240974
  O       8.759958     32.262537      8.080882
  O       5.829311     29.022258      5.995554
  O       5.880639     35.489717      5.961571
  O       9.041789     33.783026      5.951202
  O       9.081547     30.806685      5.900736
  Si      6.145731     38.493196      7.536445
  Si      8.874469     40.101539      7.614535
  O       5.007663     39.407844      8.202381
  O       7.572090     39.204713      7.946277
  O       6.196214     36.947083      8.100825
  O       8.586172     41.572250      8.263884
  O       6.034037     38.419204      5.903037
  O       9.141927     40.147109      5.985098
  Si     11.528517     26.078411      7.730965
  Si     14.196687     24.536122      7.837590
  O      10.183102     25.362145      8.314485
  O      12.883603     25.384843      8.311849
  O      14.002082     23.021656      8.409708
  O      11.481538     25.834756      6.106124
  O      14.231423     24.550439      6.191432
  Si     11.558019     29.248019      7.699647
  Al     11.608308     35.394969      7.838376
  Si     14.252296     33.817519      7.942463
  Si     14.208761     30.773378      7.832687
  O      10.160422     29.960429      8.198707
  O      10.085540     34.612192      8.270709
  O      13.033831     34.634409      8.564244
  O      12.873542     29.950329      8.354745
  O      11.501946     27.663756      8.090453
  O      14.324442     32.245153      8.489885
  O      11.620377     29.431646      6.072803
  O      11.871760     35.139070      6.112681
  O      14.072589     33.673121      6.310802
  O      14.035495     30.922194      6.208131
  Si     11.612661     38.646771      7.752044
  Si     14.343493     40.076831      7.861573
  O      10.246128     39.445945      8.197033
  O      12.947664     39.404185      8.357415
  O      11.527580     37.129589      8.254025
  O      14.550237     41.596560      8.427636
  O      11.759669     38.826845      6.117732
  O      14.377589     40.028997      6.215866
  Si     16.903071     26.044637      7.885342
  O      15.556571     25.255166      8.373986
  O      18.197169     25.257727      8.488647
  O      16.877603     26.029121      6.239934
  Si     16.913982     29.126020      7.814996
  Si     17.023800     35.345725      7.851974
  Si     19.673915     33.775902      7.881439
  Si     19.575969     30.677372      7.886351
  O      15.526338     29.874696      8.187505
  O      15.714550     34.501913      8.269804
  O      18.364979     34.583853      8.415019
  O      18.190957     29.963397      8.384492
  O      16.868786     27.594229      8.390500
  O      19.648294     32.221230      8.399153
  O      17.101386     28.962264      6.188520
  O      17.234766     35.396186      6.218366
  O      19.612286     33.723368      6.237277
  O      19.553556     30.688609      6.238540
  Si     16.974151     38.437194      7.876001
  O      15.646654     39.232004      8.384675
  O      18.370040     39.080098      8.434183
  O      16.946476     36.885906      8.386346
  O      16.952785     38.421053      6.228403
  O      20.799336     29.761880      8.457562
  O      21.082716     34.410367      8.411970
  H       4.074657     24.986772      8.036591
  H       1.410409     29.602015      8.036749
  H       1.410409     35.007985      8.036749
  H       4.074657     39.623228      8.036591
  H       8.948181     22.173255      8.038302
  H       8.948181     42.436745      8.038302
  H      14.277762     22.173204      8.038282
  H      14.277762     42.436796      8.038282
  H      18.960557     24.876228      8.036406
  H      18.960557     39.733772      8.036406
  H      21.624717     29.491420      8.036583
  H      21.624717     35.118580      8.036583
  H      13.263642     34.188744      6.031561
  H      11.096930     34.808180      5.649958
  H       9.028276     32.885563      5.596773
  H       9.877771     30.350487      5.589811
  H      12.420795     29.908086      5.787574
  H      14.043936     31.872595      5.955670
  H      13.553123     39.665869      5.850801
  H      10.952651     39.164015      5.704558
  H       8.355339     40.206816      5.437345
  H       6.014150     37.508729      5.575333
  H       5.144823     34.946124      5.650332
  H       3.355467     32.912374      5.784666
  H       4.067234     30.204247      5.717502
  H       5.951110     28.130940      5.643387
  H       6.859810     25.535980      5.770064
  H       9.635561     24.863952      5.787617
  H      12.309410     25.503397      5.734709
  H      15.017877     24.986236      5.834253
  H      17.001905     26.910568      5.856432
  H      17.799464     29.522838      5.822895
  H      19.582082     31.583523      5.870751
  H      18.883533     34.254598      5.878710
  H      17.088856     36.271153      5.835676
  H      16.181301     38.876514      5.861907
  P       3.636882     38.435000     11.217537
  O       4.049951     37.022249     10.939488
  O       3.046019     39.301748     10.177857
  O       2.661785     38.446052     12.513670
  O       4.941775     39.158761     11.926282
  C       6.104745     39.236548     11.150930
  C       7.327306     39.080520     12.029749
  O       7.361468     37.777813     12.652399
  C       8.632319     39.196917     11.266808
  O       9.648913     39.681925     12.110442
  C       8.940892     37.740752     10.881548
  O      10.312909     37.469293     10.821206
  C       8.327339     36.983042     12.068543
  N       7.732211     35.699005     11.685630
  C       6.405391     35.414978     11.413888
  N       6.221590     34.145100     11.125176
  C       7.461580     33.597385     11.189468
  C       7.889553     32.302738     10.933936
  N       7.067497     31.320791     10.590719
  N       9.230363     32.119977     11.045951
  C      10.095918     33.118117     11.412148
  N       9.739668     34.324972     11.687812
  C       8.421671     34.546678     11.543532
  H       2.919495     37.702344     13.065467
  H       6.109442     38.449997     10.388059
  H       6.160007     40.199902     10.629210
  H       7.294960     39.809398     12.842544
  H       8.516611     39.838937     10.389259
  H      10.458437     39.244838     11.810642
  H       8.428784     37.467030      9.954832
  H      10.633689     37.381182      9.906461
  H       9.130586     36.734023     12.772204
  H       5.596126     36.165166     11.420741
  H       6.105285     31.570500     10.421588
  H       7.387683     30.419135     10.287144
  H      11.140659     32.833007     11.445094
  H       9.630745     31.228078     10.791763
163
Coordinates from ORCA-job /data/Seafile/amp/al_surf/protonated_al_surf/frames/frame12/dry/amp_al_frame12_dry E -13417.852017658166
  Si      3.453858     33.838066      7.774728
  Si      3.480549     30.730409      7.781076
  O       2.183432     34.586611      8.426162
  O       2.237566     29.901477      8.437797
  O       3.484772     32.266942      8.280449
  O       3.391341     33.792900      6.122530
  O       3.406156     30.750184      6.137953
  Si      6.169090     26.071499      7.807785
  Si      8.860764     24.532776      7.835528
  O       4.858298     25.360461      8.457627
  O       7.519492     25.323612      8.321779
  O       8.814944     23.030702      8.463873
  O       6.142281     26.038086      6.160293
  O       8.832930     24.506520      6.191219
  Si      6.123388     29.144332      7.594334
  Si      6.097520     35.402406      7.546490
  Si      8.870331     33.859134      7.551416
  Si      8.888090     30.748124      7.503276
  O       4.888470     29.996837      8.226876
  O       4.829691     34.590125      8.169224
  O       7.467205     34.606788      7.912913
  O       7.518170     29.930261      7.890270
  O       6.201849     27.646825      8.237668
  O       8.760625     32.260594      8.051504
  O       5.824292     29.011767      5.989372
  O       5.876135     35.470361      5.914522
  O       9.066873     33.776588      5.923545
  O       9.095264     30.789506      5.886190
  Si      6.149895     38.488355      7.462580
  Si      8.882815     40.104528      7.571267
  O       5.021702     39.407748      8.124033
  O       7.576538     39.203449      7.873785
  O       6.205483     36.945428      8.040808
  O       8.582253     41.566428      8.233252
  O       6.049264     38.396947      5.829800
  O       9.173445     40.162117      5.945202
  Si     11.528120     26.078086      7.733772
  Si     14.196275     24.536833      7.839523
  O      10.183381     25.361582      8.318135
  O      12.883527     25.384654      8.313648
  O      14.000502     23.021492      8.408810
  O      11.479832     25.826709      6.109316
  O      14.231869     24.558806      6.192586
  Si     11.558877     29.249145      7.705276
  Al     11.611042     35.398041      7.843055
  Si     14.250893     33.816080      7.954509
  Si     14.207037     30.774228      7.840961
  O      10.157431     29.958152      8.202541
  O      10.084268     34.609694      8.253870
  O      13.031295     34.633173      8.575749
  O      12.873881     29.948166      8.363420
  O      11.501430     27.663293      8.088870
  O      14.325927     32.243979      8.502470
  O      11.625511     29.437559      6.078067
  O      11.887285     35.141760      6.119007
  O      14.072255     33.666869      6.323258
  O      14.026715     30.927244      6.217451
  Si     11.618527     38.645662      7.744209
  Si     14.347639     40.077678      7.861621
  O      10.248944     39.450304      8.169213
  O      12.949509     39.407093      8.353929
  O      11.522872     37.132888      8.256104
  O      14.555319     41.597676      8.426451
  O      11.782452     38.822381      6.110153
  O      14.386572     40.025716      6.215673
  Si     16.902349     26.044050      7.888521
  O      15.557599     25.251995      8.376435
  O      18.195603     25.254079      8.488959
  O      16.874089     26.032182      6.242177
  Si     16.913822     29.124521      7.818471
  Si     17.024251     35.344377      7.860030
  Si     19.673624     33.774929      7.885437
  Si     19.574974     30.677126      7.889062
  O      15.526003     29.873513      8.186166
  O      15.714681     34.500746      8.276966
  O      18.366274     34.583280      8.422506
  O      18.191091     29.961714      8.386812
  O      16.868298     27.593001      8.394748
  O      19.651700     32.220220      8.402812
  O      17.107034     28.954654      6.192488
  O      17.240652     35.394917      6.226389
  O      19.604579     33.721130      6.240910
  O      19.545836     30.693565      6.240550
  Si     16.975856     38.435601      7.880091
  O      15.650924     39.235000      8.387326
  O      18.373522     39.077678      8.435762
  O      16.949252     36.885189      8.392125
  O      16.949261     38.413906      6.231884
  O      20.798059     29.759116      8.457100
  O      21.085587     34.407270      8.410474
  H       4.074657     24.986772      8.036591
  H       1.410409     29.602015      8.036749
  H       1.410409     35.007985      8.036749
  H       4.074657     39.623228      8.036591
  H       8.948181     22.173255      8.038302
  H       8.948181     42.436745      8.038302
  H      14.277762     22.173204      8.038282
  H      14.277762     42.436796      8.038282
  H      18.960557     24.876228      8.036406
  H      18.960557     39.733772      8.036406
  H      21.624717     29.491420      8.036583
  H      21.624717     35.118580      8.036583
  H      13.267656     34.188874      6.040774
  H      11.115426     34.820105      5.645302
  H       9.052453     32.879783      5.568394
  H       9.893631     30.330867      5.583052
  H      12.426884     29.917893      5.799630
  H      14.038269     31.879839      5.969575
  H      13.561173     39.660853      5.852917
  H      10.976183     39.150497      5.688161
  H       8.386763     40.192128      5.394522
  H       6.026862     37.483320      5.511772
  H       5.136371     34.927166      5.612106
  H       3.343052     32.896610      5.767215
  H       4.066460     30.190015      5.709027
  H       5.950264     28.119489      5.640559
  H       6.869970     25.531714      5.776569
  H       9.639844     24.867365      5.795581
  H      12.311393     25.500558      5.740885
  H      15.021976     24.994904      5.842781
  H      16.997967     26.917228      5.865511
  H      17.801566     29.521157      5.828635
  H      19.574090     31.592122      5.880497
  H      18.873240     34.254845      5.889730
  H      17.086679     36.269196      5.844659
  H      16.176771     38.873079      5.870952
  P       3.560208     38.621068     10.920436
  O       3.984772     37.217896     10.615789
  O       2.996507     39.513677      9.883239
  O       2.537896     38.597723     12.178846
  O       4.836612     39.327880     11.695298
  C       6.044337     39.377961     10.987181
  C       7.221685     39.215824     11.924059
  O       7.217288     37.916456     12.556585
  C       8.554132     39.310562     11.205626
  O       9.552739     39.778824     12.080581
  C       8.849120     37.849373     10.833919
  O      10.218854     37.555991     10.809007
  C       8.194731     37.108440     12.010008
  N       7.604016     35.825260     11.621854
  C       6.284837     35.546262     11.315179
  N       6.101592     34.276452     11.026155
  C       7.338317     33.724132     11.121941
  C       7.770907     32.431022     10.857182
  N       6.956704     31.455960     10.479704
  N       9.108541     32.246444     10.997119
  C       9.966472     33.239105     11.392305
  N       9.606715     34.444057     11.672608
  C       8.292300     34.669007     11.499598
  H       2.776534     37.835781     12.714432
  H       6.078798     38.580766     10.237285
  H       6.141693     40.332565     10.457129
  H       7.167891     39.949832     12.730790
  H       8.474912     39.955688     10.326607
  H      10.362081     39.324338     11.806207
  H       8.354961     37.577281      9.897694
  H      10.557184     37.444267      9.904451
  H       8.974265     36.862565     12.740362
  H       5.486150     36.303236     11.286235
  H       6.005760     31.719544     10.269004
  H       7.290675     30.576291     10.127257
  H      11.010551     32.954520     11.442542
  H       9.515535     31.362259     10.726365
163
Coordinates from ORCA-job /data/Seafile/amp/al_surf/protonated_al_surf/frames/frame12/dry/amp_al_frame12_dry E -13417.856426457585
  Si      3.452268     33.831065      7.739795
  Si      3.482842     30.721204      7.769626
  O       2.181484     34.562980      8.403657
  O       2.243877     29.891906      8.431864
  O       3.490955     32.261352      8.257629
  O       3.379585     33.772176      6.088628
  O       3.407069     30.729940      6.127063
  Si      6.171504     26.068300      7.811743
  Si      8.862034     24.531740      7.841627
  O       4.858960     25.358536      8.457197
  O       7.519103     25.319149      8.327993
  O       8.813599     23.028696      8.467048
  O       6.152400     26.036280      6.162832
  O       8.835151     24.509293      6.196210
  Si      6.125411     29.136969      7.592351
  Si      6.099703     35.393611      7.482500
  Si      8.880551     33.855526      7.516981
  Si      8.896410     30.739378      7.487619
  O       4.892230     29.993958      8.224706
  O       4.834182     34.581406      8.111624
  O       7.470545     34.598480      7.852375
  O       7.523485     29.922096      7.879030
  O       6.205635     27.643620      8.240212
  O       8.762493     32.256315      8.019961
  O       5.821217     29.000105      5.989269
  O       5.875639     35.435300      5.850146
  O       9.103583     33.766859      5.894664
  O       9.110161     30.764778      5.873757
  Si      6.153150     38.475879      7.351415
  Si      8.892747     40.109441      7.510663
  O       5.031709     39.396098      8.001523
  O       7.579926     39.201171      7.764902
  O       6.218428     36.939993      7.956034
  O       8.575246     41.559819      8.188490
  O       6.074285     38.354755      5.720461
  O       9.221087     40.183328      5.891331
  Si     11.527108     26.077353      7.737459
  Si     14.195310     24.537927      7.841408
  O      10.183648     25.360741      8.324484
  O      12.883033     25.384586      8.316406
  O      13.998014     23.021404      8.406823
  O      11.476242     25.814993      6.113788
  O      14.231524     24.572131      6.193650
  Si     11.559364     29.251160      7.713186
  Al     11.615200     35.402452      7.857463
  Si     14.249823     33.814437      7.973231
  Si     14.204396     30.775633      7.851750
  O      10.153438     29.954553      8.211742
  O      10.084095     34.604687      8.239374
  O      13.029534     34.631022      8.597227
  O      12.874630     29.944977      8.375431
  O      11.500504     27.662863      8.085517
  O      14.329488     32.242320      8.520799
  O      11.630470     29.448759      6.085860
  O      11.907032     35.148497      6.134826
  O      14.069393     33.661081      6.342780
  O      14.012584     30.937167      6.230292
  Si     11.623243     38.642919      7.743293
  Si     14.351383     40.077921      7.865946
  O      10.249264     39.457184      8.136869
  O      12.949811     39.410877      8.357081
  O      11.513831     37.136201      8.270263
  O      14.562603     41.599450      8.425433
  O      11.811752     38.811374      6.109611
  O      14.394377     40.015774      6.220078
  Si     16.901031     26.042750      7.892136
  O      15.558905     25.247039      8.379860
  O      18.193028     25.248537      8.488916
  O      16.868038     26.036801      6.244754
  Si     16.913723     29.121927      7.822176
  Si     17.025652     35.343074      7.872549
  Si     19.673446     33.773244      7.890648
  Si     19.573189     30.676584      7.891780
  O      15.525354     29.871941      8.182017
  O      15.715798     34.499217      8.287965
  O      18.368666     34.582560      8.434103
  O      18.190835     29.959119      8.389854
  O      16.867365     27.591108      8.400523
  O      19.656883     32.218494      8.408013
  O      17.114869     28.943362      6.197086
  O      17.248271     35.393559      6.238842
  O      19.591877     33.717699      6.246024
  O      19.533284     30.701202      6.242649
  Si     16.977249     38.433426      7.887421
  O      15.656393     39.239574      8.395145
  O      18.378606     39.073894      8.437594
  O      16.953261     36.884216      8.402892
  O      16.939901     38.402752      6.238796
  O      20.795762     29.754909      8.455431
  O      21.089945     34.402450      8.407483
  H       4.074657     24.986772      8.036591
  H       1.410409     29.602015      8.036749
  H       1.410409     35.007985      8.036749
  H       4.074657     39.623228      8.036591
  H       8.948181     22.173255      8.038302
  H       8.948181     42.436745      8.038302
  H      14.277762     22.173204      8.038282
  H      14.277762     42.436796      8.038282
  H      18.960557     24.876228      8.036406
  H      18.960557     39.733772      8.036406
  H      21.624717     29.491420      8.036583
  H      21.624717     35.118580      8.036583
  H      13.270324     34.192866      6.058103
  H      11.139404     34.841004      5.645640
  H       9.087329     32.871591      5.537077
  H       9.911711     30.303697      5.580300
  H      12.432410     29.936097      5.817296
  H      14.028166     31.893246      5.989994
  H      13.567122     39.647681      5.862472
  H      11.007498     39.125867      5.673651
  H       8.438504     40.167861      5.333405
  H       6.050902     37.436433      5.417562
  H       5.130508     34.893423      5.559188
  H       3.327165     32.872673      5.742513
  H       4.069611     30.170102      5.701158
  H       5.954175     28.107369      5.643508
  H       6.885862     25.530574      5.788263
  H       9.644550     24.873665      5.807605
  H      12.312796     25.496941      5.748637
  H      15.026555     25.008427      5.853766
  H      16.991535     26.926703      5.877460
  H      17.803549     29.518379      5.834649
  H      19.560954     31.604646      5.893204
  H      18.857246     34.255367      5.905432
  H      17.082008     36.266019      5.857435
  H      16.166050     38.867426      5.886162
  P       3.454000     38.801919     10.603502
  O       3.866943     37.385167     10.360964
  O       2.945746     39.667076      9.507529
  O       2.365750     38.842234     11.803214
  O       4.698930     39.516437     11.420362
  C       5.957055     39.508764     10.800435
  C       7.074662     39.360128     11.808730
  O       7.032000     38.069138     12.458403
  C       8.438097     39.432662     11.145754
  O       9.410604     39.888232     12.057379
  C       8.722900     37.967174     10.793199
  O      10.090863     37.658826     10.806466
  C       8.025840     37.247837     11.959572
  N       7.443928     35.961347     11.573133
  C       6.135847     35.681169     11.228847
  N       5.956712     34.409969     10.944807
  C       7.191531     33.857342     11.074107
  C       7.637412     32.569731     10.791581
  N       6.842301     31.593003     10.378342
  N       8.973272     32.393108     10.953510
  C       9.817544     33.383512     11.377591
  N       9.447915     34.583262     11.668989
  C       8.135288     34.803103     11.471910
  H       2.559107     38.091144     12.371608
  H       6.023830     38.681447     10.088431
  H       6.110591     40.438191     10.241629
  H       6.988078     40.105491     12.601698
  H       8.400047     40.079477     10.265449
  H      10.221252     39.417237     11.815585
  H       8.249853     37.692241      9.847968
  H      10.447584     37.521416      9.913808
  H       8.778307     37.013783     12.721044
  H       5.352888     36.443922     11.150882
  H       5.903366     31.864183     10.122978
  H       7.208487     30.756548      9.953451
  H      10.862171     33.104654     11.439232
  H       9.393425     31.523792     10.655432
163
Coordinates from ORCA-job /data/Seafile/amp/al_surf/protonated_al_surf/frames/frame12/dry/amp_al_frame12_dry E -13417.861403213250
  Si      3.449395     33.818468      7.704355
  Si      3.487661     30.707685      7.767602
  O       2.173078     34.527728      8.377050
  O       2.250310     29.877143      8.428708
  O       3.498435     32.252940      8.241832
  O       3.372007     33.741605      6.055125
  O       3.420684     30.703157      6.125768
  Si      6.175000     26.064879      7.829229
  Si      8.863258     24.530614      7.858249
  O       4.858348     25.353662      8.461403
  O       7.517760     25.311077      8.348661
  O       8.811996     23.024100      8.474556
  O       6.170882     26.042789      6.178798
  O       8.837952     24.519856      6.211752
  Si      6.129797     29.128563      7.618175
  Si      6.104504     35.377862      7.424407
  Si      8.893012     33.848156      7.508355
  Si      8.905559     30.728092      7.501037
  O       4.895765     29.990553      8.244465
  O       4.836960     34.568352      8.054828
  O       7.474128     34.583941      7.809365
  O       7.530723     29.912060      7.902501
  O       6.209058     27.637957      8.265809
  O       8.764918     32.249673      8.016434
  O       5.829669     28.991990      6.014673
  O       5.888856     35.382223      5.790801
  O       9.145284     33.753433      5.892722
  O       9.122365     30.734358      5.890290
  Si      6.158210     38.450573      7.224737
  Si      8.905195     40.114077      7.452287
  O       5.028523     39.360708      7.844317
  O       7.586208     39.193927      7.641992
  O       6.232315     36.927615      7.871932
  O       8.566579     41.555342      8.138927
  O       6.125552     38.285077      5.598030
  O       9.281472     40.202111      5.843068
  Si     11.525097     26.076483      7.753602
  Si     14.192944     24.539821      7.848525
  O      10.183826     25.358742      8.344738
  O      12.882099     25.384339      8.329892
  O      13.993988     23.020443      8.405247
  O      11.469280     25.803733      6.130817
  O      14.227149     24.594716      6.200395
  Si     11.559166     29.254372      7.737797
  Al     11.619830     35.408397      7.895425
  Si     14.249703     33.812988      7.998995
  Si     14.201234     30.777296      7.870387
  O      10.150958     29.950478      8.246521
  O      10.086510     34.596626      8.250495
  O      13.032198     34.628532      8.634204
  O      12.877687     29.941299      8.401251
  O      11.499266     27.662672      8.093990
  O      14.337718     32.241163      8.547077
  O      11.630143     29.467077      6.111078
  O      11.921573     35.160934      6.172209
  O      14.056577     33.656695      6.370621
  O      13.989132     30.951061      6.252728
  Si     11.626969     38.638039      7.766525
  Si     14.355805     40.076179      7.880338
  O      10.249695     39.468322      8.120267
  O      12.951654     39.414150      8.379802
  O      11.500645     37.138629      8.313282
  O      14.574965     41.602608      8.424396
  O      11.843397     38.790648      6.132997
  O      14.395720     39.991794      6.235393
  Si     16.898403     26.039988      7.900037
  O      15.560626     25.238884      8.389782
  O      18.189747     25.239910      8.489757
  O      16.855988     26.043898      6.251993
  Si     16.913694     29.117107      7.830316
  Si     17.029261     35.341295      7.888110
  Si     19.673812     33.769320      7.896584
  Si     19.569933     30.674554      7.895372
  O      15.524661     29.869704      8.179401
  O      15.718983     34.496994      8.300431
  O      18.372735     34.580549      8.449245
  O      18.190044     29.954948      8.397237
  O      16.866128     27.587723      8.413010
  O      19.664573     32.214891      8.415722
  O      17.122966     28.927182      6.206583
  O      17.258616     35.392328      6.254519
  O      19.573194     33.710268      6.252690
  O      19.513252     30.710230      6.246238
  Si     16.978948     38.429367      7.898348
  O      15.665976     39.245896      8.412481
  O      18.387511     39.066058      8.437265
  O      16.959326     36.881657      8.419268
  O      16.920720     38.387253      6.250153
  O      20.792088     29.747903      8.452020
  O      21.096139     34.395017      8.401805
  H       4.074657     24.986772      8.036591
  H       1.410409     29.602015      8.036749
  H       1.410409     35.007985      8.036749
  H       4.074657     39.623228      8.036591
  H       8.948181     22.173255      8.038302
  H       8.948181     42.436745      8.038302
  H      14.277762     22.173204      8.038282
  H      14.277762     42.436796      8.038282
  H      18.960557     24.876228      8.036406
  H      18.960557     39.733772      8.036406
  H      21.624717     29.491420      8.036583
  H      21.624717     35.118580      8.036583
  H      13.263518     34.203307      6.089070
  H      11.156485     34.875718      5.666478
  H       9.121963     32.861316      5.529806
  H       9.929876     30.274835      5.607412
  H      12.429767     29.967258      5.853794
  H      14.009273     31.911677      6.022259
  H      13.564789     39.616950      5.889764
  H      11.042614     39.088382      5.679443
  H       8.511221     40.112951      5.274210
  H       6.099910     37.360845      5.316081
  H       5.136205     34.846353      5.509474
  H       3.314382     32.838744      5.719475
  H       4.089080     30.145016      5.706910
  H       5.975580     28.100961      5.669179
  H       6.912643     25.540829      5.814464
  H       9.650759     24.888133      5.832451
  H      12.311911     25.499802      5.766505
  H      15.027621     25.030936      5.871377
  H      16.980407     26.939291      5.895854
  H      17.801028     29.514523      5.842883
  H      19.538979     31.619222      5.908811
  H      18.835945     34.254429      5.924767
  H      17.074338     36.261061      5.871965
  H      16.145539     38.860758      5.909696
  P       3.346837     38.946840     10.314358
  O       3.714216     37.505651     10.196908
  O       2.943087     39.744590      9.115282
  O       2.172247     39.129045     11.411290
  O       4.554276     39.679660     11.164926
  C       5.862294     39.594613     10.662384
  C       6.904374     39.476466     11.749917
  O       6.829084     38.197411     12.419996
  C       8.298782     39.533303     11.151030
  O       9.237676     39.972808     12.105159
  C       8.572918     38.066721     10.811150
  O       9.940019     37.754501     10.849448
  C       7.842250     37.368105     11.972398
  N       7.269261     36.074678     11.599921
  C       5.964767     35.785936     11.253535
  N       5.790728     34.515209     10.968973
  C       7.029894     33.968695     11.093969
  C       7.493251     32.698653     10.755972
  N       6.721017     31.715072     10.308287
  N       8.832384     32.538166     10.907608
  C       9.665244     33.523701     11.358037
  N       9.284416     34.711632     11.684937
  C       7.967444     34.918350     11.497953
  H       2.279731     38.413880     12.045110
  H       5.960714     38.726635     10.005601
  H       6.085157     40.484633     10.065930
  H       6.774657     40.236328     12.522337
  H       8.306460     40.185857     10.274323
  H      10.050450     39.489028     11.896762
  H       8.114633     37.791500      9.859469
  H      10.306121     37.598347      9.964584
  H       8.570480     37.155448     12.762474
  H       5.190112     36.549290     11.162321
  H       5.787318     31.989974     10.033570
  H       7.125858     30.959576      9.772643
  H      10.711685     33.252328     11.408684
  H       9.265515     31.695929     10.555499
163
Coordinates from ORCA-job /data/Seafile/amp/al_surf/protonated_al_surf/frames/frame12/dry/amp_al_frame12_dry E -13417.863133116174
  Si      3.449254     33.807483      7.710709
  Si      3.494659     30.699020      7.780668
  O       2.156532     34.498282      8.371722
  O       2.255158     29.861717      8.429525
  O       3.504205     32.244617      8.255888
  O       3.385451     33.724261      6.062020
  O       3.443426     30.693101      6.138844
  Si      6.178728     26.062942      7.849762
  Si      8.864807     24.530521      7.880100
  O       4.856511     25.349871      8.467682
  O       7.516534     25.303832      8.374301
  O       8.810998     23.018742      8.482897
  O       6.190225     26.049404      6.199089
  O       8.844863     24.536467      6.233425
  Si      6.135818     29.124701      7.653138
  Si      6.109486     35.368854      7.445344
  Si      8.897164     33.843598      7.548864
  Si      8.911307     30.722868      7.540393
  O       4.899845     29.987674      8.272538
  O       4.835129     34.561185      8.066011
  O       7.474597     34.572377      7.841532
  O       7.536858     29.907261      7.947287
  O       6.211471     27.633316      8.296981
  O       8.765718     32.244283      8.055245
  O       5.846450     28.990736      6.046742
  O       5.908509     35.358135      5.809939
  O       9.154872     33.753860      5.933853
  O       9.134330     30.719643      5.930764
  Si      6.182240     38.430893      7.212052
  Si      8.921458     40.110632      7.460544
  O       5.033542     39.332578      7.780118
  O       7.609558     39.182501      7.631948
  O       6.244398     36.917178      7.887059
  O       8.568717     41.555957      8.132189
  O       6.203336     38.235316      5.589323
  O       9.304941     40.193398      5.852301
  Si     11.524376     26.075505      7.784806
  Si     14.190635     24.541741      7.866186
  O      10.184091     25.355588      8.375812
  O      12.881904     25.383403      8.358408
  O      13.989511     23.017303      8.407724
  O      11.466071     25.802961      6.161870
  O      14.221909     24.616755      6.218825
  Si     11.561174     29.255378      7.776195
  Al     11.623044     35.411014      7.940234
  Si     14.251266     33.810571      8.026992
  Si     14.200991     30.776690      7.903808
  O      10.154081     29.949570      8.290044
  O      10.090736     34.590776      8.294165
  O      13.039250     34.627965      8.671729
  O      12.881173     29.938918      8.441233
  O      11.498762     27.662087      8.123399
  O      14.345320     32.240497      8.580759
  O      11.633305     29.478394      6.151218
  O      11.921401     35.161913      6.215891
  O      14.041444     33.648999      6.401401
  O      13.973356     30.956833      6.288879
  Si     11.638558     38.635473      7.796972
  Si     14.367104     40.072227      7.894882
  O      10.266688     39.478357      8.142544
  O      12.965769     39.411992      8.406813
  O      11.498920     37.140391      8.353962
  O      14.589478     41.605703      8.421066
  O      11.862372     38.776817      6.162598
  O      14.399935     39.966217      6.251405
  Si     16.895513     26.037129      7.918880
  O      15.562104     25.230405      8.411324
  O      18.189481     25.231334      8.495093
  O      16.840782     26.053973      6.271428
  Si     16.913634     29.111512      7.856060
  Si     17.034470     35.336209      7.906927
  Si     19.675138     33.762426      7.908534
  Si     19.566971     30.669844      7.908184
  O      15.524464     29.865773      8.200816
  O      15.723274     34.493038      8.317333
  O      18.377956     34.575322      8.468630
  O      18.190342     29.950160      8.419935
  O      16.866440     27.582629      8.440396
  O      19.672446     32.208884      8.431551
  O      17.122300     28.916675      6.232587
  O      17.266136     35.386203      6.273514
  O      19.556569     33.697263      6.266259
  O      19.494098     30.713180      6.260037
  Si     16.984390     38.421905      7.908738
  O      15.680826     39.248923      8.430282
  O      18.399247     39.056058      8.434001
  O      16.966291     36.876482      8.437680
  O      16.908264     38.370795      6.261812
  O      20.790836     29.738981      8.452315
  O      21.102355     34.389179      8.399453
  H       4.074657     24.986772      8.036591
  H       1.410409     29.602015      8.036749
  H       1.410409     35.007985      8.036749
  H       4.074657     39.623228      8.036591
  H       8.948181     22.173255      8.038302
  H       8.948181     42.436745      8.038302
  H      14.277762     22.173204      8.038282
  H      14.277762     42.436796      8.038282
  H      18.960557     24.876228      8.036406
  H      18.960557     39.733772      8.036406
  H      21.624717     29.491420      8.036583
  H      21.624717     35.118580      8.036583
  H      13.252152     34.206284      6.125138
  H      11.151926     34.898197      5.705247
  H       9.116690     32.866633      5.562052
  H       9.950811     30.267787      5.657739
  H      12.430578     29.988467      5.901752
  H      13.995261     31.919317      6.062379
  H      13.567642     39.582861      5.915890
  H      11.063171     39.066298      5.701829
  H       8.547484     40.023750      5.284621
  H       6.165243     37.308208      5.319815
  H       5.148781     34.833834      5.526917
  H       3.327057     32.820885      5.728077
  H       4.121256     30.140795      5.726481
  H       6.004289     28.102156      5.699272
  H       6.937753     25.550774      5.840614
  H       9.660933     24.906370      5.861309
  H      12.312705     25.514251      5.793889
  H      15.025662     25.050979      5.893952
  H      16.966500     26.952398      5.921758
  H      17.787627     29.515259      5.863319
  H      19.517900     31.624385      5.926935
  H      18.819402     34.246175      5.944246
  H      17.064685     36.249861      5.887079
  H      16.132909     38.849703      5.927533
  P       3.240799     39.155619     10.366540
  O       3.545001     37.698317     10.340204
  O       2.842256     39.887872      9.117531
  O       2.102335     39.479908     11.465008
  O       4.499307     39.896856     11.121088
  C       5.793446     39.717492     10.611014
  C       6.827596     39.599383     11.705167
  O       6.718166     38.332018     12.392389
  C       8.232013     39.620608     11.125518
  O       9.161163     40.054401     12.090697
  C       8.482897     38.144676     10.814389
  O       9.842888     37.815216     10.881773
  C       7.724258     37.480052     11.975486
  N       7.139403     36.187609     11.616349
  C       5.832985     35.904527     11.264175
  N       5.657013     34.637206     10.969517
  C       6.893121     34.084228     11.097703
  C       7.360791     32.829249     10.721099
  N       6.598891     31.847732     10.237260
  N       8.701147     32.666380     10.874208
  C       9.534269     33.642993     11.343998
  N       9.150867     34.824549     11.692624
  C       7.833427     35.030368     11.510217
  H       2.178718     38.806629     12.147205
  H       5.842254     38.814738      9.991358
  H       6.053382     40.567104      9.970901
  H       6.703259     40.373154     12.464565
  H       8.272076     40.259339     10.238465
  H       9.970041     39.556604     11.902660
  H       8.036063     37.865215      9.857598
  H      10.218169     37.648851     10.006249
  H       8.439933     37.271989     12.779095
  H       5.062634     36.672402     11.171632
  H       5.667668     32.128246      9.957682
  H       7.022664     31.148559      9.639991
  H      10.581113     33.369231     11.386558
  H       9.136767     31.841613     10.486454
163
Coordinates from ORCA-job /data/Seafile/amp/al_surf/protonated_al_surf/frames/frame12/dry/amp_al_frame12_dry E -13417.867952623385
  Si      3.448298     33.799676      7.721550
  Si      3.500796     30.694254      7.790073
  O       2.139256     34.473121      8.371427
  O       2.259004     29.851753      8.429450
  O       3.511002     32.239232      8.269538
  O       3.394911     33.716843      6.073236
  O       3.461211     30.689714      6.148195
  Si      6.181118     26.062778      7.860368
  Si      8.864757     24.530339      7.888262
  O       4.855855     25.348180      8.470929
  O       7.516197     25.299848      8.387282
  O       8.811638     23.016703      8.486086
  O       6.200569     26.054601      6.210094
  O       8.844837     24.544087      6.241994
  Si      6.140599     29.123925      7.675579
  Si      6.111354     35.366732      7.475219
  Si      8.896343     33.842760      7.583705
  Si      8.912123     30.722230      7.561548
  O       4.903813     29.987099      8.289795
  O       4.830107     34.560571      8.086432
  O       7.471149     34.565321      7.879038
  O       7.540096     29.908584      7.977599
  O       6.213071     27.630949      8.316059
  O       8.765598     32.241766      8.085280
  O       5.858260     28.991716      6.066830
  O       5.924485     35.352296      5.838056
  O       9.151793     33.761692      5.967120
  O       9.132033     30.717924      5.950711
  Si      6.206739     38.424047      7.235615
  Si      8.937779     40.104604      7.488877
  O       5.039716     39.324122      7.750507
  O       7.636149     39.170054      7.662393
  O       6.249539     36.912471      7.921557
  O       8.574404     41.556286      8.142336
  O       6.281230     38.214058      5.615937
  O       9.311019     40.179301      5.877662
  Si     11.523330     26.073680      7.791675
  Si     14.188072     24.542490      7.869654
  O      10.184149     25.354568      8.386152
  O      12.881005     25.384210      8.366674
  O      13.983364     23.016411      8.404539
  O      11.462583     25.798304      6.169464
  O      14.219257     24.624813      6.223126
  Si     11.563178     29.254760      7.779938
  Al     11.623629     35.413668      7.965110
  Si     14.250504     33.808302      8.029085
  Si     14.201845     30.775004      7.905754
  O      10.161128     29.950717      8.299705
  O      10.093544     34.587702      8.326979
  O      13.044622     34.626967      8.684627
  O      12.883828     29.936909      8.445728
  O      11.498331     27.661577      8.125564
  O      14.349360     32.238422      8.583569
  O      11.633375     29.483032      6.156321
  O      11.913615     35.166865      6.238675
  O      14.025080     33.647820      6.405665
  O      13.967252     30.959987      6.292186
  Si     11.655193     38.635893      7.819382
  Si     14.381249     40.069802      7.902183
  O      10.289231     39.485460      8.171410
  O      12.985803     39.408401      8.425659
  O      11.507133     37.142507      8.378466
  O      14.603226     41.608351      8.416040
  O      11.876510     38.771607      6.184042
  O      14.405514     39.949992      6.259989
  Si     16.893054     26.033803      7.924086
  O      15.561239     25.225257      8.418301
  O      18.187689     25.225915      8.496040
  O      16.834036     26.054698      6.277429
  Si     16.913673     29.106251      7.860701
  Si     17.037864     35.330760      7.907963
  Si     19.676420     33.756112      7.909783
  Si     19.564407     30.665295      7.909368
  O      15.523656     29.861729      8.199641
  O      15.724510     34.488622      8.313693
  O      18.379929     34.568739      8.472056
  O      18.188358     29.946907      8.425556
  O      16.865168     27.578754      8.448433
  O      19.676120     32.203253      8.435578
  O      17.123720     28.907734      6.237982
  O      17.272058     35.382192      6.275230
  O      19.551271     33.687091      6.268590
  O      19.487252     30.712333      6.262106
  Si     16.990568     38.414785      7.909411
  O      15.696286     39.250160      8.439133
  O      18.409847     39.044199      8.426399
  O      16.970196     36.870049      8.441501
  O      16.902288     38.362661      6.263771
  O      20.787014     29.730737      8.448232
  O      21.105248     34.384446      8.395071
  H       4.074657     24.986772      8.036591
  H       1.410409     29.602015      8.036749
  H       1.410409     35.007985      8.036749
  H       4.074657     39.623228      8.036591
  H       8.948181     22.173255      8.038302
  H       8.948181     42.436745      8.038302
  H      14.277762     22.173204      8.038282
  H      14.277762     42.436796      8.038282
  H      18.960557     24.876228      8.036406
  H      18.960557     39.733772      8.036406
  H      21.624717     29.491420      8.036583
  H      21.624717     35.118580      8.036583
  H      13.233088     34.206766      6.137762
  H      11.139252     34.917434      5.728014
  H       9.100582     32.878886      5.586643
  H       9.958523     30.279313      5.680792
  H      12.427229     30.001590      5.909423
  H      13.985465     31.923385      6.067802
  H      13.571003     39.563694      5.931482
  H      11.080581     39.070243      5.723328
  H       8.563268     39.953001      5.316545
  H       6.220077     37.287129      5.349139
  H       5.158161     34.840855      5.549038
  H       3.337215     32.814105      5.736525
  H       4.144237     30.139290      5.740433
  H       6.023403     28.104688      5.717317
  H       6.951749     25.559814      5.852324
  H       9.663858     24.909161      5.869885
  H      12.310681     25.518394      5.797211
  H      15.023907     25.057574      5.897452
  H      16.966901     26.952211      5.926715
  H      17.781311     29.512118      5.863943
  H      19.509174     31.623714      5.928484
  H      18.819741     34.242961      5.944923
  H      17.063638     36.243392      5.886222
  H      16.128357     38.847023      5.932813
  P       3.298222     39.345000     10.284089
  O       3.510943     37.880413     10.430004
  O       3.061306     39.960874      8.933226
  O       2.101510     39.856196     11.236886
  O       4.543692     40.094891     11.041777
  C       5.842681     39.851950     10.573631
  C       6.842701     39.736438     11.700463
  O       6.699580     38.470612     12.387345
  C       8.265568     39.736338     11.167640
  O       9.172098     40.135487     12.167957
  C       8.489170     38.255450     10.849484
  O       9.839817     37.894723     10.925702
  C       7.704947     37.604456     11.997199
  N       7.111753     36.317083     11.626724
  C       5.808360     36.049392     11.245071
  N       5.625747     34.786804     10.938450
  C       6.851424     34.218699     11.092567
  C       7.314460     32.968625     10.708394
  N       6.552181     31.990051     10.208194
  N       8.651894     32.791615     10.881216
  C       9.489280     33.757959     11.368738
  N       9.108862     34.939264     11.723345
  C       7.796179     35.155542     11.524250
  H       2.067401     39.259438     11.990102
  H       5.872806     38.925229      9.985960
  H       6.147978     40.668021      9.908128
  H       6.700895     40.517070     12.450144
  H       8.353391     40.380810     10.288184
  H       9.976709     39.626674     11.996013
  H       8.043101     37.993079      9.886343
  H      10.204157     37.709057     10.051838
  H       8.405464     37.390758     12.814558
  H       5.046847     36.828834     11.140197
  H       5.623083     32.272879      9.925133
  H       6.979268     31.302028      9.601034
  H      10.534631     33.472792     11.420520
  H       9.084419     31.969096     10.487253
163
Coordinates from ORCA-job /data/Seafile/amp/al_surf/protonated_al_surf/frames/frame12/dry/amp_al_frame12_dry E -13417.865221857986
  Si      3.443125     33.788852      7.725952
  Si      3.506154     30.688958      7.796541
  O       2.122374     34.450997      8.372239
  O       2.262135     29.842985      8.428343
  O       3.515084     32.235015      8.281821
  O       3.397801     33.714067      6.079026
  O       3.476887     30.690858      6.155147
  Si      6.182154     26.064234      7.864968
  Si      8.863256     24.531490      7.886191
  O       4.855854     25.347220      8.472611
  O       7.516246     25.298690      8.393898
  O       8.814955     23.018361      8.486092
  O       6.205790     26.063403      6.216294
  O       8.836993     24.548249      6.241360
  Si      6.145045     29.126484      7.696764
  Si      6.114429     35.357263      7.500146
  Si      8.896479     33.835212      7.608186
  Si      8.909155     30.718102      7.575455
  O       4.906864     29.989430      8.304159
  O       4.822408     34.557149      8.103386
  O       7.466893     34.549738      7.918438
  O       7.541443     29.913401      8.009340
  O       6.212417     27.630119      8.332010
  O       8.769673     32.236841      8.112800
  O       5.870442     28.999477      6.085237
  O       5.943257     35.349376      5.861805
  O       9.137059     33.765616      5.987484
  O       9.110322     30.719024      5.960385
  Si      6.239314     38.418790      7.283612
  Si      8.950398     40.095273      7.533541
  O       5.054611     39.321853      7.746722
  O       7.666492     39.150278      7.728582
  O       6.251667     36.899702      7.964052
  O       8.578647     41.555883      8.164311
  O       6.365270     38.211725      5.665310
  O       9.298607     40.157314      5.917280
  Si     11.522993     26.068976      7.778026
  Si     14.186885     24.542041      7.859020
  O      10.184930     25.355531      8.381678
  O      12.880859     25.385431      8.358978
  O      13.977583     23.017899      8.396412
  O      11.457754     25.788802      6.157760
  O      14.217519     24.622596      6.213960
  Si     11.567012     29.250108      7.751652
  Al     11.626332     35.414063      7.951813
  Si     14.254963     33.806122      7.984252
  Si     14.205095     30.771054      7.863542
  O      10.175037     29.950215      8.281949
  O      10.101833     34.582554      8.337870
  O      13.056895     34.626839      8.652235
  O      12.890607     29.934825      8.410711
  O      11.500545     27.659345      8.104331
  O      14.355278     32.236624      8.537812
  O      11.625841     29.477104      6.128633
  O      11.898899     35.176478      6.221084
  O      14.013643     33.652143      6.362798
  O      13.965589     30.955171      6.250270
  Si     11.666638     38.637704      7.831322
  Si     14.391125     40.066544      7.897656
  O      10.311032     39.491062      8.209238
  O      13.003647     39.399877      8.432831
  O      11.519208     37.139322      8.377757
  O      14.611361     41.607313      8.407054
  O      11.874798     38.774901      6.195283
  O      14.407252     39.942133      6.256862
  Si     16.891645     26.030248      7.912051
  O      15.559767     25.224038      8.411478
  O      18.184908     25.226013      8.491922
  O      16.834031     26.043805      6.266940
  Si     16.916553     29.100841      7.834080
  Si     17.045271     35.328396      7.876993
  Si     19.680122     33.750490      7.892913
  Si     19.563508     30.661762      7.891974
  O      15.524329     29.858057      8.162828
  O      15.728598     34.484568      8.270109
  O      18.380746     34.562926      8.450210
  O      18.184492     29.946468      8.407203
  O      16.863346     27.577836      8.431866
  O      19.676159     32.198956      8.422861
  O      17.131996     28.896776      6.213695
  O      17.286605     35.385976      6.246647
  O      19.562559     33.678516      6.252511
  O      19.494284     30.708544      6.246072
  Si     16.994409     38.410630      7.893739
  O      15.706340     39.248328      8.435693
  O      18.415738     39.030513      8.411139
  O      16.970819     36.863694      8.422425
  O      16.899755     38.365226      6.249998
  O      20.778956     29.723660      8.437179
  O      21.104826     34.380496      8.386397
  H       4.074657     24.986772      8.036591
  H       1.410409     29.602015      8.036749
  H       1.410409     35.007985      8.036749
  H       4.074657     39.623228      8.036591
  H       8.948181     22.173255      8.038302
  H       8.948181     42.436745      8.038302
  H      14.277762     22.173204      8.038282
  H      14.277762     42.436796      8.038282
  H      18.960557     24.876228      8.036406
  H      18.960557     39.733772      8.036406
  H      21.624717     29.491420      8.036583
  H      21.624717     35.118580      8.036583
  H      13.211940     34.202928      6.106330
  H      11.118726     34.933518      5.716763
  H       9.074728     32.886679      5.598363
  H       9.944049     30.296542      5.685279
  H      12.416731     29.997319      5.874637
  H      13.969393     31.917913      6.022952
  H      13.569939     39.560449      5.928725
  H      11.082956     39.089431      5.739306
  H       8.559923     39.882795      5.365115
  H       6.265241     37.291380      5.385875
  H       5.174421     34.847426      5.560730
  H       3.343970     32.813956      5.733336
  H       4.162612     30.140936      5.749984
  H       6.035441     28.113971      5.731755
  H       6.958932     25.575273      5.853606
  H       9.656288     24.904878      5.861744
  H      12.303218     25.510989      5.778710
  H      15.018506     25.056019      5.881110
  H      16.974524     26.935621      5.905287
  H      17.787305     29.499617      5.834315
  H      19.514799     31.617006      5.905671
  H      18.842346     34.240954      5.916713
  H      17.078307     36.245286      5.854787
  H      16.125088     38.847282      5.917983
  P       3.368390     39.095618     10.558755
  O       3.616615     37.637788     10.699764
  O       3.134161     39.701653      9.203238
  O       2.149308     39.577494     11.492188
  O       4.585948     39.886657     11.301781
  C       5.877091     39.686613     10.793049
  C       6.910774     39.614816     11.890966
  O       6.826855     38.361762     12.603754
  C       8.317475     39.648173     11.326557
  O       9.235180     40.068351     12.304522
  C       8.561745     38.171096     11.010141
  O       9.919583     37.841893     11.028506
  C       7.835839     37.512690     12.192621
  N       7.248680     36.212547     11.871347
  C       5.929134     35.915341     11.583729
  N       5.755668     34.647094     11.302515
  C       7.000753     34.103936     11.374358
  C       7.469319     32.860920     10.977249
  N       6.707693     31.847051     10.550799
  N       8.819337     32.717497     11.068672
  C       9.662812     33.707295     11.487825
  N       9.274554     34.883396     11.848650
  C       7.949426     35.066996     11.732570
  H       2.104982     38.984665     12.248500
  H       5.921019     38.761953     10.207226
  H       6.131160     40.506364     10.111810
  H       6.761519     40.406312     12.627174
  H       8.378089     40.284045     10.439144
  H      10.051699     39.585922     12.107123
  H       8.087549     37.899100     10.064193
  H      10.247359     37.675468     10.133630
  H       8.567311     37.325958     12.987424
  H       5.140721     36.672840     11.551182
  H       5.743123     32.074687     10.345340
  H       7.115878     31.140483      9.950781
  H      10.714457     33.441561     11.485323
  H       9.244240     31.896062     10.662474
163
Coordinates from ORCA-job /data/Seafile/amp/al_surf/protonated_al_surf/frames/frame12/dry/amp_al_frame12_dry E -13417.871840485592
  Si      3.435059     33.784157      7.687370
  Si      3.506313     30.686269      7.769140
  O       2.118780     34.437079      8.355251
  O       2.267773     29.841938      8.415303
  O       3.521860     32.234292      8.249262
  O       3.366426     33.709911      6.041539
  O       3.464946     30.682186      6.127873
  Si      6.182132     26.062981      7.848926
  Si      8.862555     24.531734      7.875454
  O       4.857304     25.350825      8.466261
  O       7.516595     25.300763      8.381990
  O       8.815892     23.021107      8.482290
  O       6.202041     26.050132      6.200575
  O       8.834415     24.542063      6.230771
  Si      6.144601     29.125141      7.661893
  Si      6.108727     35.353791      7.430108
  Si      8.895728     33.831875      7.543817
  Si      8.907416     30.712631      7.526633
  O       4.910273     29.991173      8.269655
  O       4.817247     34.558411      8.045634
  O       7.460457     34.542403      7.849675
  O       7.539258     29.916593      7.970206
  O       6.213025     27.631798      8.305826
  O       8.767707     32.235445      8.056758
  O       5.862957     28.989783      6.051715
  O       5.928673     35.349863      5.792547
  O       9.148249     33.758896      5.924573
  O       9.108590     30.703414      5.911097
  Si      6.240475     38.424299      7.243363
  Si      8.946998     40.099343      7.500549
  O       5.053101     39.321342      7.714119
  O       7.672321     39.143280      7.694918
  O       6.248979     36.893974      7.905288
  O       8.574980     41.552587      8.150648
  O       6.375301     38.234425      5.621502
  O       9.285925     40.181045      5.882523
  Si     11.522726     26.066469      7.759903
  Si     14.187107     24.542692      7.849899
  O      10.184503     25.357281      8.367488
  O      12.880570     25.387494      8.346411
  O      13.974171     23.019863      8.390122
  O      11.457475     25.778115      6.141098
  O      14.221031     24.617843      6.204970
  Si     11.568481     29.247505      7.717467
  Al     11.618797     35.419757      7.902176
  Si     14.248116     33.809911      7.953764
  Si     14.203039     30.773668      7.836844
  O      10.175584     29.951876      8.236400
  O      10.093472     34.583601      8.280422
  O      13.046102     34.633589      8.611490
  O      12.887858     29.936545      8.380271
  O      11.499830     27.658627      8.077346
  O      14.346919     32.240557      8.509373
  O      11.634269     29.466565      6.093841
  O      11.905140     35.179142      6.174100
  O      14.015360     33.653702      6.331452
  O      13.969232     30.955318      6.222045
  Si     11.664849     38.644308      7.781326
  Si     14.391258     40.067540      7.875758
  O      10.311724     39.497367      8.167364
  O      13.000864     39.396835      8.397388
  O      11.507839     37.146034      8.322018
  O      14.609976     41.604181      8.397531
  O      11.873763     38.790655      6.146513
  O      14.417659     39.955281      6.234274
  Si     16.890832     26.031705      7.904782
  O      15.558593     25.226019      8.404516
  O      18.183081     25.227977      8.488908
  O      16.836814     26.040362      6.259821
  Si     16.915103     29.102424      7.820606
  Si     17.041807     35.329037      7.860776
  Si     19.677425     33.751268      7.885531
  Si     19.561157     30.663445      7.883815
  O      15.521377     29.860851      8.141654
  O      15.720994     34.487897      8.245786
  O      18.375121     34.562265      8.438537
  O      18.180288     29.950145      8.397050
  O      16.860288     27.580497      8.421639
  O      19.673097     32.200137      8.416323
  O      17.135768     28.895010      6.201312
  O      17.289099     35.387956      6.231458
  O      19.566552     33.677823      6.244784
  O      19.497656     30.710033      6.238070
  Si     16.992047     38.410325      7.879791
  O      15.702823     39.247636      8.419989
  O      18.414246     39.024957      8.402035
  O      16.964671     36.863606      8.407810
  O      16.902088     38.367677      6.236146
  O      20.773499     29.721353      8.430742
  O      21.101328     34.381094      8.382665
  H       4.074657     24.986772      8.036591
  H       1.410409     29.602015      8.036749
  H       1.410409     35.007985      8.036749
  H       4.074657     39.623228      8.036591
  H       8.948181     22.173255      8.038302
  H       8.948181     42.436745      8.038302
  H      14.277762     22.173204      8.038282
  H      14.277762     42.436796      8.038282
  H      18.960557     24.876228      8.036406
  H      18.960557     39.733772      8.036406
  H      21.624717     29.491420      8.036583
  H      21.624717     35.118580      8.036583
  H      13.211737     34.199465      6.070859
  H      11.130120     34.931128      5.664603
  H       9.084853     32.879387      5.535893
  H       9.947315     30.286502      5.642402
  H      12.426707     29.984971      5.840821
  H      13.966976     31.917411      5.992943
  H      13.580419     39.579449      5.897805
  H      11.086352     39.126890      5.695331
  H       8.547576     39.899834      5.332266
  H       6.251023     37.320050      5.329066
  H       5.154119     34.853259      5.495183
  H       3.310838     32.809391      5.695647
  H       4.146876     30.127844      5.721517
  H       6.023561     28.101648      5.702659
  H       6.954205     25.559807      5.838770
  H       9.655776     24.889561      5.847353
  H      12.302119     25.498754      5.761699
  H      15.020929     25.051560      5.870327
  H      16.983662     26.929033      5.893487
  H      17.792365     29.495722      5.821345
  H      19.517789     31.617602      5.895836
  H      18.852632     34.243921      5.902835
  H      17.085461     36.247580      5.838662
  H      16.126874     38.847470      5.901659
  P       3.292761     39.353071     10.207639
  O       3.547513     37.892261     10.284888
  O       3.039219     40.014157      8.882269
  O       2.068680     39.778181     11.158772
  O       4.498658     40.128937     10.985370
  C       5.806992     39.915175     10.516264
  C       6.803474     39.824491     11.652382
  O       6.664231     38.588047     12.388015
  C       8.233651     39.810611     11.147269
  O       9.118536     40.223048     12.158746
  C       8.456763     38.320046     10.867836
  O       9.804254     37.947446     10.945113
  C       7.667444     37.706002     12.033245
  N       7.064636     36.416084     11.707388
  C       5.750312     36.132340     11.388527
  N       5.577095     34.867720     11.090710
  C       6.817311     34.315353     11.181863
  C       7.296373     33.082258     10.765803
  N       6.550876     32.088579     10.275847
  N       8.640879     32.928845     10.900908
  C       9.473707     33.904832     11.367761
  N       9.077870     35.074744     11.736230
  C       7.758660     35.266345     11.585330
  H       2.027327     39.151574     11.887449
  H       5.854593     38.992333      9.935221
  H       6.096822     40.729409      9.843499
  H       6.646507     40.634805     12.365962
  H       8.351353     40.426076     10.251898
  H       9.934187     39.725713     11.999870
  H       8.012257     38.041229      9.910450
  H      10.160746     37.756948     10.064468
  H       8.361062     37.515010     12.859623
  H       4.964657     36.893010     11.357828
  H       5.592893     32.323165     10.051197
  H       6.979435     31.400724      9.668741
  H      10.523976     33.637531     11.390991
  H       9.074704     32.114222     10.489855
163
Coordinates from ORCA-job /data/Seafile/amp/al_surf/protonated_al_surf/frames/frame12/dry/amp_al_frame12_dry E -13417.872416561788
  Si      3.433975     33.778088      7.706174
  Si      3.509273     30.682518      7.783315
  O       2.104462     34.420773      8.358894
  O       2.268433     29.833506      8.417975
  O       3.522100     32.229379      8.269023
  O       3.376285     33.703599      6.060462
  O       3.474848     30.683084      6.141907
  Si      6.184445     26.060607      7.860421
  Si      8.863885     24.531423      7.888707
  O       4.856024     25.348537      8.470201
  O       7.516588     25.296394      8.397006
  O       8.816766     23.017457      8.487022
  O       6.210799     26.050131      6.212425
  O       8.837171     24.550789      6.244176
  Si      6.148043     29.122632      7.680937
  Si      6.110079     35.344321      7.459340
  Si      8.896756     33.826204      7.572608
  Si      8.910146     30.706138      7.554017
  O       4.911024     29.986308      8.286246
  O       4.812284     34.555763      8.072614
  O       7.458628     34.529703      7.883742
  O       7.540273     29.914810      7.997312
  O       6.214557     27.627719      8.321424
  O       8.770196     32.229639      8.084898
  O       5.870647     28.990162      6.069472
  O       5.936534     35.334011      5.821401
  O       9.151112     33.756640      5.953608
  O       9.111899     30.695445      5.938180
  Si      6.251278     38.411526      7.254344
  Si      8.947204     40.095113      7.519010
  O       5.055339     39.309583      7.699076
  O       7.679694     39.129943      7.719379
  O       6.251786     36.885519      7.927474
  O       8.570995     41.554483      8.154211
  O       6.422421     38.212254      5.634712
  O       9.288479     40.165946      5.900693
  Si     11.524250     26.063907      7.779406
  Si     14.188215     24.543159      7.862146
  O      10.185882     25.354135      8.385756
  O      12.882566     25.385264      8.364325
  O      13.971574     23.017440      8.392243
  O      11.458764     25.776702      6.160487
  O      14.222620     24.626478      6.217908
  Si     11.573954     29.244732      7.744214
  Al     11.616325     35.419202      7.936087
  Si     14.247153     33.809940      7.989853
  Si     14.204992     30.774479      7.869507
  O      10.179991     29.945989      8.261426
  O      10.092396     34.577462      8.311769
  O      13.043930     34.633119      8.644670
  O      12.891149     29.933795      8.411209
  O      11.502431     27.655259      8.098872
  O      14.348537     32.239915      8.544059
  O      11.644910     29.469117      6.121344
  O      11.906573     35.177193      6.208693
  O      14.013401     33.654070      6.367817
  O      13.970859     30.962532      6.255351
  Si     11.661626     38.643684      7.819826
  Si     14.388927     40.064387      7.901539
  O      10.310722     39.504270      8.199066
  O      12.998729     39.398247      8.432945
  O      11.500269     37.144163      8.356684
  O      14.611591     41.606885      8.403742
  O      11.869252     38.787297      6.184928
  O      14.411005     39.938249      6.260999
  Si     16.890502     26.031451      7.919382
  O      15.560840     25.221892      8.419513
  O      18.184440     25.223075      8.493415
  O      16.829900     26.048629      6.274936
  Si     16.916492     29.101403      7.845196
  Si     17.041096     35.329449      7.892120
  Si     19.675333     33.750270      7.902472
  Si     19.559975     30.663667      7.898907
  O      15.522893     29.859123      8.168099
  O      15.720769     34.488280      8.277605
  O      18.377700     34.563216      8.463974
  O      18.182157     29.949871      8.418982
  O      16.863178     27.578086      8.443369
  O      19.677749     32.199257      8.433946
  O      17.135107     28.895201      6.225544
  O      17.284919     35.387950      6.262318
  O      19.549422     33.673704      6.262987
  O      19.486909     30.715918      6.254131
  Si     16.989385     38.409076      7.902007
  O      15.704956     39.252031      8.447140
  O      18.418895     39.023087      8.406145
  O      16.965290     36.864932      8.437155
  O      16.886542     38.358013      6.259711
  O      20.773858     29.715477      8.432666
  O      21.104815     34.379822      8.384310
  H       4.074657     24.986772      8.036591
  H       1.410409     29.602015      8.036749
  H       1.410409     35.007985      8.036749
  H       4.074657     39.623228      8.036591
  H       8.948181     22.173255      8.038302
  H       8.948181     42.436745      8.038302
  H      14.277762     22.173204      8.038282
  H      14.277762     42.436796      8.038282
  H      18.960557     24.876228      8.036406
  H      18.960557     39.733772      8.036406
  H      21.624717     29.491420      8.036583
  H      21.624717     35.118580      8.036583
  H      13.219709     34.214287      6.106652
  H      11.132265     34.930083      5.696903
  H       9.076628     32.880176      5.561439
  H       9.949244     30.273850      5.672855
  H      12.441726     29.983036      5.873322
  H      13.982342     31.925133      6.029433
  H      13.574081     39.558585      5.930838
  H      11.078392     39.117256      5.734346
  H       8.559813     39.850550      5.355303
  H       6.286061     37.301431      5.341381
  H       5.162578     34.840444      5.522882
  H       3.324282     32.804153      5.713748
  H       4.160172     30.131345      5.738586
  H       6.033118     28.103142      5.719229
  H       6.962861     25.558072      5.852798
  H       9.659772     24.897377      5.863102
  H      12.304355     25.502064      5.779505
  H      15.023797     25.059517      5.885267
  H      16.975109     26.938903      5.912389
  H      17.787627     29.499657      5.843967
  H      19.506085     31.625114      5.915098
  H      18.831641     34.238309      5.926469
  H      17.072235     36.245030      5.868220
  H      16.107386     38.834136      5.929006
  P       3.126173     39.383585     10.219420
  O       3.241399     37.939038     10.534907
  O       2.981548     39.839127      8.793086
  O       1.900305     40.044473     11.019379
  O       4.354661     40.186044     10.937889
  C       5.672808     39.935080     10.492378
  C       6.655883     39.836046     11.645352
  O       6.500446     38.590146     12.367263
  C       8.098226     39.817953     11.170578
  O       8.961205     40.209785     12.213546
  C       8.321617     38.329417     10.870469
  O       9.672462     37.954972     10.959817
  C       7.508334     37.703019     12.014920
  N       6.904506     36.420396     11.643508
  C       5.594104     36.167672     11.287872
  N       5.403681     34.923666     10.924836
  C       6.631545     34.349567     11.013703
  C       7.094536     33.131862     10.541427
  N       6.337566     32.194348      9.971209
  N       8.431811     32.944457     10.691342
  C       9.273178     33.881633     11.221338
  N       8.895569     35.039232     11.643623
  C       7.583055     35.264268     11.479819
  H       1.766713     39.540933     11.827022
  H       5.711509     39.005294      9.919997
  H       5.989126     40.736659      9.816397
  H       6.485058     40.643904     12.359720
  H       8.237946     40.449110     10.289712
  H       9.782001     39.722518     12.066434
  H       7.883161     38.064895      9.906138
  H      10.046491     37.762553     10.087687
  H       8.187467     37.494904     12.850802
  H       4.824229     36.943367     11.267676
  H       5.398047     32.477615      9.734678
  H       6.761534     31.541450      9.329061
  H      10.316936     33.600026     11.241388
  H       8.857670     32.151249     10.234679
163
Coordinates from ORCA-job /data/Seafile/amp/al_surf/protonated_al_surf/frames/frame12/dry/amp_al_frame12_dry E -13417.875078457004
  Si      3.433640     33.777876      7.718407
  Si      3.510155     30.684435      7.792858
  O       2.091669     34.406925      8.358939
  O       2.267499     29.832325      8.419779
  O       3.525095     32.229760      8.281846
  O       3.385842     33.704766      6.072017
  O       3.480791     30.687398      6.150889
  Si      6.185110     26.061400      7.867672
  Si      8.863255     24.532670      7.894156
  O       4.854764     25.347747      8.472389
  O       7.516147     25.295733      8.404880
  O       8.818245     23.016578      8.488320
  O       6.214143     26.053874      6.219816
  O       8.834756     24.556374      6.249528
  Si      6.148031     29.124247      7.695305
  Si      6.110320     35.346149      7.488972
  Si      8.894184     33.827082      7.600448
  Si      8.906826     30.706400      7.573881
  O       4.910048     29.987030      8.297459
  O       4.805067     34.562368      8.094355
  O       7.454465     34.525433      7.919249
  O       7.535598     29.920535      8.019281
  O       6.213046     27.627260      8.332351
  O       8.769008     32.228406      8.111988
  O       5.875370     28.993991      6.082508
  O       5.945542     35.335639      5.850204
  O       9.142074     33.759551      5.980320
  O       9.102739     30.699721      5.956917
  Si      6.268100     38.410592      7.277803
  Si      8.954732     40.090471      7.549549
  O       5.062799     39.310210      7.686968
  O       7.695786     39.118372      7.761662
  O       6.248353     36.886281      7.956834
  O       8.574921     41.556756      8.169060
  O       6.483293     38.203865      5.661496
  O       9.284934     40.150621      5.927728
  Si     11.524261     26.062955      7.785782
  Si     14.188075     24.543818      7.865738
  O      10.185581     25.353778      8.391837
  O      12.883133     25.385131      8.370394
  O      13.968612     23.016381      8.390813
  O      11.458320     25.776005      6.166628
  O      14.223036     24.628153      6.221570
  Si     11.574147     29.244269      7.753471
  Al     11.616298     35.420964      7.950969
  Si     14.247304     33.810339      7.997737
  Si     14.205779     30.774146      7.876597
  O      10.181159     29.946055      8.271104
  O      10.092648     34.577726      8.334572
  O      13.046043     34.633461      8.654155
  O      12.892306     29.932236      8.418871
  O      11.502343     27.654136      8.105272
  O      14.349093     32.239104      8.549920
  O      11.641099     29.471558      6.130980
  O      11.900731     35.178515      6.222698
  O      14.010203     33.656273      6.375960
  O      13.971294     30.962284      6.262194
  Si     11.668144     38.645436      7.844548
  Si     14.395170     40.062768      7.910916
  O      10.322001     39.511347      8.231486
  O      13.010314     39.395712      8.450991
  O      11.506987     37.144863      8.375443
  O      14.616917     41.609001      8.402832
  O      11.865719     38.791449      6.208685
  O      14.411082     39.930487      6.270376
  Si     16.889977     26.031219      7.923114
  O      15.560896     25.221000      8.423907
  O      18.184921     25.221444      8.494037
  O      16.828324     26.049162      6.278651
  Si     16.917384     29.100920      7.850900
  Si     17.042180     35.328336      7.898596
  Si     19.675591     33.748317      7.906491
  Si     19.559952     30.662867      7.902273
  O      15.523945     29.858353      8.173226
  O      15.721489     34.488509      8.282870
  O      18.378859     34.560466      8.468847
  O      18.182468     29.950496      8.424458
  O      16.863848     27.576946      8.448044
  O      19.680293     32.197542      8.438551
  O      17.136238     28.895261      6.230875
  O      17.285640     35.388282      6.268531
  O      19.548184     33.670086      6.266905
  O      19.486748     30.716676      6.257596
  Si     16.992511     38.407012      7.906299
  O      15.713626     39.254733      8.456102
  O      18.427034     39.016779      8.401138
  O      16.966761     36.864033      8.443687
  O      16.883498     38.356470      6.264369
  O      20.772692     29.709635      8.430380
  O      21.105882     34.379768      8.384084
  H       4.074657     24.986772      8.036591
  H       1.410409     29.602015      8.036749
  H       1.410409     35.007985      8.036749
  H       4.074657     39.623228      8.036591
  H       8.948181     22.173255      8.038302
  H       8.948181     42.436745      8.038302
  H      14.277762     22.173204      8.038282
  H      14.277762     42.436796      8.038282
  H      18.960557     24.876228      8.036406
  H      18.960557     39.733772      8.036406
  H      21.624717     29.491420      8.036583
  H      21.624717     35.118580      8.036583
  H      13.217903     34.219690      6.117591
  H      11.125006     34.930946      5.713817
  H       9.055609     32.886424      5.585152
  H       9.940879     30.282471      5.689793
  H      12.435907     29.987335      5.882544
  H      13.982931     31.924796      6.036949
  H      13.573121     39.550302      5.944790
  H      11.074218     39.128267      5.765506
  H       8.558335     39.813597      5.392679
  H       6.327950     37.298861      5.363878
  H       5.171568     34.846119      5.548467
  H       3.339359     32.806617      5.723507
  H       4.166386     30.134613      5.750442
  H       6.039032     28.107847      5.731597
  H       6.966485     25.562521      5.860306
  H       9.658573     24.898608      5.867897
  H      12.303445     25.503848      5.784125
  H      15.023244     25.061880      5.888640
  H      16.975690     26.938394      5.915619
  H      17.786971     29.500443      5.848701
  H      19.504281     31.625688      5.918992
  H      18.831651     34.234932      5.929522
  H      17.070990     36.244619      5.874708
  H      16.103083     38.831835      5.936306
  P       3.281889     39.519656     10.364716
  O       3.394490     38.061504     10.617744
  O       3.151629     40.044087      8.960007
  O       2.057093     40.150818     11.190079
  O       4.513657     40.278955     11.118581
  C       5.816586     39.998609     10.662919
  C       6.796394     39.887813     11.808731
  O       6.624812     38.648204     12.532925
  C       8.228208     39.850473     11.317484
  O       9.111163     40.223594     12.349915
  C       8.413329     38.360344     11.010672
  O       9.755959     37.964340     11.066162
  C       7.605405     37.742659     12.165131
  N       6.969985     36.471398     11.798121
  C       5.649172     36.235526     11.455830
  N       5.441954     34.992981     11.089153
  C       6.664962     34.402700     11.164932
  C       7.114102     33.178906     10.686349
  N       6.348244     32.246950     10.117901
  N       8.451871     32.979694     10.818457
  C       9.309804     33.909510     11.335565
  N       8.946984     35.070124     11.762879
  C       7.633481     35.308674     11.617031
  H       1.911668     39.605191     11.967058
  H       5.834151     39.064460     10.092441
  H       6.144722     40.791051      9.982205
  H       6.642023     40.699583     12.522813
  H       8.368908     40.480701     10.435373
  H       9.926385     39.733366     12.180386
  H       7.953858     38.108841     10.052792
  H      10.096432     37.777605     10.182273
  H       8.289269     37.519064     12.992979
  H       4.889190     37.018806     11.439632
  H       5.405536     32.531575      9.894707
  H       6.764424     31.588395      9.476523
  H      10.352212     33.618336     11.337583
  H       8.863154     32.184615     10.351204
163
Coordinates from ORCA-job /data/Seafile/amp/al_surf/protonated_al_surf/frames/frame12/dry/amp_al_frame12_dry E -13417.871651420584
  Si      3.423304     33.769010      7.675448
  Si      3.511666     30.678055      7.774613
  O       2.082711     34.383910      8.336544
  O       2.271617     29.831595      8.411799
  O       3.531889     32.229217      8.255987
  O       3.361222     33.695343      6.031887
  O       3.479539     30.678181      6.133629
  Si      6.185813     26.060039      7.861217
  Si      8.862894     24.532765      7.884526
  O       4.856908     25.347194      8.469793
  O       7.517044     25.295374      8.400431
  O       8.822266     23.019517      8.485992
  O       6.213810     26.055949      6.214276
  O       8.826623     24.553674      6.240566
  Si      6.150539     29.121862      7.690618
  Si      6.110496     35.330326      7.425418
  Si      8.897871     33.814484      7.564118
  Si      8.908295     30.693292      7.561766
  O       4.911254     29.988695      8.286362
  O       4.798008     34.559036      8.039320
  O       7.448160     34.504258      7.871308
  O       7.533823     29.923306      8.019161
  O       6.212346     27.625781      8.328365
  O       8.772708     32.221818      8.093651
  O       5.882321     28.994661      6.077098
  O       5.947989     35.315927      5.788059
  O       9.155669     33.739867      5.946954
  O       9.087924     30.685095      5.942938
  Si      6.281805     38.402900      7.241498
  Si      8.955188     40.093861      7.531716
  O       5.065592     39.287843      7.645604
  O       7.710115     39.099953      7.745710
  O       6.250966     36.867085      7.903813
  O       8.571763     41.555526      8.161619
  O       6.527971     38.211436      5.625890
  O       9.276552     40.163072      5.909221
  Si     11.525850     26.057993      7.766199
  Si     14.189894     24.542944      7.851659
  O      10.186952     25.354361      8.378194
  O      12.884779     25.384874      8.356235
  O      13.966174     23.018883      8.383117
  O      11.456545     25.766294      6.148419
  O      14.224627     24.623384      6.208215
  Si     11.578346     29.238675      7.729087
  Al     11.609972     35.428241      7.916611
  Si     14.240794     33.812619      7.970906
  Si     14.204746     30.774296      7.849208
  O      10.188831     29.939651      8.248678
  O      10.087841     34.577619      8.300385
  O      13.038060     34.640651      8.624976
  O      12.896580     29.928543      8.392328
  O      11.506271     27.649722      8.080398
  O      14.343455     32.241901      8.522527
  O      11.635981     29.465603      6.105840
  O      11.899647     35.186516      6.188904
  O      14.006837     33.658407      6.349044
  O      13.970141     30.958716      6.234268
  Si     11.666339     38.651760      7.808002
  Si     14.397987     40.062329      7.882810
  O      10.328421     39.524249      8.211007
  O      13.013844     39.389711      8.417096
  O      11.497308     37.153084      8.338795
  O      14.617820     41.603590      8.389162
  O      11.858504     38.799997      6.171806
  O      14.416861     39.937225      6.242275
  Si     16.890466     26.031815      7.908389
  O      15.561296     25.222867      8.412442
  O      18.182623     25.225168      8.489159
  O      16.832530     26.042605      6.264551
  Si     16.918248     29.102131      7.828182
  Si     17.039674     35.328368      7.874058
  Si     19.674373     33.748204      7.891238
  Si     19.559446     30.663735      7.885950
  O      15.523977     29.860916      8.145257
  O      15.714924     34.491176      8.256021
  O      18.372616     34.558152      8.449861
  O      18.179512     29.954146      8.407723
  O      16.861758     27.580037      8.429851
  O      19.678511     32.198251      8.426127
  O      17.139739     28.894258      6.209249
  O      17.284676     35.387216      6.244857
  O      19.556170     33.668970      6.251632
  O      19.490569     30.716641      6.242158
  Si     16.993201     38.406375      7.882775
  O      15.714266     39.254297      8.434326
  O      18.428097     39.007826      8.385571
  O      16.962194     36.863134      8.422534
  O      16.885870     38.357775      6.241784
  O      20.765752     29.706027      8.420236
  O      21.100581     34.379924      8.378648
  H       4.074657     24.986772      8.036591
  H       1.410409     29.602015      8.036749
  H       1.410409     35.007985      8.036749
  H       4.074657     39.623228      8.036591
  H       8.948181     22.173255      8.038302
  H       8.948181     42.436745      8.038302
  H      14.277762     22.173204      8.038282
  H      14.277762     42.436796      8.038282
  H      18.960557     24.876228      8.036406
  H      18.960557     39.733772      8.036406
  H      21.624717     29.491420      8.036583
  H      21.624717     35.118580      8.036583
  H      13.206331     34.208997      6.089724
  H      11.129643     34.932043      5.675956
  H       9.065019     32.867197      5.550556
  H       9.930006     30.280240      5.669961
  H      12.421653     29.991170      5.851271
  H      13.962712     31.920042      6.006160
  H      13.575842     39.564152      5.911826
  H      11.071924     39.156372      5.733731
  H       8.553335     39.808959      5.379163
  H       6.350593     37.317426      5.308152
  H       5.169996     34.831832      5.484277
  H       3.314398     32.796826      5.681463
  H       4.162808     30.121025      5.733505
  H       6.045887     28.108720      5.724324
  H       6.968298     25.569269      5.852051
  H       9.650983     24.888273      5.852848
  H      12.299799     25.494151      5.762341
  H      15.020905     25.061391      5.871885
  H      16.983849     26.928632      5.895415
  H      17.790148     29.497411      5.824303
  H      19.502455     31.624219      5.900505
  H      18.845796     34.236084      5.906271
  H      17.074224     36.243022      5.847936
  H      16.105013     38.831616      5.911321
  P       3.161910     39.373750     10.146577
  O       3.321670     37.945964     10.517111
  O       3.058810     39.771106      8.693957
  O       1.884286     40.026255     10.863578
  O       4.335422     40.238793     10.861260
  C       5.648244     39.960720     10.439898
  C       6.622110     39.970718     11.589670
  O       6.495430     38.786964     12.401576
  C       8.051829     39.958669     11.094017
  O       8.916987     40.456926     12.084983
  C       8.303547     38.461842     10.916415
  O       9.655163     38.122300     11.017348
  C       7.507871     37.895032     12.104431
  N       6.924732     36.583298     11.830640
  C       5.618162     36.261548     11.513162
  N       5.474283     34.988348     11.234722
  C       6.728595     34.464860     11.343117
  C       7.245697     33.233841     10.947831
  N       6.534230     32.217628     10.464645
  N       8.596482     33.124916     11.078828
  C       9.405433     34.134022     11.515009
  N       8.974726     35.298435     11.863079
  C       7.647623     35.448235     11.717921
  H       1.713422     39.542695     11.676794
  H       5.692571     38.985048      9.954471
  H       5.954992     40.701436      9.694798
  H       6.433597     40.823880     12.244633
  H       8.167171     40.514280     10.157997
  H       9.761138     40.006310     11.934600
  H       7.877744     38.119743      9.971177
  H      10.005718     37.895691     10.148157
  H       8.185948     37.757625     12.953904
  H       4.825394     37.000775     11.452739
  H       5.565204     32.411797     10.246328
  H       6.984662     31.529506      9.875921
  H      10.468137     33.902972     11.528501
  H       9.047850     32.320022     10.663600
163
Coordinates from ORCA-job /data/Seafile/amp/al_surf/protonated_al_surf/frames/frame12/dry/amp_al_frame12_dry E -13417.877914300769
  Si      3.425832     33.770774      7.699821
  Si      3.512600     30.680279      7.786071
  O       2.075554     34.381432      8.346171
  O       2.270389     29.830975      8.415563
  O       3.531649     32.229361      8.275235
  O       3.377563     33.700869      6.055558
  O       3.483870     30.687355      6.144755
  Si      6.186118     26.060315      7.864855
  Si      8.862913     24.533226      7.888474
  O       4.856172     25.347207      8.471528
  O       7.516929     25.295050      8.404630
  O       8.823187     23.018828      8.487087
  O       6.214825     26.056590      6.218273
  O       8.826814     24.556901      6.244733
  Si      6.151664     29.123100      7.697980
  Si      6.108753     35.338457      7.470786
  Si      8.893296     33.819616      7.595872
  Si      8.905869     30.698894      7.580848
  O       4.910475     29.986468      8.294209
  O       4.793265     34.566567      8.078341
  O       7.444463     34.508875      7.915965
  O       7.531649     29.926947      8.032194
  O       6.213085     27.625462      8.333081
  O       8.771321     32.225502      8.120753
  O       5.885315     28.997876      6.083851
  O       5.952119     35.327273      5.832990
  O       9.140925     33.749539      5.976662
  O       9.086051     30.698751      5.961185
  Si      6.289061     38.408902      7.277903
  Si      8.956485     40.089966      7.561106
  O       5.071052     39.307797      7.654505
  O       7.713655     39.098568      7.793738
  O       6.245038     36.877659      7.947241
  O       8.572613     41.557976      8.175772
  O       6.554554     38.211229      5.665016
  O       9.270531     40.142695      5.936973
  Si     11.525691     26.058858      7.773468
  Si     14.189109     24.543002      7.856025
  O      10.186782     25.354033      8.383676
  O      12.884765     25.385075      8.362319
  O      13.964107     23.017942      8.384092
  O      11.457228     25.770063      6.155392
  O      14.224305     24.623407      6.212849
  Si     11.577177     29.238799      7.739553
  Al     11.610481     35.426730      7.934784
  Si     14.241491     33.810354      7.981396
  Si     14.205221     30.772342      7.858597
  O      10.188676     29.940244      8.259745
  O      10.088611     34.579286      8.326078
  O      13.040171     34.637537      8.636691
  O      12.895914     29.928246      8.401787
  O      11.505266     27.649967      8.091076
  O      14.344137     32.239308      8.531204
  O      11.634342     29.465843      6.116432
  O      11.893567     35.185336      6.206256
  O      14.004727     33.657993      6.359605
  O      13.972715     30.957018      6.243370
  Si     11.667189     38.652315      7.834125
  Si     14.398481     40.061189      7.897189
  O      10.331135     39.526533      8.240942
  O      13.015888     39.391094      8.439124
  O      11.502910     37.150816      8.358299
  O      14.619608     41.605511      8.392985
  O      11.853030     38.801361      6.197767
  O      14.412404     39.930813      6.256911
  Si     16.890102     26.030898      7.912812
  O      15.560870     25.221983      8.416821
  O      18.183214     25.223897      8.490919
  O      16.831068     26.043036      6.269242
  Si     16.917847     29.101079      7.835158
  Si     17.039498     35.326778      7.881968
  Si     19.674442     33.746980      7.895340
  Si     19.558807     30.662572      7.889994
  O      15.523617     29.858308      8.155706
  O      15.715920     34.488766      8.265350
  O      18.373846     34.557199      8.455214
  O      18.179291     29.953689      8.413414
  O      16.862668     27.578437      8.435377
  O      19.679224     32.196945      8.430053
  O      17.137250     28.895407      6.215926
  O      17.281961     35.386342      6.252606
  O      19.553756     33.667655      6.255987
  O      19.490003     30.715966      6.246463
  Si     16.993248     38.404824      7.890754
  O      15.716696     39.254561      8.445893
  O      18.430949     39.005324      8.385981
  O      16.962280     36.861753      8.430527
  O      16.882718     38.356920      6.250087
  O      20.765187     29.702842      8.420508
  O      21.101542     34.379412      8.379306
  H       4.074657     24.986772      8.036591
  H       1.410409     29.602015      8.036749
  H       1.410409     35.007985      8.036749
  H       4.074657     39.623228      8.036591
  H       8.948181     22.173255      8.038302
  H       8.948181     42.436745      8.038302
  H      14.277762     22.173204      8.038282
  H      14.277762     42.436796      8.038282
  H      18.960557     24.876228      8.036406
  H      18.960557     39.733772      8.036406
  H      21.624717     29.491420      8.036583
  H      21.624717     35.118580      8.036583
  H      13.203433     34.207967      6.102639
  H      11.120295     34.930371      5.697627
  H       9.040797     32.878337      5.578708
  H       9.928392     30.295224      5.686329
  H      12.420702     29.989882      5.860663
  H      13.967320     31.918063      6.015059
  H      13.570906     39.559259      5.928634
  H      11.063909     39.155279      5.762377
  H       8.548119     39.778626      5.412002
  H       6.364616     37.320544      5.345109
  H       5.175557     34.843330      5.525047
  H       3.333662     32.803256      5.702288
  H       4.168700     30.131933      5.744592
  H       6.049630     28.112596      5.729734
  H       6.968760     25.569652      5.855056
  H       9.650914     24.891597      5.856539
  H      12.300709     25.499150      5.768307
  H      15.020332     25.061578      5.875594
  H      16.981069     26.929167      5.899648
  H      17.787368     29.499271      5.830626
  H      19.501610     31.623772      5.904354
  H      18.842441     34.234041      5.910941
  H      17.070040     36.242347      5.856176
  H      16.101566     38.830557      5.920241
  P       3.171092     39.479602     10.218198
  O       3.325421     38.029015     10.488158
  O       3.042230     39.976783      8.801009
  O       1.908790     40.082411     11.003357
  O       4.360096     40.292094     10.972995
  C       5.677930     40.038674     10.537363
  C       6.642891     39.969075     11.699093
  O       6.483767     38.751666     12.456471
  C       8.080343     39.945926     11.224257
  O       8.940582     40.375558     12.252486
  C       8.301692     38.452552     10.975690
  O       9.647351     38.078846     11.066317
  C       7.485440     37.854000     12.132204
  N       6.881324     36.565177     11.796141
  C       5.572673     36.288730     11.450354
  N       5.401034     35.034420     11.112543
  C       6.639778     34.478705     11.209194
  C       7.127566     33.254475     10.767430
  N       6.390909     32.287645     10.227983
  N       8.471602     33.100551     10.912328
  C       9.299967     34.067978     11.405851
  N       8.897116     35.226783     11.800386
  C       7.577929     35.419202     11.642167
  H       1.748158     39.539137     11.780073
  H       5.723387     39.097704      9.981800
  H       5.994059     40.827829      9.847696
  H       6.464434     40.796829     12.388614
  H       8.221085     40.543244     10.319782
  H       9.776877     39.915699     12.094948
  H       7.868251     38.160338     10.017207
  H       9.997159     37.868220     10.191796
  H       8.153915     37.668743     12.980627
  H       4.793555     37.049302     11.419074
  H       5.433424     32.523982     10.006945
  H       6.825059     31.603061      9.626483
  H      10.353636     33.810626     11.425550
  H       8.907174     32.303222     10.468165
163
Coordinates from ORCA-job /data/Seafile/amp/al_surf/protonated_al_surf/frames/frame12/dry/amp_al_frame12_dry E -13417.878246762333
  Si      3.426844     33.769347      7.708320
  Si      3.513296     30.679516      7.795166
  O       2.066550     34.370397      8.344433
  O       2.268972     29.829811      8.418571
  O       3.533599     32.228709      8.286543
  O       3.386905     33.696591      6.064335
  O       3.488452     30.688968      6.153752
  Si      6.186630     26.059058      7.872036
  Si      8.862765     24.532792      7.895083
  O       4.854910     25.345873      8.474237
  O       7.516262     25.292472      8.413060
  O       8.824772     23.016899      8.489679
  O       6.218240     26.057040      6.225658
  O       8.825400     24.560650      6.251385
  Si      6.152564     29.121680      7.710386
  Si      6.111010     35.335450      7.487113
  Si      8.893904     33.817896      7.607999
  Si      8.904432     30.698082      7.597484
  O       4.908701     29.983149      8.305053
  O       4.790288     34.569089      8.092270
  O       7.443763     34.502238      7.934194
  O       7.529064     29.929186      8.049148
  O       6.213778     27.623329      8.342762
  O       8.773193     32.225592      8.137325
  O       5.889082     28.998560      6.095739
  O       5.958559     35.321634      5.849451
  O       9.137237     33.745008      5.988890
  O       9.079916     30.697856      5.977003
  Si      6.302463     38.401445      7.285149
  Si      8.960874     40.086778      7.577442
  O       5.078078     39.300217      7.637666
  O       7.722303     39.089810      7.819545
  O       6.248987     36.873906      7.960944
  O       8.574082     41.558149      8.182989
  O       6.599922     38.198641      5.676978
  O       9.271335     40.128896      5.952660
  Si     11.525306     26.057962      7.780754
  Si     14.188575     24.542698      7.859706
  O      10.186635     25.352936      8.391199
  O      12.885043     25.384594      8.368385
  O      13.961504     23.016704      8.384079
  O      11.456238     25.767739      6.163103
  O      14.224266     24.624927      6.216760
  Si     11.576329     29.237799      7.748012
  Al     11.612743     35.425509      7.938502
  Si     14.243502     33.808022      7.981552
  Si     14.205733     30.770220      7.860093
  O      10.188214     29.938225      8.271680
  O      10.091095     34.578129      8.333885
  O      13.042478     34.634169      8.636429
  O      12.896904     29.926898      8.406668
  O      11.504865     27.648932      8.098287
  O      14.346372     32.237115      8.530811
  O      11.632322     29.464938      6.124549
  O      11.891194     35.184468      6.209167
  O      14.006193     33.658490      6.359457
  O      13.973097     30.956198      6.245117
  Si     11.670051     38.651858      7.855623
  Si     14.401005     40.060513      7.909769
  O      10.335960     39.530084      8.264642
  O      13.020370     39.390250      8.458514
  O      11.507290     37.146640      8.369231
  O      14.622417     41.607670      8.395838
  O      11.851055     38.807652      6.219398
  O      14.410917     39.923934      6.269925
  Si     16.889821     26.029239      7.915556
  O      15.561187     25.219912      8.420603
  O      18.183425     25.221801      8.491762
  O      16.828985     26.042184      6.272102
  Si     16.918794     29.099135      7.836756
  Si     17.040939     35.325829      7.884678
  Si     19.675409     33.745269      7.896388
  Si     19.558697     30.661154      7.890575
  O      15.524186     29.855964      8.155857
  O      15.717717     34.486732      8.265384
  O      18.375463     34.555824      8.456956
  O      18.179150     29.953238      8.414961
  O      16.863619     27.576811      8.437934
  O      19.681953     32.195183      8.431401
  O      17.140490     28.891985      6.218203
  O      17.284965     35.388068      6.255709
  O      19.551520     33.665398      6.257292
  O      19.489277     30.717000      6.247319
  Si     16.994742     38.403178      7.895875
  O      15.722565     39.257284      8.456062
  O      18.436645     39.000255      8.383000
  O      16.963446     36.860123      8.435545
  O      16.877853     38.355300      6.255784
  O      20.763499     29.697469      8.417678
  O      21.103038     34.378304      8.377673
  H       4.074657     24.986772      8.036591
  H       1.410409     29.602015      8.036749
  H       1.410409     35.007985      8.036749
  H       4.074657     39.623228      8.036591
  H       8.948181     22.173255      8.038302
  H       8.948181     42.436745      8.038302
  H      14.277762     22.173204      8.038282
  H      14.277762     42.436796      8.038282
  H      18.960557     24.876228      8.036406
  H      18.960557     39.733772      8.036406
  H      21.624717     29.491420      8.036583
  H      21.624717     35.118580      8.036583
  H      13.210296     34.217068      6.103340
  H      11.116373     34.929590      5.702301
  H       9.024883     32.875216      5.591462
  H       9.919490     30.290365      5.700007
  H      12.423770     29.980670      5.867775
  H      13.976209     31.917661      6.017943
  H      13.569521     39.550340      5.945335
  H      11.057559     39.156810      5.787762
  H       8.553714     39.743606      5.435437
  H       6.405866     37.310963      5.352864
  H       5.182530     34.839148      5.540247
  H       3.342661     32.799167      5.712227
  H       4.174644     30.134676      5.755304
  H       6.053717     28.114035      5.740885
  H       6.971194     25.568099      5.863533
  H       9.649568     24.894628      5.863502
  H      12.299978     25.498240      5.775696
  H      15.020771     25.062982      5.880558
  H      16.977549     26.928689      5.903217
  H      17.790920     29.496106      5.833512
  H      19.500797     31.625892      5.907382
  H      18.838255     34.230704      5.914173
  H      17.070767     36.244020      5.860457
  H      16.094193     38.827023      5.929315
  P       3.190064     39.536002     10.178565
  O       3.290628     38.076938     10.422919
  O       3.152001     40.065972      8.764962
  O       1.902923     40.157783     10.905098
  O       4.357030     40.303544     11.011358
  C       5.690229     40.063723     10.610137
  C       6.623693     39.958364     11.796034
  O       6.441380     38.716308     12.508175
  C       8.071647     39.940966     11.352383
  O       8.914623     40.317186     12.417028
  C       8.279023     38.456453     11.043593
  O       9.624690     38.072120     11.120131
  C       7.445389     37.823005     12.169840
  N       6.831285     36.551773     11.774797
  C       5.520124     36.312028     11.410172
  N       5.325193     35.075891     11.020945
  C       6.552750     34.495343     11.097470
  C       7.016314     33.280859     10.603637
  N       6.263079     32.358380     10.013077
  N       8.354194     33.090967     10.749911
  C       9.197574     34.016875     11.296119
  N       8.820186     35.166364     11.740942
  C       7.506923     35.396694     11.579705
  H       1.679017     39.597063     11.652487
  H       5.753731     39.141433     10.025249
  H       6.024865     40.875194      9.956203
  H       6.431377     40.764834     12.506616
  H       8.235666     40.576301     10.478550
  H       9.750814     39.860769     12.255653
  H       7.841673     38.204846     10.076156
  H       9.966093     37.866390     10.240047
  H       8.100244     37.604657     13.021346
  H       4.755160     37.088547     11.405641
  H       5.316113     32.629751      9.791801
  H       6.687594     31.691301      9.385475
  H      10.242166     33.736000     11.313318
  H       8.776281     32.308846     10.268490
163
Coordinates from ORCA-job /data/Seafile/amp/al_surf/protonated_al_surf/frames/frame12/dry/amp_al_frame12_dry E -13417.880199835059
  Si      3.423969     33.768488      7.701340
  Si      3.513234     30.679555      7.793794
  O       2.058666     34.359553      8.337219
  O       2.268614     29.831397      8.417749
  O       3.536050     32.229561      8.283708
  O       3.385083     33.694220      6.057499
  O       3.487869     30.688999      6.152068
  Si      6.186993     26.058456      7.872913
  Si      8.862732     24.533346      7.895901
  O       4.854677     25.345797      8.474648
  O       7.516205     25.292065      8.414964
  O       8.827595     23.017105      8.490060
  O       6.218839     26.056125      6.226725
  O       8.822819     24.561987      6.252137
  Si      6.153100     29.121551      7.711338
  Si      6.108016     35.335318      7.478404
  Si      8.891376     33.816524      7.597242
  Si      8.902758     30.696780      7.601100
  O       4.907357     29.981982      8.304107
  O       4.783531     34.574346      8.085083
  O       7.438456     34.497194      7.926586
  O       7.525165     29.933739      8.053454
  O       6.214357     27.622890      8.343025
  O       8.773415     32.226838      8.137684
  O       5.891431     28.998745      6.096567
  O       5.953914     35.326739      5.841303
  O       9.131883     33.735499      5.978667
  O       9.072317     30.695607      5.979705
  Si      6.310753     38.403663      7.294405
  Si      8.957772     40.085033      7.593524
  O       5.080497     39.304515      7.625641
  O       7.724793     39.083733      7.853868
  O       6.245472     36.871126      7.958199
  O       8.575352     41.559621      8.194901
  O       6.640197     38.208251      5.689472
  O       9.251097     40.118164      5.965456
  Si     11.525788     26.057119      7.780596
  Si     14.189080     24.542651      7.859279
  O      10.186664     25.353248      8.391169
  O      12.885991     25.384728      8.368529
  O      13.959519     23.016528      8.382681
  O      11.456482     25.765481      6.163209
  O      14.225529     24.623288      6.216334
  Si     11.576179     29.236538      7.747012
  Al     11.610652     35.427561      7.917023
  Si     14.241757     33.808214      7.967811
  Si     14.205334     30.769551      7.852872
  O      10.188412     29.937062      8.270590
  O      10.088170     34.581849      8.317444
  O      13.039173     34.635802      8.617091
  O      12.897550     29.926430      8.401858
  O      11.505461     27.647898      8.097649
  O      14.343525     32.238177      8.519051
  O      11.627735     29.461817      6.122876
  O      11.888052     35.182468      6.188323
  O      14.008878     33.656391      6.345099
  O      13.974132     30.950179      6.237006
  Si     11.668474     38.655988      7.846977
  Si     14.402150     40.060160      7.902803
  O      10.339066     39.534721      8.273102
  O      13.022504     39.387845      8.449783
  O      11.507451     37.148055      8.349497
  O      14.622819     41.606448      8.391521
  O      11.839874     38.825201      6.211026
  O      14.412317     39.927082      6.262405
  Si     16.889979     26.029593      7.914164
  O      15.561359     25.220583      8.420047
  O      18.183641     25.222830      8.491429
  O      16.829958     26.040168      6.270595
  Si     16.918985     29.099756      7.832616
  Si     17.040039     35.325306      7.875187
  Si     19.675279     33.744942      7.892505
  Si     19.558672     30.661165      7.887237
  O      15.524283     29.856443      8.150408
  O      15.715597     34.487281      8.253460
  O      18.373340     34.554394      8.449437
  O      18.178141     29.955395      8.411527
  O      16.863590     27.577570      8.434473
  O      19.682261     32.195082      8.428241
  O      17.142672     28.891569      6.214448
  O      17.287427     35.388897      6.246751
  O      19.555972     33.664396      6.252928
  O      19.491768     30.716908      6.243944
  Si     16.995426     38.402469      7.888010
  O      15.724216     39.257666      8.449194
  O      18.439785     38.994368      8.374588
  O      16.961117     36.859376      8.427042
  O      16.879281     38.357462      6.247815
  O      20.760716     29.693265      8.413648
  O      21.101327     34.379150      8.376536
  H       4.074657     24.986772      8.036591
  H       1.410409     29.602015      8.036749
  H       1.410409     35.007985      8.036749
  H       4.074657     39.623228      8.036591
  H       8.948181     22.173255      8.038302
  H       8.948181     42.436745      8.038302
  H      14.277762     22.173204      8.038282
  H      14.277762     42.436796      8.038282
  H      18.960557     24.876228      8.036406
  H      18.960557     39.733772      8.036406
  H      21.624717     29.491420      8.036583
  H      21.624717     35.118580      8.036583
  H      13.214042     34.214482      6.086217
  H      11.113678     34.923015      5.683192
  H       9.008092     32.866082      5.583997
  H       9.910394     30.288141      5.699631
  H      12.419556     29.974034      5.862049
  H      13.978355     31.910591      6.006766
  H      13.569330     39.557973      5.936569
  H      11.043897     39.179904      5.788007
  H       8.533014     39.716002      5.460921
  H       6.424955     37.330889      5.350678
  H       5.176320     34.846685      5.531791
  H       3.339844     32.796489      5.706216
  H       4.173651     30.133910      5.754357
  H       6.055454     28.114126      5.741840
  H       6.971186     25.566025      5.864824
  H       9.647352     24.893204      5.862930
  H      12.299916     25.496232      5.775355
  H      15.021454     25.062102      5.880012
  H      16.978999     26.925935      5.900521
  H      17.794033     29.494667      5.830160
  H      19.502012     31.625749      5.904201
  H      18.843600     34.229119      5.907592
  H      17.074608     36.245229      5.851905
  H      16.094134     38.827062      5.921897
  P       3.116713     39.496334     10.236723
  O       3.201568     38.053700     10.569902
  O       3.083839     39.938370      8.793062
  O       1.837372     40.175898     10.924805
  O       4.293239     40.298910     11.020090
  C       5.617400     40.045227     10.600608
  C       6.570184     39.973621     11.772433
  O       6.406648     38.748955     12.517864
  C       8.011522     39.953938     11.308081
  O       8.863803     40.369505     12.350806
  C       8.229597     38.463609     11.039120
  O       9.579710     38.096016     11.118101
  C       7.408241     37.848829     12.185855
  N       6.797112     36.565330     11.824089
  C       5.482751     36.305660     11.485236
  N       5.296264     35.062506     11.111872
  C       6.532149     34.497280     11.173737
  C       7.003982     33.282880     10.682311
  N       6.253958     32.349285     10.108420
  N       8.346041     33.111996     10.807783
  C       9.185577     34.053062     11.333021
  N       8.801148     35.201991     11.772346
  C       7.482245     35.414726     11.631125
  H       1.601411     39.656361     11.697719
  H       5.668022     39.106313     10.044610
  H       5.939743     40.837051      9.916880
  H       6.382573     40.796001     12.465784
  H       8.158336     40.564663     10.413019
  H       9.705754     39.924887     12.187969
  H       7.791432     38.184131     10.079562
  H       9.922655     37.887423     10.240739
  H       8.070460     37.650404     13.036380
  H       4.709996     37.073605     11.477221
  H       5.300099     32.606535      9.901706
  H       6.675228     31.677914      9.484267
  H      10.234011     33.785798     11.337379
  H       8.769947     32.332121     10.323181
163
Coordinates from ORCA-job /data/Seafile/amp/al_surf/protonated_al_surf/frames/frame12/dry/amp_al_frame12_dry E -13417.881342960172
  Si      3.422275     33.768705      7.694470
  Si      3.514350     30.680119      7.794605
  O       2.049596     34.346958      8.329044
  O       2.267971     29.835167      8.418357
  O       3.539210     32.232502      8.284083
  O       3.391642     33.693976      6.051489
  O       3.491418     30.692511      6.152917
  Si      6.187351     26.058438      7.875028
  Si      8.862662     24.533888      7.895674
  O       4.854858     25.345117      8.475843
  O       7.516309     25.291572      8.417554
  O       8.831555     23.017925      8.490477
  O       6.219553     26.060285      6.229428
  O       8.818835     24.563897      6.252192
  Si      6.155676     29.122158      7.720498
  Si      6.108388     35.336089      7.478021
  Si      8.890163     33.813578      7.604834
  Si      8.903061     30.694867      7.619936
  O       4.905566     29.981430      8.308482
  O       4.776320     34.582963      8.083631
  O       7.432431     34.490615      7.934437
  O       7.522165     29.939066      8.071106
  O       6.214848     27.622240      8.348407
  O       8.776234     32.227411      8.158142
  O       5.900853     29.004085      6.104639
  O       5.959807     35.330171      5.841604
  O       9.128618     33.724635      5.987359
  O       9.062829     30.700093      5.996997
  Si      6.328516     38.407684      7.310414
  Si      8.959092     40.082761      7.615776
  O       5.090179     39.310620      7.608569
  O       7.731531     39.079634      7.904518
  O       6.246239     36.870980      7.964265
  O       8.578922     41.561321      8.209196
  O       6.698886     38.217685      5.711574
  O       9.234227     40.097340      5.985278
  Si     11.527068     26.055527      7.779508
  Si     14.189856     24.541662      7.857675
  O      10.187184     25.353135      8.390149
  O      12.887308     25.383935      8.368228
  O      13.957149     23.016270      8.381096
  O      11.457132     25.765353      6.162193
  O      14.226763     24.620947      6.215121
  Si     11.577779     29.233802      7.750525
  Al     11.608360     35.429357      7.910746
  Si     14.238415     33.806287      7.968850
  Si     14.205349     30.767328      7.855094
  O      10.192266     29.932300      8.277386
  O      10.085200     34.586808      8.318542
  O      13.034287     34.636425      8.613910
  O      12.899349     29.923593      8.403584
  O      11.507860     27.645373      8.098974
  O      14.340168     32.237234      8.520200
  O      11.621990     29.461053      6.126118
  O      11.883971     35.178968      6.182950
  O      14.008841     33.651921      6.345700
  O      13.976369     30.943925      6.238499
  Si     11.669800     38.660138      7.846345
  Si     14.405056     40.059989      7.898085
  O      10.346478     39.541320      8.290205
  O      13.027493     39.386396      8.446994
  O      11.511625     37.150103      8.339559
  O      14.624613     41.605574      8.387975
  O      11.829854     38.837462      6.210332
  O      14.412364     39.927155      6.257652
  Si     16.890509     26.029214      7.912865
  O      15.561508     25.220773      8.419442
  O      18.183610     25.223253      8.491681
  O      16.831206     26.039101      6.269549
  Si     16.919042     29.099892      7.832570
  Si     17.037538     35.323435      7.872804
  Si     19.674545     33.744363      7.890703
  Si     19.558029     30.660770      7.885412
  O      15.524464     29.855303      8.153191
  O      15.712401     34.486290      8.253973
  O      18.371002     34.552757      8.446992
  O      18.177160     29.957060      8.412137
  O      16.864300     27.577336      8.433398
  O      19.682181     32.194711      8.427561
  O      17.140500     28.893786      6.214218
  O      17.282509     35.385037      6.244352
  O      19.556819     33.663635      6.251199
  O      19.491337     30.716397      6.242580
  Si     16.996805     38.400619      7.881994
  O      15.727584     39.258296      8.445009
  O      18.443617     38.987571      8.366670
  O      16.958585     36.858130      8.424030
  O      16.879714     38.355616      6.242297
  O      20.757319     29.688473      8.410198
  O      21.099352     34.379515      8.376009
  H       4.074657     24.986772      8.036591
  H       1.410409     29.602015      8.036749
  H       1.410409     35.007985      8.036749
  H       4.074657     39.623228      8.036591
  H       8.948181     22.173255      8.038302
  H       8.948181     42.436745      8.038302
  H      14.277762     22.173204      8.038282
  H      14.277762     42.436796      8.038282
  H      18.960557     24.876228      8.036406
  H      18.960557     39.733772      8.036406
  H      21.624717     29.491420      8.036583
  H      21.624717     35.118580      8.036583
  H      13.210137     34.200937      6.084608
  H      11.110631     34.913823      5.679683
  H       8.994142     32.855558      5.594727
  H       9.900287     30.297207      5.709154
  H      12.410083     29.974991      5.859715
  H      13.974733     31.902629      6.004747
  H      13.565721     39.566590      5.931147
  H      11.027838     39.188259      5.793992
  H       8.517834     39.671968      5.495479
  H       6.469608     37.350550      5.356671
  H       5.182754     34.850375      5.527953
  H       3.346234     32.795698      5.699606
  H       4.178947     30.138278      5.755860
  H       6.065112     28.120217      5.747447
  H       6.972435     25.571871      5.865641
  H       9.643038     24.893308      5.860362
  H      12.299778     25.496196      5.772511
  H      15.021525     25.061140      5.877656
  H      16.980522     26.924308      5.898169
  H      17.791578     29.496386      5.828767
  H      19.499154     31.624801      5.901806
  H      18.845320     34.227966      5.903963
  H      17.070013     36.240943      5.848077
  H      16.093886     38.823816      5.915679
  P       3.084520     39.498950     10.149109
  O       3.199066     38.052004     10.451929
  O       3.055760     39.969785      8.712971
  O       1.779708     40.135398     10.829139
  O       4.230292     40.313294     10.959386
  C       5.563595     40.090505     10.550199
  C       6.499773     40.025704     11.735264
  O       6.335706     38.801690     12.478651
  C       7.947469     40.020655     11.290586
  O       8.778093     40.451583     12.343142
  C       8.184528     38.533526     11.033830
  O       9.535046     38.177326     11.133187
  C       7.353454     37.913952     12.167500
  N       6.763778     36.624740     11.803826
  C       5.458577     36.350505     11.448182
  N       5.286395     35.100912     11.095877
  C       6.525002     34.545857     11.190121
  C       7.006843     33.317640     10.746128
  N       6.260447     32.362395     10.207919
  N       8.350201     33.160875     10.886026
  C       9.180358     34.122928     11.387918
  N       8.782429     35.280760     11.793050
  C       7.462775     35.479018     11.633397
  H       1.533469     39.587278     11.579517
  H       5.637109     39.156597      9.986791
  H       5.878098     40.895424      9.878410
  H       6.294724     40.845100     12.426949
  H       8.101917     40.626641     10.393301
  H       9.630821     40.022679     12.189945
  H       7.764824     38.246652     10.068468
  H       9.879435     37.951872     10.262221
  H       8.001379     37.727135     13.030836
  H       4.681456     37.110768     11.419088
  H       5.303006     32.601547      9.993343
  H       6.679804     31.650796      9.630919
  H      10.233820     33.863234     11.409484
  H       8.782045     32.368467     10.427009
163
Coordinates from ORCA-job /data/Seafile/amp/al_surf/protonated_al_surf/frames/frame12/dry/amp_al_frame12_dry E -13417.882994714957
  Si      3.423052     33.768451      7.695509
  Si      3.515021     30.680354      7.802492
  O       2.035284     34.327548      8.317105
  O       2.265403     29.838347      8.421635
  O       3.543246     32.233992      8.292725
  O       3.410226     33.689785      6.053169
  O       3.496889     30.695839      6.160541
  Si      6.187890     26.057118      7.881640
  Si      8.862615     24.533677      7.899146
  O       4.854120     25.343251      8.478555
  O       7.515881     25.288867      8.424475
  O       8.837217     23.017307      8.492475
  O       6.222154     26.063847      6.236348
  O       8.813700     24.566270      6.255599
  Si      6.157430     29.121277      7.736500
  Si      6.110799     35.335162      7.496079
  Si      8.889144     33.811154      7.624452
  Si      8.900848     30.695341      7.646439
  O       4.901796     29.977466      8.321053
  O       4.767533     34.592656      8.095144
  O       7.426890     34.480201      7.958760
  O       7.516566     29.945178      8.096335
  O       6.216279     27.619961      8.359046
  O       8.780281     32.228124      8.189888
  O       5.909276     29.008550      6.119772
  O       5.971610     35.332555      5.860019
  O       9.120486     33.713082      6.007988
  O       9.047445     30.708117      6.021849
  Si      6.351677     38.404463      7.340367
  Si      8.958669     40.076704      7.657218
  O       5.099519     39.304046      7.583100
  O       7.733708     39.076712      7.985761
  O       6.248788     36.866967      7.987459
  O       8.584986     41.563913      8.233458
  O       6.791423     38.216539      5.755766
  O       9.207417     40.058492      6.023509
  Si     11.527373     26.054576      7.780511
  Si     14.189653     24.540701      7.856883
  O      10.187161     25.353192      8.391795
  O      12.888230     25.383810      8.368716
  O      13.952898     23.015438      8.378919
  O      11.456220     25.762685      6.163678
  O      14.227688     24.619304      6.214399
  Si     11.576112     29.232576      7.755940
  Al     11.609462     35.430078      7.909317
  Si     14.238686     33.803446      7.965423
  Si     14.205147     30.764330      7.852148
  O      10.191774     29.927255      8.290459
  O      10.085225     34.591562      8.327396
  O      13.034580     34.633471      8.609098
  O      12.900265     29.921227      8.403322
  O      11.508735     27.643718      8.100962
  O      14.340229     32.234753      8.515194
  O      11.610825     29.462632      6.131170
  O      11.877157     35.175998      6.181269
  O      14.010173     33.649714      6.341538
  O      13.976584     30.938242      6.235308
  Si     11.670915     38.662713      7.866133
  Si     14.408124     40.059331      7.903343
  O      10.353765     39.547235      8.329139
  O      13.034387     39.384674      8.460343
  O      11.519291     37.148087      8.342479
  O      14.628411     41.606582      8.386786
  O      11.816196     38.855773      6.230469
  O      14.407842     39.921657      6.263016
  Si     16.890728     26.027544      7.911398
  O      15.561410     25.219776      8.418689
  O      18.183311     25.222206      8.491651
  O      16.831998     26.035955      6.267914
  Si     16.919377     29.098638      7.828821
  Si     17.037612     35.321375      7.868636
  Si     19.675717     33.742488      7.887285
  Si     19.557707     30.658912      7.881290
  O      15.524698     29.852909      8.149605
  O      15.712789     34.483944      8.249876
  O      18.370993     34.549976      8.442240
  O      18.175733     29.958229      8.408952
  O      16.865031     27.576131      8.430014
  O      19.684750     32.192603      8.424380
  O      17.142502     28.891752      6.210974
  O      17.283424     35.384033      6.240448
  O      19.558630     33.662117      6.247557
  O      19.491898     30.716342      6.238559
  Si     16.998934     38.398102      7.878381
  O      15.735007     39.261311      8.446508
  O      18.451660     38.977274      8.355434
  O      16.957739     36.855839      8.421375
  O      16.875413     38.354161      6.239226
  O      20.752582     29.679478      8.403462
  O      21.099267     34.378684      8.373630
  H       4.074657     24.986772      8.036591
  H       1.410409     29.602015      8.036749
  H       1.410409     35.007985      8.036749
  H       4.074657     39.623228      8.036591
  H       8.948181     22.173255      8.038302
  H       8.948181     42.436745      8.038302
  H      14.277762     22.173204      8.038282
  H      14.277762     42.436796      8.038282
  H      18.960557     24.876228      8.036406
  H      18.960557     39.733772      8.036406
  H      21.624717     29.491420      8.036583
  H      21.624717     35.118580      8.036583
  H      13.210248     34.194921      6.080407
  H      11.103636     34.904948      5.681957
  H       8.967617     32.845942      5.617756
  H       9.882810     30.309296      5.723727
  H      12.398056     29.974058      5.859136
  H      13.973494     31.896350      6.000320
  H      13.555555     39.571257      5.940241
  H      11.005402     39.200406      5.824725
  H       8.497148     39.589824      5.561801
  H       6.544079     37.364967      5.377333
  H       5.197050     34.852971      5.540636
  H       3.361472     32.791008      5.703151
  H       4.186741     30.143493      5.765224
  H       6.073284     28.125661      5.760295
  H       6.975185     25.575384      5.872717
  H       9.638130     24.892704      5.862031
  H      12.298745     25.494520      5.773194
  H      15.022028     25.061118      5.877984
  H      16.982136     26.921026      5.896591
  H      17.793974     29.494268      5.825980
  H      19.497829     31.625644      5.899789
  H      18.847512     34.227351      5.900909
  H      17.069909     36.239907      5.844741
  H      16.086172     38.819501      5.916542
  P       3.034331     39.501425     10.127951
  O       3.118098     38.058546     10.455141
  O       3.072507     39.949829      8.681928
  O       1.708983     40.165620     10.736879
  O       4.154414     40.317052     10.967908
  C       5.496981     40.111944     10.576956
  C       6.413789     40.054589     11.777074
  O       6.249360     38.827643     12.514927
  C       7.867028     40.062841     11.351090
  O       8.679990     40.498443     12.415302
  C       8.117342     38.579674     11.093495
  O       9.471287     38.237668     11.198905
  C       7.278134     37.947616     12.213341
  N       6.700733     36.657675     11.833074
  C       5.397125     36.375861     11.479965
  N       5.233311     35.128974     11.113891
  C       6.477262     34.584246     11.196473
  C       6.966371     33.362723     10.737735
  N       6.224512     32.408737     10.193765
  N       8.310720     33.215319     10.871799
  C       9.133201     34.176448     11.386673
  N       8.729155     35.326953     11.806276
  C       7.407606     35.517770     11.650671
  H       1.408402     39.618374     11.467953
  H       5.591140     39.181041     10.010561
  H       5.810330     40.924905      9.914678
  H       6.191077     40.869660     12.468107
  H       8.027472     40.671954     10.456594
  H       9.541766     40.086548     12.266690
  H       7.708975     38.293488     10.124276
  H       9.812457     38.003643     10.328753
  H       7.913526     37.760785     13.085641
  H       4.615779     37.130138     11.458357
  H       5.265721     32.642592      9.979108
  H       6.644834     31.692570      9.622740
  H      10.187107     33.923396     11.407097
  H       8.748150     32.436319     10.394776
163
Coordinates from ORCA-job /data/Seafile/amp/al_surf/protonated_al_surf/frames/frame12/dry/amp_al_frame12_dry E -13417.884520712947
  Si      3.427658     33.772115      7.693175
  Si      3.514702     30.683023      7.809457
  O       2.023329     34.309578      8.299741
  O       2.260837     29.846863      8.426178
  O       3.548276     32.238039      8.299263
  O       3.437562     33.684749      6.051620
  O       3.498868     30.699460      6.166888
  Si      6.187354     26.056154      7.885622
  Si      8.861997     24.533129      7.899236
  O       4.853077     25.342558      8.480733
  O       7.514778     25.286499      8.427415
  O       8.845753     23.017485      8.493756
  O       6.221394     26.065764      6.240223
  O       8.805904     24.564632      6.255222
  Si      6.158183     29.121329      7.747629
  Si      6.115398     35.340010      7.507839
  Si      8.888730     33.810850      7.627266
  Si      8.897275     30.699806      7.662710
  O       4.896223     29.972613      8.331407
  O       4.760676     34.608851      8.101489
  O       7.422893     34.471722      7.969942
  O       7.510222     29.953189      8.113237
  O       6.219443     27.619039      8.364575
  O       8.788649     32.232535      8.211904
  O       5.914468     29.012864      6.130756
  O       5.983258     35.348335      5.872582
  O       9.108358     33.696728      6.012250
  O       9.025411     30.718059      6.036121
  Si      6.381893     38.408036      7.380048
  Si      8.954541     40.068885      7.706661
  O       5.113053     39.300204      7.549435
  O       7.722190     39.092871      8.102439
  O       6.258531     36.867018      8.010244
  O       8.598803     41.566556      8.266181
  O       6.911477     38.230999      5.817416
  O       9.157643     40.002146      6.070045
  Si     11.526819     26.054664      7.772756
  Si     14.188525     24.538739      7.851891
  O      10.186070     25.355486      8.386078
  O      12.888151     25.384897      8.361073
  O      13.947565     23.014607      8.375947
  O      11.454644     25.755992      6.157264
  O      14.229416     24.612949      6.208931
  Si     11.571830     29.232928      7.746090
  Al     11.615014     35.428484      7.881247
  Si     14.242900     33.798405      7.939029
  Si     14.205654     30.759505      7.829820
  O      10.188135     29.922760      8.291665
  O      10.086949     34.601576      8.312941
  O      13.037182     34.626151      8.578609
  O      12.899643     29.920512      8.384588
  O      11.509011     27.643851      8.090797
  O      14.342015     32.230840      8.488448
  O      11.595692     29.464136      6.120764
  O      11.870448     35.166669      6.153433
  O      14.020578     33.646803      6.313013
  O      13.980396     30.928616      6.212380
  Si     11.672852     38.664377      7.875195
  Si     14.411856     40.059956      7.902895
  O      10.360947     39.545966      8.367545
  O      13.041838     39.382098      8.464746
  O      11.536194     37.141285      8.321466
  O      14.632041     41.607506      8.385388
  O      11.798679     38.888975      6.241596
  O      14.405969     39.921323      6.262280
  Si     16.891175     26.024254      7.905474
  O      15.560155     25.218983      8.412389
  O      18.182448     25.220970      8.490709
  O      16.835303     26.027817      6.261275
  Si     16.920183     29.095920      7.814372
  Si     17.040078     35.318779      7.851507
  Si     19.679352     33.739854      7.877630
  Si     19.558160     30.655589      7.871245
  O      15.524868     29.849093      8.132012
  O      15.715859     34.479450      8.228929
  O      18.371871     34.546103      8.426880
  O      18.173487     29.958862      8.396324
  O      16.865377     27.574328      8.417852
  O      19.687930     32.189311      8.413932
  O      17.149687     28.885450      6.197996
  O      17.292122     35.384943      6.224323
  O      19.567174     33.660776      6.237101
  O      19.496595     30.714349      6.227945
  Si     17.002548     38.395084      7.867468
  O      15.743734     39.264128      8.439209
  O      18.461265     38.964713      8.339586
  O      16.957428     36.852010      8.407891
  O      16.874788     38.354453      6.228255
  O      20.746556     29.668006      8.393704
  O      21.099635     34.377292      8.370027
  H       4.074657     24.986772      8.036591
  H       1.410409     29.602015      8.036749
  H       1.410409     35.007985      8.036749
  H       4.074657     39.623228      8.036591
  H       8.948181     22.173255      8.038302
  H       8.948181     42.436745      8.038302
  H      14.277762     22.173204      8.038282
  H      14.277762     42.436796      8.038282
  H      18.960557     24.876228      8.036406
  H      18.960557     39.733772      8.036406
  H      21.624717     29.491420      8.036583
  H      21.624717     35.118580      8.036583
  H      13.227470     34.197836      6.048504
  H      11.094526     34.891183      5.660089
  H       8.937620     32.829405      5.629238
  H       9.853688     30.317042      5.723017
  H      12.388964     29.960862      5.840703
  H      13.989856     31.885940      5.974389
  H      13.548800     39.580824      5.941760
  H      10.971275     39.212643      5.850174
  H       8.451168     39.480385      5.653591
  H       6.648780     37.401859      5.402206
  H       5.214310     34.864801      5.546173
  H       3.375333     32.784701      5.707254
  H       4.190697     30.149556      5.772405
  H       6.074997     28.130121      5.769799
  H       6.973086     25.574585      5.877405
  H       9.630044     24.888171      5.859250
  H      12.297370     25.486311      5.768234
  H      15.024298     25.055821      5.874947
  H      16.985060     26.913115      5.890181
  H      17.803470     29.487389      5.815571
  H      19.501637     31.625033      5.892279
  H      18.854715     34.225542      5.891670
  H      17.078416     36.241664      5.830586
  H      16.079994     38.813689      5.910403
  P       2.990163     39.454725     10.112994
  O       3.055140     38.004755     10.406107
  O       3.102545     39.941159      8.679482
  O       1.636475     40.109529     10.667124
  O       4.069216     40.248848     11.020690
  C       5.424225     40.091056     10.650063
  C       6.316407     40.036253     11.868824
  O       6.159026     38.794309     12.583332
  C       7.776661     40.076796     11.469240
  O       8.564377     40.512072     12.552478
  C       8.054188     38.602717     11.192810
  O       9.416944     38.291692     11.299415
  C       7.207964     37.935040     12.285976
  N       6.648572     36.646526     11.868474
  C       5.344085     36.359218     11.523258
  N       5.184210     35.116498     11.140082
  C       6.433105     34.580944     11.200157
  C       6.921518     33.364547     10.723365
  N       6.176691     32.411849     10.182106
  N       8.267398     33.223396     10.838410
  C       9.088334     34.182337     11.359947
  N       8.686033     35.326081     11.799667
  C       7.361636     35.513354     11.659864
  H       1.280874     39.525241     11.342566
  H       5.557093     39.174608     10.067449
  H       5.725438     40.927476     10.011950
  H       6.065507     40.834877     12.568853
  H       7.940074     40.700988     10.585158
  H       9.437568     40.123952     12.409324
  H       7.661803     38.328101     10.215323
  H       9.751915     38.050842     10.427839
  H       7.828103     37.739860     13.167436
  H       4.558220     37.108666     11.519679
  H       5.217969     32.644792      9.966998
  H       6.591763     31.684634      9.620165
  H      10.141182     33.932871     11.369310
  H       8.705271     32.459005     10.337563
163
Coordinates from ORCA-job /data/Seafile/amp/al_surf/protonated_al_surf/frames/frame12/dry/amp_al_frame12_dry E -13417.884788264206
  Si      3.429612     33.768306      7.687851
  Si      3.515533     30.680385      7.812039
  O       2.013469     34.292047      8.279266
  O       2.259382     29.847168      8.427388
  O       3.553658     32.234673      8.299510
  O       3.454511     33.671366      6.046719
  O       3.502308     30.692124      6.168995
  Si      6.188572     26.054603      7.889918
  Si      8.862501     24.531587      7.903200
  O       4.852356     25.342402      8.481881
  O       7.513970     25.282354      8.431938
  O       8.849918     23.015939      8.496397
  O       6.226373     26.064874      6.243841
  O       8.805011     24.564154      6.258397
  Si      6.158978     29.119292      7.753555
  Si      6.119319     35.332587      7.512667
  Si      8.892180     33.808414      7.629905
  Si      8.898754     30.699665      7.664886
  O       4.895021     29.967799      8.338336
  O       4.757240     34.609226      8.099340
  O       7.422569     34.457641      7.970588
  O       7.509799     29.954281      8.118956
  O       6.223417     27.617408      8.369270
  O       8.795683     32.229323      8.219483
  O       5.915678     29.009772      6.136614
  O       5.991950     35.343877      5.877081
  O       9.111768     33.689057      6.015988
  O       9.023063     30.716433      6.038345
  Si      6.398838     38.392016      7.392574
  Si      8.957854     40.062405      7.719632
  O       5.114649     39.258738      7.522254
  O       7.724297     39.091734      8.139548
  O       6.270566     36.853197      8.021388
  O       8.609136     41.563482      8.275957
  O       6.976765     38.211868      5.844785
  O       9.144929     39.982815      6.082663
  Si     11.526198     26.053693      7.772873
  Si     14.187191     24.538251      7.852999
  O      10.185258     25.355981      8.387730
  O      12.887534     25.384882      8.361199
  O      13.943872     23.013398      8.374501
  O      11.452993     25.748090      6.158157
  O      14.229645     24.616187      6.209461
  Si     11.570608     29.233464      7.744588
  Al     11.621486     35.427321      7.879700
  Si     14.247197     33.794484      7.935778
  Si     14.206036     30.757086      7.827490
  O      10.184948     29.918551      8.294238
  O      10.088877     34.604567      8.311561
  O      13.041801     34.620074      8.575967
  O      12.899180     29.918884      8.382816
  O      11.509130     27.643310      8.085771
  O      14.346948     32.227446      8.486468
  O      11.592207     29.470551      6.120125
  O      11.874812     35.158977      6.152936
  O      14.023521     33.637993      6.309863
  O      13.975291     30.926593      6.210856
  Si     11.679879     38.663100      7.878501
  Si     14.417784     40.060503      7.901855
  O      10.368423     39.542171      8.378059
  O      13.050372     39.381326      8.466858
  O      11.548014     37.138124      8.316772
  O      14.639161     41.609422      8.381765
  O      11.802522     38.900279      6.245597
  O      14.409013     39.916980      6.261264
  Si     16.890403     26.021465      7.908142
  O      15.559691     25.215484      8.413716
  O      18.180975     25.215750      8.491532
  O      16.833204     26.026802      6.263143
  Si     16.920666     29.092248      7.815016
  Si     17.043596     35.315886      7.849818
  Si     19.681957     33.736373      7.877222
  Si     19.557398     30.652254      7.870516
  O      15.525027     29.845431      8.127793
  O      15.720125     34.475977      8.224701
  O      18.375054     34.542667      8.426028
  O      18.172672     29.957049      8.396196
  O      16.865700     27.571134      8.419799
  O      19.693082     32.185350      8.412921
  O      17.155019     28.876917      6.199368
  O      17.301127     35.382812      6.222906
  O      19.566061     33.655870      6.236408
  O      19.491811     30.714585      6.226641
  Si     17.005803     38.391237      7.862897
  O      15.753481     39.268233      8.435081
  O      18.469429     38.955503      8.328774
  O      16.959703     36.849149      8.405316
  O      16.870214     38.347544      6.223765
  O      20.743261     29.659504      8.388759
  O      21.103016     34.373973      8.367449
  H       4.074657     24.986772      8.036591
  H       1.410409     29.602015      8.036749
  H       1.410409     35.007985      8.036749
  H       4.074657     39.623228      8.036591
  H       8.948181     22.173255      8.038302
  H       8.948181     42.436745      8.038302
  H      14.277762     22.173204      8.038282
  H      14.277762     42.436796      8.038282
  H      18.960557     24.876228      8.036406
  H      18.960557     39.733772      8.036406
  H      21.624717     29.491420      8.036583
  H      21.624717     35.118580      8.036583
  H      13.223420     34.178486      6.045881
  H      11.099635     34.885200      5.658383
  H       8.935719     32.822885      5.632842
  H       9.853370     30.321132      5.723156
  H      12.385461     29.969283      5.842529
  H      13.977410     31.884888      5.974987
  H      13.546204     39.586308      5.944227
  H      10.965538     39.202499      5.856348
  H       8.462167     39.407285      5.690611
  H       6.697769     37.400159      5.407341
  H       5.226060     34.859558      5.546669
  H       3.378953     32.770113      5.708199
  H       4.197362     30.144510      5.776978
  H       6.076997     28.126659      5.776780
  H       6.979953     25.572707      5.885530
  H       9.631530     24.884574      5.864247
  H      12.297579     25.482080      5.770414
  H      15.026629     25.059211      5.879980
  H      16.986952     26.913329      5.895716
  H      17.805442     29.482897      5.817305
  H      19.496463     31.627305      5.895645
  H      18.854842     34.225271      5.894799
  H      17.081909     36.238329      5.829148
  H      16.073319     38.808031      5.911743
  P       2.946648     39.531118     10.036001
  O       2.968049     38.087657     10.355511
  O       3.128494     39.988554      8.597376
  O       1.585889     40.225480     10.516884
  O       4.006371     40.325750     10.962972
  C       5.369754     40.174013     10.620614
  C       6.237605     40.128517     11.857930
  O       6.073012     38.890625     12.580771
  C       7.704687     40.170130     11.488058
  O       8.470194     40.611037     12.584337
  C       7.990660     38.695599     11.224157
  O       9.353103     38.393141     11.353151
  C       7.125808     38.028341     12.302872
  N       6.572920     36.739653     11.873726
  C       5.269762     36.440723     11.533099
  N       5.122435     35.200018     11.137958
  C       6.376663     34.676141     11.189606
  C       6.880798     33.475668     10.690250
  N       6.153648     32.519545     10.127293
  N       8.227389     33.346846     10.807222
  C       9.036215     34.307128     11.342827
  N       8.621231     35.441009     11.794450
  C       7.295275     35.614997     11.657993
  H       1.178670     39.649080     11.169604
  H       5.521450     39.259242     10.040336
  H       5.678265     41.011250      9.987622
  H       5.970163     40.931815     12.546147
  H       7.885523     40.788539     10.603293
  H       9.348186     40.228430     12.458039
  H       7.619365     38.418560     10.239466
  H       9.691013     38.135945     10.488573
  H       7.729432     37.831450     13.195229
  H       4.478196     37.182633     11.535446
  H       5.196438     32.746732      9.897655
  H       6.587335     31.817224      9.546438
  H      10.090807     34.067044     11.349593
  H       8.675837     32.603742     10.284115
163
Coordinates from ORCA-job /data/Seafile/amp/al_surf/protonated_al_surf/frames/frame12/dry/amp_al_frame12_dry E -13417.885521508209
  Si      3.431289     33.769113      7.689660
  Si      3.515253     30.681347      7.816132
  O       2.014555     34.293512      8.278453
  O       2.256176     29.852413      8.431723
  O       3.554677     32.235621      8.302332
  O       3.459815     33.668622      6.048801
  O       3.502491     30.690009      6.173147
  Si      6.187995     26.055971      7.891591
  Si      8.861861     24.531391      7.904554
  O       4.851433     25.343884      8.482876
  O       7.512716     25.281708      8.432703
  O       8.851108     23.015774      8.497633
  O       6.225855     26.067766      6.245366
  O       8.804722     24.563806      6.259674
  Si      6.158653     29.121109      7.758034
  Si      6.118337     35.336305      7.509974
  Si      8.892120     33.809620      7.623096
  Si      8.898696     30.702734      7.669266
  O       4.893167     29.966414      8.344015
  O       4.757289     34.613965      8.099856
  O       7.422557     34.460084      7.962833
  O       7.510123     29.955609      8.123466
  O       6.224716     27.618540      8.372139
  O       8.798901     32.233210      8.221494
  O       5.916682     29.012683      6.140655
  O       5.987748     35.349047      5.874736
  O       9.109172     33.682565      6.009209
  O       9.022718     30.717024      6.042642
  Si      6.401931     38.395843      7.390741
  Si      8.962062     40.062443      7.715618
  O       5.113869     39.259835      7.512549
  O       7.721714     39.100820      8.143422
  O       6.276978     36.857428      8.019324
  O       8.619521     41.561231      8.280513
  O       6.980766     38.213725      5.842741
  O       9.148089     39.989380      6.080074
  Si     11.525097     26.054555      7.774922
  Si     14.185760     24.537619      7.854173
  O      10.183848     25.356948      8.389205
  O      12.886162     25.384479      8.362291
  O      13.943638     23.012826      8.376183
  O      11.451828     25.750546      6.159928
  O      14.226964     24.616567      6.210508
  Si     11.568504     29.234291      7.747182
  Al     11.626444     35.423420      7.864124
  Si     14.251132     33.790260      7.927285
  Si     14.206165     30.753704      7.826353
  O      10.183221     29.918407      8.299526
  O      10.089821     34.609765      8.298713
  O      13.044061     34.615458      8.564295
  O      12.898243     29.919044      8.383787
  O      11.508460     27.644016      8.088624
  O      14.349800     32.225136      8.482448
  O      11.587922     29.472732      6.123296
  O      11.878835     35.148218      6.138631
  O      14.030351     33.629505      6.301260
  O      13.973697     30.919698      6.209786
  Si     11.685767     38.661894      7.865959
  Si     14.421366     40.062290      7.895871
  O      10.370512     39.530907      8.370650
  O      13.053875     39.381394      8.457770
  O      11.559926     37.134025      8.296965
  O      14.640907     41.609762      8.381560
  O      11.810543     38.908410      6.234563
  O      14.416010     39.922929      6.255054
  Si     16.890115     26.019363      7.909132
  O      15.558854     25.214217      8.414148
  O      18.180220     25.213162      8.492492
  O      16.832462     26.024832      6.264034
  Si     16.920473     29.089893      7.815890
  Si     17.045900     35.314203      7.844956
  Si     19.684093     33.734880      7.875229
  Si     19.557001     30.650353      7.869831
  O      15.524525     29.842345      8.129219
  O      15.722844     34.472920      8.218986
  O      18.376795     34.541528      8.422659
  O      18.172325     29.955436      8.396081
  O      16.866264     27.569072      8.420868
  O      19.694388     32.183784      8.410774
  O      17.153717     28.874330      6.200157
  O      17.304962     35.380435      6.218296
  O      19.569285     33.653823      6.234400
  O      19.489482     30.711589      6.225801
  Si     17.008183     38.389690      7.857914
  O      15.756637     39.268439      8.427784
  O      18.471226     38.953182      8.325932
  O      16.960980     36.847372      8.400063
  O      16.874061     38.344607      6.218591
  O      20.742610     29.657829      8.388661
  O      21.104475     34.372471      8.367323
  H       4.074657     24.986772      8.036591
  H       1.410409     29.602015      8.036749
  H       1.410409     35.007985      8.036749
  H       4.074657     39.623228      8.036591
  H       8.948181     22.173255      8.038302
  H       8.948181     42.436745      8.038302
  H      14.277762     22.173204      8.038282
  H      14.277762     42.436796      8.038282
  H      18.960557     24.876228      8.036406
  H      18.960557     39.733772      8.036406
  H      21.624717     29.491420      8.036583
  H      21.624717     35.118580      8.036583
  H      13.226757     34.163417      6.035399
  H      11.103535     34.872642      5.645184
  H       8.935620     32.813564      5.630837
  H       9.853090     30.322730      5.726741
  H      12.380665     29.971759      5.844924
  H      13.974052     31.877286      5.971524
  H      13.552125     39.599985      5.934221
  H      10.972444     39.204198      5.844096
  H       8.462390     39.416586      5.684822
  H       6.683269     37.414654      5.395006
  H       5.226216     34.858468      5.543535
  H       3.376845     32.767089      5.712340
  H       4.198385     30.142909      5.781522
  H       6.077772     28.129671      5.780233
  H       6.979959     25.576361      5.886883
  H       9.631545     24.884071      5.865873
  H      12.296694     25.484774      5.772292
  H      15.023826     25.060096      5.881074
  H      16.987204     26.911407      5.896913
  H      17.803278     29.481093      5.817548
  H      19.494486     31.624135      5.894146
  H      18.859049     34.224431      5.892500
  H      17.085938     36.235879      5.823872
  H      16.078200     38.806157      5.905612
  P       2.942306     39.467595     10.059191
  O       2.985781     38.014200     10.327094
  O       3.124232     39.980409      8.639447
  O       1.569775     40.123201     10.560246
  O       3.988252     40.244835     11.014258
  C       5.351552     40.130761     10.659377
  C       6.225519     40.078799     11.890590
  O       6.070202     38.830476     12.596617
  C       7.690451     40.137918     11.516108
  O       8.455091     40.581021     12.611994
  C       7.990897     38.667925     11.240485
  O       9.356585     38.381258     11.372369
  C       7.130622     37.982198     12.310142
  N       6.589749     36.691850     11.869523
  C       5.285555     36.386900     11.536605
  N       5.140280     35.145729     11.145254
  C       6.396747     34.626325     11.192501
  C       6.899571     33.420516     10.708006
  N       6.168809     32.454118     10.168245
  N       8.247852     33.295102     10.817861
  C       9.058717     34.265064     11.333752
  N       8.643245     35.402651     11.777024
  C       7.315957     35.571313     11.648983
  H       1.163173     39.512186     11.181335
  H       5.519075     39.229806     10.060753
  H       5.639326     40.985996     10.040357
  H       5.954121     40.871188     12.590165
  H       7.863355     40.761703     10.633337
  H       9.335910     40.206328     12.481293
  H       7.625826     38.397647     10.251138
  H       9.699330     38.125564     10.510103
  H       7.736058     37.782167     13.200895
  H       4.491829     37.125450     11.545061
  H       5.210195     32.675908      9.940012
  H       6.598837     31.741830      9.598148
  H      10.114646     34.028116     11.335197
  H       8.695010     32.543163     10.304770
163
Coordinates from ORCA-job /data/Seafile/amp/al_surf/protonated_al_surf/frames/frame12/dry/amp_al_frame12_dry E -13417.885930308805
  Si      3.432572     33.769007      7.688505
  Si      3.514847     30.681876      7.816692
  O       2.015619     34.294299      8.274716
  O       2.252912     29.858848      8.435724
  O       3.556930     32.235828      8.300980
  O       3.463559     33.665777      6.047682
  O       3.498747     30.684970      6.173981
  Si      6.187219     26.057702      7.888597
  Si      8.860864     24.530924      7.902074
  O       4.850529     25.347252      8.481967
  O       7.511214     25.281221      8.428748
  O       8.852450     23.016271      8.497820
  O       6.223465     26.068600      6.242093
  O       8.803919     24.560636      6.257132
  Si      6.157776     29.123395      7.754036
  Si      6.117378     35.337843      7.501273
  Si      8.892897     33.808589      7.604951
  Si      8.900120     30.703496      7.659952
  O       4.892515     29.965125      8.343791
  O       4.757686     34.617899      8.096078
  O       7.422650     34.457426      7.943784
  O       7.511986     29.955762      8.116305
  O       6.226613     27.620456      8.368418
  O       8.805179     32.234097      8.210935
  O       5.913979     29.014383      6.136452
  O       5.979120     35.353827      5.866609
  O       9.108318     33.675237      5.990626
  O       9.025556     30.714091      6.033531
  Si      6.408972     38.396504      7.383263
  Si      8.971886     40.063099      7.705001
  O       5.113527     39.252475      7.498697
  O       7.727476     39.105820      8.133443
  O       6.291771     36.858111      8.013618
  O       8.636952     41.557260      8.285801
  O       6.985276     38.210338      5.833842
  O       9.157896     40.009977      6.070966
  Si     11.524005     26.053919      7.770466
  Si     14.184446     24.536431      7.852739
  O      10.182022     25.358648      8.385474
  O      12.884173     25.383301      8.358849
  O      13.943789     23.012430      8.377232
  O      11.450869     25.749118      6.155512
  O      14.225059     24.615060      6.208870
  Si     11.568250     29.233796      7.738926
  Al     11.632432     35.417036      7.839532
  Si     14.256695     33.785425      7.913708
  Si     14.207973     30.749894      7.818941
  O      10.182798     29.916140      8.292748
  O      10.090355     34.614050      8.275377
  O      13.046789     34.609623      8.546449
  O      12.897759     29.918996      8.376079
  O      11.509012     27.643734      8.081984
  O      14.354359     32.221870      8.473467
  O      11.588805     29.473319      6.115940
  O      11.884795     35.130216      6.116124
  O      14.041271     33.624452      6.286958
  O      13.977903     30.915105      6.202079
  Si     11.696445     38.660168      7.842473
  Si     14.427978     40.064610      7.886606
  O      10.376048     39.513487      8.353547
  O      13.060581     39.379769      8.441969
  O      11.575965     37.128355      8.263219
  O      14.642851     41.610173      8.381600
  O      11.826328     38.921057      6.213613
  O      14.430483     39.931548      6.245560
  Si     16.889785     26.016434      7.908528
  O      15.557722     25.212570      8.412555
  O      18.178521     25.208912      8.492860
  O      16.832263     26.021458      6.263349
  Si     16.921226     29.086318      7.814505
  Si     17.049637     35.312314      7.839521
  Si     19.686982     33.732943      7.873022
  Si     19.556760     30.648232      7.868354
  O      15.524414     29.837963      8.126331
  O      15.726482     34.469308      8.210652
  O      18.379517     34.540025      8.419514
  O      18.172085     29.953157      8.394530
  O      16.867209     27.566220      8.420420
  O      19.696497     32.181761      8.408028
  O      17.154516     28.870014      6.198790
  O      17.311092     35.378270      6.213237
  O      19.573324     33.650729      6.232237
  O      19.487362     30.708232      6.224165
  Si     17.012185     38.387666      7.851871
  O      15.762369     39.269610      8.418092
  O      18.474191     38.950179      8.322776
  O      16.963228     36.845260      8.394137
  O      16.880373     38.339521      6.212315
  O      20.741920     29.656155      8.388352
  O      21.107019     34.370214      8.366963
  H       4.074657     24.986772      8.036591
  H       1.410409     29.602015      8.036749
  H       1.410409     35.007985      8.036749
  H       4.074657     39.623228      8.036591
  H       8.948181     22.173255      8.038302
  H       8.948181     42.436745      8.038302
  H      14.277762     22.173204      8.038282
  H      14.277762     42.436796      8.038282
  H      18.960557     24.876228      8.036406
  H      18.960557     39.733772      8.036406
  H      21.624717     29.491420      8.036583
  H      21.624717     35.118580      8.036583
  H      13.251032     34.176132      6.016468
  H      11.107740     34.857742      5.623102
  H       8.941222     32.802868      5.616782
  H       9.855334     30.316867      5.719296
  H      12.387508     29.964078      5.838359
  H      14.006301     31.871685      5.959834
  H      13.569516     39.608150      5.918626
  H      10.992158     39.224317      5.822820
  H       8.459691     39.459214      5.665713
  H       6.669287     37.424282      5.377200
  H       5.222943     34.854899      5.535294
  H       3.376656     32.764108      5.712437
  H       4.196166     30.139693      5.781935
  H       6.074166     28.130988      5.776319
  H       6.978189     25.578223      5.883373
  H       9.630727     24.880957      5.863090
  H      12.295821     25.482230      5.768682
  H      15.022349     25.057692      5.879150
  H      16.987749     26.907818      5.895851
  H      17.802879     29.477658      5.815538
  H      19.494505     31.620189      5.891192
  H      18.864361     34.222232      5.889284
  H      17.091887     36.233269      5.817873
  H      16.087615     38.804433      5.897026
  P       2.951374     39.419929     10.043232
  O       3.004301     37.961217     10.274143
  O       3.145748     39.970775      8.639654
  O       1.566546     40.047159     10.544889
  O       3.978166     40.188724     11.024527
  C       5.344054     40.129275     10.663687
  C       6.219601     40.063510     11.893314
  O       6.072131     38.805397     12.583718
  C       7.684092     40.140291     11.523284
  O       8.439280     40.589080     12.623325
  C       8.005433     38.674823     11.241600
  O       9.372781     38.404217     11.390799
  C       7.142235     37.970198     12.295729
  N       6.617361     36.677458     11.841200
  C       5.315445     36.360970     11.511475
  N       5.177029     35.116948     11.130656
  C       6.436895     34.605819     11.179623
  C       6.945118     33.394090     10.719683
  N       6.218041     32.412629     10.203081
  N       8.294595     33.276015     10.832037
  C       9.102115     34.260160     11.326202
  N       8.679956     35.402865     11.751099
  C       7.351650     35.562099     11.623795
  H       1.150237     39.409973     11.132361
  H       5.539709     39.256663     10.031491
  H       5.605250     41.014247     10.075132
  H       5.940844     40.845015     12.602518
  H       7.854272     40.766411     10.641480
  H       9.324136     40.222754     12.496423
  H       7.657929     38.408885     10.244205
  H       9.724568     38.141867     10.534403
  H       7.742983     37.766959     13.189039
  H       4.517671     37.094013     11.520160
  H       5.257990     32.623778      9.971415
  H       6.651723     31.693462      9.645917
  H      10.160257     34.028726     11.329218
  H       8.745028     32.511955     10.338944
163
Coordinates from ORCA-job /data/Seafile/amp/al_surf/protonated_al_surf/frames/frame12/dry/amp_al_frame12_dry E -13417.886318537534
  Si      3.434474     33.766199      7.686845
  Si      3.515112     30.680833      7.817888
  O       2.015152     34.291588      8.265744
  O       2.249130     29.864402      8.440111
  O       3.560722     32.233905      8.299114
  O       3.470190     33.659303      6.045621
  O       3.496261     30.675017      6.175371
  Si      6.186917     26.059665      7.887933
  Si      8.859785     24.530623      7.903352
  O       4.848552     25.351602      8.481515
  O       7.508902     25.279272      8.427964
  O       8.853904     23.015743      8.499535
  O       6.223465     26.068800      6.241002
  O       8.804607     24.559733      6.258260
  Si      6.157187     29.126092      7.752255
  Si      6.118277     35.335116      7.495175
  Si      8.896867     33.805554      7.587038
  Si      8.902621     30.702021      7.650347
  O       4.892606     29.963164      8.345087
  O       4.759494     34.617599      8.092907
  O       7.424297     34.447565      7.922967
  O       7.514621     29.955939      8.111139
  O       6.229260     27.622230      8.367268
  O       8.814559     32.232021      8.200050
  O       5.911911     29.014732      6.134018
  O       5.968717     35.362805      5.861151
  O       9.114461     33.666816      5.972220
  O       9.032937     30.705001      6.024400
  Si      6.423773     38.390323      7.392604
  Si      8.984290     40.060087      7.712532
  O       5.115753     39.229349      7.491829
  O       7.737826     39.107471      8.141572
  O       6.315679     36.849453      8.019416
  O       8.661690     41.553801      8.302248
  O       7.013179     38.202950      5.846959
  O       9.165126     40.026250      6.079581
  Si     11.522586     26.052162      7.771405
  Si     14.182861     24.535578      7.855465
  O      10.179637     25.360162      8.387109
  O      12.881710     25.381006      8.360813
  O      13.944062     23.011255      8.379735
  O      11.449707     25.745797      6.156416
  O      14.222547     24.616553      6.211384
  Si     11.569304     29.232570      7.735451
  Al     11.641936     35.409405      7.822330
  Si     14.265425     33.779331      7.907723
  Si     14.210659     30.745258      7.819075
  O      10.182765     29.912682      8.288616
  O      10.091886     34.617345      8.255028
  O      13.052354     34.601251      8.536224
  O      12.898030     29.917618      8.375893
  O      11.509988     27.642505      8.079403
  O      14.362685     32.217039      8.472844
  O      11.593569     29.475178      6.114003
  O      11.898020     35.110983      6.101591
  O      14.053951     33.614318      6.280995
  O      13.978010     30.910094      6.202472
  Si     11.710152     38.658260      7.827441
  Si     14.436551     40.066592      7.881705
  O      10.384905     39.491004      8.349349
  O      13.070500     39.378861      8.432988
  O      11.598948     37.121536      8.234364
  O      14.646955     41.612055      8.381983
  O      11.841344     38.937139      6.201293
  O      14.445281     39.936508      6.240732
  Si     16.888933     26.012805      7.912210
  O      15.556710     25.209626      8.415518
  O      18.176348     25.201244      8.494309
  O      16.829459     26.019462      6.266983
  Si     16.922850     29.081293      7.818915
  Si     17.055638     35.310354      7.840874
  Si     19.690635     33.730066      7.874512
  Si     19.556293     30.645754      7.870173
  O      15.524921     29.831652      8.129022
  O      15.732993     34.465233      8.208519
  O      18.385098     34.538613      8.422385
  O      18.172531     29.950103      8.397794
  O      16.869593     27.561957      8.425969
  O      19.700840     32.178799      8.408777
  O      17.156031     28.863713      6.202982
  O      17.319447     35.376398      6.214758
  O      19.574247     33.645531      6.233987
  O      19.482432     30.705797      6.225895
  Si     17.016776     38.384844      7.850025
  O      15.771189     39.272538      8.412490
  O      18.479271     38.946105      8.319455
  O      16.967280     36.843169      8.394181
  O      16.883818     38.331079      6.210485
  O      20.741406     29.652991      8.388265
  O      21.112293     34.366498      8.366197
  H       4.074657     24.986772      8.036591
  H       1.410409     29.602015      8.036749
  H       1.410409     35.007985      8.036749
  H       4.074657     39.623228      8.036591
  H       8.948181     22.173255      8.038302
  H       8.948181     42.436745      8.038302
  H      14.277762     22.173204      8.038282
  H      14.277762     42.436796      8.038282
  H      18.960557     24.876228      8.036406
  H      18.960557     39.733772      8.036406
  H      21.624717     29.491420      8.036583
  H      21.624717     35.118580      8.036583
  H      13.262699     34.164956      6.008395
  H      11.120486     34.842820      5.606752
  H       8.956759     32.790961      5.602335
  H       9.865049     30.306563      5.716528
  H      12.396275     29.963040      5.840480
  H      14.012659     31.866640      5.958746
  H      13.586266     39.611953      5.909649
  H      11.010145     39.246959      5.811838
  H       8.464015     39.485450      5.668931
  H       6.676898     37.435052      5.374061
  H       5.217914     34.855698      5.528865
  H       3.378893     32.757494      5.711627
  H       4.197583     30.133473      5.784597
  H       6.072748     28.130843      5.775387
  H       6.979113     25.579172      5.883331
  H       9.631763     24.880532      5.865146
  H      12.295029     25.478860      5.770474
  H      15.021153     25.056787      5.881713
  H      16.985654     26.905886      5.899685
  H      17.801592     29.473380      5.818386
  H      19.493812     31.617265      5.892061
  H      18.867030     34.219054      5.890805
  H      17.097710     36.230077      5.818228
  H      16.096262     38.803481      5.893666
  P       2.914811     39.413059     10.031942
  O       2.961576     37.949476     10.228714
  O       3.133572     39.999551      8.646668
  O       1.524751     40.028003     10.531669
  O       3.930416     40.161238     11.038822
  C       5.290336     40.142916     10.660222
  C       6.177292     40.082065     11.879285
  O       6.037454     38.824310     12.570002
  C       7.638162     40.168809     11.502159
  O       8.390283     40.639580     12.594572
  C       7.976771     38.702592     11.233749
  O       9.345080     38.449630     11.406289
  C       7.108735     37.994952     12.281881
  N       6.586113     36.701844     11.822317
  C       5.280122     36.376366     11.511732
  N       5.145414     35.132041     11.131241
  C       6.410423     34.629988     11.156031
  C       6.924453     33.424218     10.688431
  N       6.204297     32.433481     10.175974
  N       8.276127     33.314896     10.789341
  C       9.082470     34.305256     11.273086
  N       8.655126     35.444150     11.703234
  C       7.324391     35.592581     11.594185
  H       1.087456     39.367683     11.076306
  H       5.500746     39.287334     10.011999
  H       5.524152     41.042344     10.081440
  H       5.897442     40.862670     12.589244
  H       7.802556     40.782894     10.610324
  H       9.278226     40.278861     12.471174
  H       7.647693     38.429749     10.231508
  H       9.716259     38.175741     10.561529
  H       7.707614     37.788737     13.175784
  H       4.476879     37.103868     11.537949
  H       5.239314     32.632547      9.952657
  H       6.646052     31.724489      9.610759
  H      10.142518     34.082325     11.260938
  H       8.726543     32.552485     10.294672
163
Coordinates from ORCA-job /data/Seafile/amp/al_surf/protonated_al_surf/frames/frame12/dry/amp_al_frame12_dry E -13417.886771020461
  Si      3.437298     33.765755      7.683766
  Si      3.514822     30.680767      7.819879
  O       2.015824     34.289279      8.257694
  O       2.244968     29.871190      8.444534
  O       3.563932     32.234553      8.297595
  O       3.477077     33.656538      6.042504
  O       3.495023     30.668258      6.177723
  Si      6.186577     26.060855      7.889715
  Si      8.858908     24.530032      7.906041
  O       4.846667     25.354492      8.482164
  O       7.506950     25.277178      8.429537
  O       8.854584     23.014573      8.501431
  O       6.223608     26.070846      6.242665
  O       8.805215     24.560251      6.260925
  Si      6.156740     29.127641      7.756338
  Si      6.121923     35.333062      7.491129
  Si      8.901052     33.800506      7.578545
  Si      8.905104     30.698088      7.653964
  O       4.891231     29.961868      8.349403
  O       4.762204     34.618613      8.090274
  O       7.426260     34.437579      7.909404
  O       7.515335     29.955636      8.115487
  O       6.230171     27.622719      8.370388
  O       8.821746     32.229317      8.199865
  O       5.912876     29.017284      6.137455
  O       5.964315     35.370693      5.858305
  O       9.123498     33.655466      5.964690
  O       9.038637     30.696448      6.028521
  Si      6.437329     38.384927      7.399481
  Si      8.991462     40.058404      7.724625
  O       5.119191     39.208393      7.486245
  O       7.741772     39.111662      8.153188
  O       6.337899     36.841969      8.025093
  O       8.679555     41.553206      8.316764
  O       7.043059     38.202807      5.858758
  O       9.171512     40.030900      6.092494
  Si     11.521867     26.050105      7.776983
  Si     14.182291     24.534717      7.859184
  O      10.178009     25.359693      8.391846
  O      12.880402     25.377712      8.365902
  O      13.945469     23.010185      8.383181
  O      11.448996     25.745580      6.161486
  O      14.220104     24.617850      6.215096
  Si     11.570410     29.230298      7.744654
  Al     11.648014     35.403139      7.820357
  Si     14.270574     33.773974      7.915635
  Si     14.211670     30.740982      7.829850
  O      10.182794     29.907388      8.297434
  O      10.092089     34.617889      8.246938
  O      13.054459     34.594291      8.540911
  O      12.899082     29.914358      8.387455
  O      11.511446     27.639851      8.085918
  O      14.368554     32.212683      8.483873
  O      11.594967     29.476741      6.123991
  O      11.910866     35.100020      6.101476
  O      14.061913     33.602353      6.289492
  O      13.972970     30.903864      6.213861
  Si     11.715780     38.655314      7.830270
  Si     14.439397     40.067457      7.884048
  O      10.387735     39.476390      8.357541
  O      13.074609     39.378556      8.436389
  O      11.612928     37.115140      8.225699
  O      14.648274     41.613546      8.384621
  O      11.844229     38.943450      6.205254
  O      14.448182     39.937879      6.243248
  Si     16.888814     26.010549      7.915154
  O      15.556509     25.208152      8.418836
  O      18.174774     25.195419      8.495486
  O      16.827794     26.018969      6.270009
  Si     16.924109     29.078470      7.824589
  Si     17.058077     35.309542      7.846374
  Si     19.692360     33.729038      7.876117
  Si     19.556214     30.644680      7.871882
  O      15.525797     29.826844      8.137475
  O      15.736674     34.462984      8.215653
  O      18.388625     34.538815      8.426782
  O      18.173621     29.948432      8.401760
  O      16.872733     27.559107      8.431226
  O      19.703623     32.177605      8.409828
  O      17.154336     28.862058      6.207937
  O      17.319501     35.374548      6.219779
  O      19.573129     33.643967      6.235858
  O      19.478202     30.704703      6.227803
  Si     17.018605     38.383630      7.852007
  O      15.775848     39.275339      8.413098
  O      18.482398     38.943678      8.318578
  O      16.969363     36.842620      8.398370
  O      16.882935     38.325187      6.212777
  O      20.741345     29.651251      8.388504
  O      21.115532     34.364164      8.365774
  H       4.074657     24.986772      8.036591
  H       1.410409     29.602015      8.036749
  H       1.410409     35.007985      8.036749
  H       4.074657     39.623228      8.036591
  H       8.948181     22.173255      8.038302
  H       8.948181     42.436745      8.038302
  H      14.277762     22.173204      8.038282
  H      14.277762     42.436796      8.038282
  H      18.960557     24.876228      8.036406
  H      18.960557     39.733772      8.036406
  H      21.624717     29.491420      8.036583
  H      21.624717     35.118580      8.036583
  H      13.249487     34.122625      6.017897
  H      11.136880     34.827620      5.603844
  H       8.972813     32.776718      5.598863
  H       9.874155     30.301333      5.724845
  H      12.392421     29.974437      5.852924
  H      13.977819     31.861158      5.971683
  H      13.586592     39.620226      5.911659
  H      11.010884     39.247570      5.815714
  H       8.481513     39.478577      5.680942
  H       6.699534     37.446780      5.372622
  H       5.216002     34.860263      5.525641
  H       3.383679     32.754867      5.708952
  H       4.198802     30.128666      5.788603
  H       6.074390     28.133462      5.778943
  H       6.979255     25.581068      5.885320
  H       9.633036     24.880590      5.868932
  H      12.294346     25.478343      5.775784
  H      15.019097     25.057120      5.885159
  H      16.984490     26.905496      5.903234
  H      17.798614     29.472448      5.822322
  H      19.491196     31.616027      5.893647
  H      18.866561     34.218692      5.893223
  H      17.096746     36.227744      5.822724
  H      16.099008     38.803397      5.895581
  P       2.905072     39.412286     10.001826
  O       2.930422     37.950498     10.208464
  O       3.153891     39.986152      8.615030
  O       1.512141     40.043046     10.470961
  O       3.908208     40.164364     11.018321
  C       5.272236     40.179804     10.649387
  C       6.147147     40.103999     11.877508
  O       6.001860     38.840906     12.557882
  C       7.611981     40.196902     11.518285
  O       8.347027     40.671683     12.620831
  C       7.963375     38.732993     11.252576
  O       9.331220     38.491252     11.449362
  C       7.081320     38.016420     12.282618
  N       6.569938     36.722341     11.810576
  C       5.266465     36.385680     11.504234
  N       5.139862     35.141702     11.121104
  C       6.408366     34.648544     11.143279
  C       6.930388     33.444486     10.679172
  N       6.217814     32.445066     10.172908
  N       8.283123     33.346922     10.775172
  C       9.083555     34.345435     11.250599
  N       8.648995     35.482229     11.679342
  C       7.316482     35.619192     11.576591
  H       1.047511     39.382673     10.992023
  H       5.506659     39.350406      9.974517
  H       5.494147     41.101374     10.101279
  H       5.858500     40.878038     12.591195
  H       7.784758     40.811283     10.628000
  H       9.237740     40.313706     12.511086
  H       7.655744     38.460945     10.243975
  H       9.716194     38.208324     10.614304
  H       7.666714     37.808505     13.185091
  H       4.459410     37.107693     11.533006
  H       5.250507     32.634563      9.951974
  H       6.666099     31.741846      9.605290
  H      10.145234     34.131606     11.232955
  H       8.737002     32.584576     10.284026
163
Coordinates from ORCA-job /data/Seafile/amp/al_surf/protonated_al_surf/frames/frame12/dry/amp_al_frame12_dry E -13417.887129678087
  Si      3.439516     33.766055      7.680486
  Si      3.513789     30.680889      7.821521
  O       2.016310     34.286897      8.250768
  O       2.241185     29.876946      8.447847
  O       3.566014     32.235839      8.296206
  O       3.482137     33.656131      6.039154
  O       3.493950     30.664384      6.179631
  Si      6.186266     26.061144      7.892149
  Si      8.858272     24.529613      7.907569
  O       4.845006     25.356312      8.483127
  O       7.505713     25.275272      8.431222
  O       8.855605     23.013711      8.502460
  O       6.223309     26.072763      6.245133
  O       8.804280     24.560495      6.262496
  Si      6.156063     29.127692      7.761645
  Si      6.125745     35.329753      7.490376
  Si      8.903625     33.795056      7.578831
  Si      8.905866     30.693418      7.660615
  O       4.889333     29.961058      8.353267
  O       4.764269     34.618258      8.089143
  O       7.426767     34.426824      7.904582
  O       7.514076     29.955382      8.121958
  O       6.230018     27.622049      8.374446
  O       8.826054     32.225474      8.205028
  O       5.913572     29.019062      6.142523
  O       5.963143     35.375981      5.858921
  O       9.129813     33.644685      5.966413
  O       9.038662     30.691836      6.035350
  Si      6.447195     38.377640      7.405985
  Si      8.992693     40.057141      7.740515
  O       5.121928     39.188357      7.485159
  O       7.740798     39.113769      8.167018
  O       6.353351     36.833309      8.031411
  O       8.691584     41.554301      8.331508
  O       7.069554     38.202667      5.870581
  O       9.170607     40.029407      6.107676
  Si     11.521644     26.048268      7.779463
  Si     14.182168     24.534044      7.860924
  O      10.177143     25.359290      8.394213
  O      12.879716     25.375149      8.368481
  O      13.946528     23.009556      8.385280
  O      11.448683     25.743441      6.163919
  O      14.219424     24.617173      6.216850
  Si     11.571467     29.228260      7.749882
  Al     11.649820     35.399095      7.824985
  Si     14.272725     33.771767      7.922381
  Si     14.213271     30.738857      7.834547
  O      10.183444     29.902510      8.304332
  O      10.091158     34.616681      8.248120
  O      13.054894     34.589987      8.547886
  O      12.900465     29.912471      8.392368
  O      11.513336     27.637567      8.088665
  O      14.372635     32.209922      8.489730
  O      11.595055     29.476165      6.129093
  O      11.913694     35.092283      6.106560
  O      14.065228     33.602996      6.295880
  O      13.976599     30.903394      6.218352
  Si     11.715438     38.653252      7.840772
  Si     14.438498     40.067690      7.888619
  O      10.386470     39.469067      8.372495
  O      13.074750     39.378815      8.444067
  O      11.620244     37.111160      8.226911
  O      14.647658     41.614538      8.387176
  O      11.837017     38.946675      6.216009
  O      14.443469     39.938268      6.247788
  Si     16.888848     26.009137      7.915641
  O      15.556140     25.208089      8.420197
  O      18.173099     25.190854      8.495464
  O      16.827793     26.018186      6.270574
  Si     16.925488     29.076840      7.826056
  Si     17.058607     35.309951      7.849615
  Si     19.692665     33.729149      7.876320
  Si     19.556249     30.644771      7.872028
  O      15.526750     29.823453      8.140458
  O      15.738259     34.462460      8.220799
  O      18.390344     34.540125      8.428847
  O      18.174338     29.947976      8.402771
  O      16.875672     27.557410      8.432655
  O      19.704399     32.177628      8.409845
  O      17.155045     28.861221      6.209164
  O      17.317811     35.375229      6.222683
  O      19.572302     33.644728      6.236129
  O      19.477104     30.704989      6.228160
  Si     17.018468     38.383761      7.854282
  O      15.777117     39.277495      8.415677
  O      18.483937     38.942535      8.318168
  O      16.969659     36.843060      8.401560
  O      16.880183     38.323526      6.215281
  O      20.741216     29.650442      8.388066
  O      21.117041     34.362787      8.364862
  H       4.074657     24.986772      8.036591
  H       1.410409     29.602015      8.036749
  H       1.410409     35.007985      8.036749
  H       4.074657     39.623228      8.036591
  H       8.948181     22.173255      8.038302
  H       8.948181     42.436745      8.038302
  H      14.277762     22.173204      8.038282
  H      14.277762     42.436796      8.038282
  H      18.960557     24.876228      8.036406
  H      18.960557     39.733772      8.036406
  H      21.624717     29.491420      8.036583
  H      21.624717     35.118580      8.036583
  H      13.261264     34.136531      6.022908
  H      11.139941     34.820685      5.608455
  H       8.980224     32.764434      5.603898
  H       9.875868     30.298956      5.732795
  H      12.392626     29.974286      5.858262
  H      14.003454     31.860469      5.975258
  H      13.578166     39.627584      5.918452
  H      11.000010     39.246349      5.829121
  H       8.495196     39.457169      5.699082
  H       6.718409     37.458231      5.372417
  H       5.215259     34.865223      5.526782
  H       3.387892     32.754984      5.705233
  H       4.200044     30.126749      5.792221
  H       6.076258     28.135623      5.783693
  H       6.978403     25.582462      5.887541
  H       9.632302     24.880377      5.870645
  H      12.294017     25.475491      5.778657
  H      15.018674     25.055749      5.886758
  H      16.984116     26.904815      5.904069
  H      17.799414     29.471591      5.823674
  H      19.489719     31.616476      5.894383
  H      18.865061     34.218983      5.893993
  H      17.094094     36.228525      5.826175
  H      16.096536     38.802932      5.898886
  P       2.897303     39.441278      9.985654
  O       2.909235     37.980948     10.202966
  O       3.164010     40.003786      8.595367
  O       1.503753     40.086101     10.433632
  O       3.893405     40.194124     11.008267
  C       5.260038     40.217787     10.649136
  C       6.124209     40.139727     11.884175
  O       5.973974     38.875441     12.560054
  C       7.591293     40.235084     11.534172
  O       8.317698     40.717710     12.639175
  C       7.949704     38.772069     11.276490
  O       9.317093     38.540373     11.488271
  C       7.058219     38.052901     12.296506
  N       6.553815     36.758662     11.816459
  C       5.252053     36.412945     11.513517
  N       5.133730     35.170059     11.122746
  C       6.405963     34.685805     11.141476
  C       6.936063     33.485099     10.673295
  N       6.231102     32.479887     10.168145
  N       8.289543     33.399772     10.762791
  C       9.083401     34.403125     11.236878
  N       8.642357     35.535646     11.670434
  C       7.307908     35.661483     11.574166
  H       1.019800     39.424990     10.935713
  H       5.504712     39.395669      9.968310
  H       5.480933     41.145857     10.111457
  H       5.830483     40.911002     12.598721
  H       7.766562     40.847471     10.642844
  H       9.210216     40.361579     12.536947
  H       7.655542     38.494458     10.266126
  H       9.710996     38.246616     10.661457
  H       7.633330     37.845413     13.205786
  H       4.441847     37.129617     11.543609
  H       5.261490     32.661112      9.950494
  H       6.684954     31.781477      9.598284
  H      10.146195     34.198681     11.212717
  H       8.747125     32.641968     10.267381
163
Coordinates from ORCA-job /data/Seafile/amp/al_surf/protonated_al_surf/frames/frame12/dry/amp_al_frame12_dry E -13417.887480972500
  Si      3.441547     33.766569      7.674020
  Si      3.511494     30.681667      7.821205
  O       2.019677     34.287858      8.244429
  O       2.235695     29.886245      8.452058
  O       3.568575     32.238075      8.291015
  O       3.479584     33.656593      6.032065
  O       3.488781     30.658166      6.179686
  Si      6.185369     26.062286      7.893008
  Si      8.856644     24.529413      7.907407
  O       4.842158     25.360994      8.483724
  O       7.503792     25.273828      8.430874
  O       8.855830     23.013233      8.502866
  O       6.221185     26.073036      6.246074
  O       8.802465     24.559510      6.262522
  Si      6.154082     29.128262      7.762197
  Si      6.128568     35.325621      7.475586
  Si      8.905501     33.787107      7.558241
  Si      8.905646     30.685845      7.655643
  O       4.887245     29.961232      8.352725
  O       4.768787     34.616037      8.080106
  O       7.426707     34.412158      7.879059
  O       7.512026     29.955804      8.119945
  O       6.229754     27.622258      8.375361
  O       8.830561     32.220879      8.193163
  O       5.909692     29.018863      6.143389
  O       5.951043     35.385660      5.846967
  O       9.135801     33.627860      5.947656
  O       9.038280     30.678696      6.030382
  Si      6.457431     38.368440      7.402226
  Si      8.996000     40.057471      7.751729
  O       5.124028     39.164413      7.484653
  O       7.743516     39.112300      8.164243
  O       6.374090     36.821148      8.026254
  O       8.711619     41.554556      8.350702
  O       7.087974     38.204059      5.868601
  O       9.170553     40.044438      6.116712
  Si     11.520863     26.045076      7.778548
  Si     14.181883     24.533378      7.861731
  O      10.175581     25.359087      8.394337
  O      12.878170     25.371864      8.369187
  O      13.948928     23.009185      8.388169
  O      11.448329     25.737085      6.163484
  O      14.218960     24.613758      6.217636
  Si     11.572982     29.224716      7.746592
  Al     11.650668     35.392768      7.810845
  Si     14.274658     33.769080      7.916083
  Si     14.214623     30.736055      7.829188
  O      10.184767     29.897769      8.300494
  O      10.088558     34.614249      8.228499
  O      13.053165     34.584287      8.539343
  O      12.901934     29.910109      8.388530
  O      11.515536     27.634435      8.085506
  O      14.376421     32.206901      8.484031
  O      11.597463     29.470692      6.124913
  O      11.918509     35.080763      6.093179
  O      14.071493     33.601942      6.289160
  O      13.978535     30.900810      6.212716
  Si     11.716382     38.651142      7.841377
  Si     14.437869     40.068160      7.891396
  O      10.385447     39.457836      8.380179
  O      13.074946     39.377126      8.446484
  O      11.630244     37.105292      8.209222
  O      14.644935     41.615198      8.390910
  O      11.830858     38.958055      6.218565
  O      14.441254     39.943426      6.250177
  Si     16.888597     26.007828      7.913333
  O      15.554783     25.210031      8.419935
  O      18.169898     25.184825      8.493968
  O      16.828623     26.015419      6.268497
  Si     16.927402     29.075260      7.820559
  Si     17.058759     35.311037      7.846020
  Si     19.692366     33.729996      7.873408
  Si     19.556353     30.645792      7.868814
  O      15.527379     29.819327      8.134622
  O      15.738733     34.462367      8.215756
  O      18.391070     34.542297      8.426077
  O      18.174408     29.948379      8.398094
  O      16.879625     27.556418      8.429163
  O      19.703379     32.178474      8.406577
  O      17.158936     28.859363      6.203993
  O      17.318625     35.379203      6.219393
  O      19.573656     33.647110      6.233127
  O      19.480055     30.705694      6.225101
  Si     17.018469     38.384437      7.854439
  O      15.778047     39.279334      8.416440
  O      18.485063     38.941862      8.317641
  O      16.969021     36.843423      8.400063
  O      16.879655     38.325062      6.215320
  O      20.740959     29.651140      8.386738
  O      21.117960     34.361313      8.362720
  H       4.074657     24.986772      8.036591
  H       1.410409     29.602015      8.036749
  H       1.410409     35.007985      8.036749
  H       4.074657     39.623228      8.036591
  H       8.948181     22.173255      8.038302
  H       8.948181     42.436745      8.038302
  H      14.277762     22.173204      8.038282
  H      14.277762     42.436796      8.038282
  H      18.960557     24.876228      8.036406
  H      18.960557     39.733772      8.036406
  H      21.624717     29.491420      8.036583
  H      21.624717     35.118580      8.036583
  H      13.270243     34.140985      6.014169
  H      11.145923     34.806781      5.594576
  H       8.988184     32.744218      5.592062
  H       9.876964     30.284542      5.732037
  H      12.396690     29.966401      5.853740
  H      14.009675     31.858442      5.970653
  H      13.576450     39.629845      5.922031
  H      10.994419     39.271126      5.839564
  H       8.501500     39.466699      5.704195
  H       6.717678     37.478367      5.356793
  H       5.203292     34.872099      5.519196
  H       3.384086     32.756395      5.697255
  H       4.198070     30.123375      5.794285
  H       6.073646     28.135472      5.785203
  H       6.974548     25.580934      5.887654
  H       9.630450     24.878784      5.870090
  H      12.293769     25.467746      5.779292
  H      15.018327     25.050950      5.886137
  H      16.982842     26.901790      5.900581
  H      17.805156     29.468492      5.819545
  H      19.493590     31.617085      5.891059
  H      18.865221     34.219313      5.890092
  H      17.095552     36.233617      5.824732
  H      16.094936     38.802505      5.898967
  P       2.897855     39.474250      9.990304
  O       2.900645     38.015189     10.218456
  O       3.172001     40.026781      8.595255
  O       1.506303     40.130851     10.429326
  O       3.893750     40.227460     11.013299
  C       5.261181     40.254494     10.658272
  C       6.120344     40.176915     11.896442
  O       5.968959     38.910777     12.567258
  C       7.588516     40.275584     11.551378
  O       8.309077     40.768446     12.655925
  C       7.956829     38.813083     11.301633
  O       9.324353     38.596719     11.529438
  C       7.057096     38.089999     12.313109
  N       6.554700     36.796918     11.824465
  C       5.251034     36.447109     11.533355
  N       5.133169     35.204537     11.139131
  C       6.407772     34.726547     11.140284
  C       6.936674     33.525910     10.666255
  N       6.230843     32.516951     10.169269
  N       8.290453     33.445783     10.741289
  C       9.085753     34.451482     11.206046
  N       8.647196     35.582307     11.647087
  C       7.310738     35.702973     11.567733
  H       1.006520     39.465099     10.909184
  H       5.509879     39.436460      9.975121
  H       5.481044     41.186271     10.126247
  H       5.823870     40.945254     12.612791
  H       7.761839     40.886441     10.658795
  H       9.202558     40.412860     12.560646
  H       7.675836     38.526572     10.289907
  H       9.731909     38.287873     10.714448
  H       7.623289     37.881093     13.227838
  H       4.438075     37.161025     11.574106
  H       5.258550     32.694801      9.961567
  H       6.682953     31.816163      9.600672
  H      10.148202     34.252353     11.164983
  H       8.744148     32.687498     10.242071
163
Coordinates from ORCA-job /data/Seafile/amp/al_surf/protonated_al_surf/frames/frame12/dry/amp_al_frame12_dry E -13417.887713716449
  Si      3.446202     33.769191      7.671388
  Si      3.508834     30.684412      7.823562
  O       2.025285     34.292104      8.240749
  O       2.227378     29.901597      8.459122
  O       3.572440     32.242437      8.289347
  O       3.482096     33.660302      6.029132
  O       3.483261     30.653814      6.182632
  Si      6.183614     26.064903      7.893831
  Si      8.854066     24.529402      7.907273
  O       4.838093     25.368200      8.484751
  O       7.500701     25.272878      8.430086
  O       8.855483     23.013145      8.503633
  O       6.218006     26.076053      6.247144
  O       8.800488     24.558809      6.262761
  Si      6.151966     29.130348      7.764656
  Si      6.133394     35.324622      7.463747
  Si      8.907867     33.778024      7.534383
  Si      8.905919     30.678927      7.655470
  O       4.883892     29.961528      8.354518
  O       4.775198     34.617557      8.076408
  O       7.426928     34.396464      7.851579
  O       7.509682     29.957801      8.120972
  O       6.229734     27.623765      8.377205
  O       8.838122     32.218188      8.184157
  O       5.906556     29.021687      6.145952
  O       5.937963     35.400436      5.838992
  O       9.138975     33.604770      5.925798
  O       9.039003     30.665305      6.029863
  Si      6.472766     38.361855      7.400609
  Si      9.004554     40.060247      7.761276
  O       5.128255     39.139870      7.482172
  O       7.748001     39.118180      8.163640
  O       6.403392     36.811834      8.025093
  O       8.746253     41.555248      8.375817
  O       7.109866     38.205895      5.868257
  O       9.172211     40.068704      6.124444
  Si     11.519505     26.041954      7.780277
  Si     14.180761     24.532081      7.864248
  O      10.172765     25.359028      8.395792
  O      12.875566     25.367418      8.372396
  O      13.951977     23.008228      8.393212
  O      11.447757     25.733722      6.165323
  O      14.216531     24.609767      6.220251
  Si     11.573739     29.220735      7.748485
  Al     11.654505     35.382487      7.785218
  Si     14.278635     33.762581      7.905405
  Si     14.216215     30.730154      7.826818
  O      10.185541     29.892367      8.301813
  O      10.087537     34.613776      8.200453
  O      13.052426     34.575616      8.523693
  O      12.902837     29.907624      8.388929
  O      11.517860     27.630963      8.087375
  O      14.381666     32.202187      8.478299
  O      11.597798     29.464454      6.125892
  O      11.925740     35.059097      6.069381
  O      14.081396     33.592243      6.278420
  O      13.981481     30.891577      6.209699
  Si     11.720589     38.647226      7.829306
  Si     14.438922     40.068937      7.887437
  O      10.388249     39.441103      8.381498
  O      13.076966     39.373303      8.439187
  O      11.647803     37.096442      8.173750
  O      14.641394     41.614548      8.393996
  O      11.826903     38.973178      6.209701
  O      14.442480     39.952771      6.245717
  Si     16.888247     26.005065      7.912197
  O      15.552333     25.212336      8.421109
  O      18.165528     25.175407      8.492824
  O      16.828947     26.012189      6.267797
  Si     16.929401     29.072286      7.818053
  Si     17.059517     35.310785      7.837864
  Si     19.693126     33.730281      7.869030
  Si     19.556286     30.645969      7.866301
  O      15.527623     29.812160      8.133847
  O      15.740219     34.460251      8.207243
  O      18.392263     34.544392      8.420328
  O      18.174590     29.948136      8.395495
  O      16.885346     27.553784      8.427901
  O      19.701891     32.179066      8.402870
  O      17.160170     28.857655      6.201516
  O      17.319673     35.380151      6.211742
  O      19.577818     33.648432      6.228790
  O      19.482063     30.703582      6.222838
  Si     17.019915     38.384217      7.849368
  O      15.779612     39.279960      8.410662
  O      18.486253     38.940327      8.315518
  O      16.968059     36.842738      8.393285
  O      16.883837     38.326683      6.209924
  O      20.740985     29.652036      8.386704
  O      21.119192     34.359429      8.360696
  H       4.074657     24.986772      8.036591
  H       1.410409     29.602015      8.036749
  H       1.410409     35.007985      8.036749
  H       4.074657     39.623228      8.036591
  H       8.948181     22.173255      8.038302
  H       8.948181     42.436745      8.038302
  H      14.277762     22.173204      8.038282
  H      14.277762     42.436796      8.038282
  H      18.960557     24.876228      8.036406
  H      18.960557     39.733772      8.036406
  H      21.624717     29.491420      8.036583
  H      21.624717     35.118580      8.036583
  H      13.277183     34.126582      6.000191
  H      11.154541     34.778484      5.572047
  H       8.993626     32.715942      5.581305
  H       9.879064     30.270571      5.735242
  H      12.396765     29.959393      5.852969
  H      14.017486     31.848503      5.965628
  H      13.577638     39.640754      5.916181
  H      10.992646     39.305153      5.841604
  H       8.499699     39.498391      5.705629
  H       6.716432     37.503972      5.341538
  H       5.193713     34.879085      5.514675
  H       3.384127     32.761327      5.692256
  H       4.195952     30.121745      5.799094
  H       6.072103     28.138776      5.787021
  H       6.970254     25.583790      5.886731
  H       9.628862     24.876340      5.869680
  H      12.293258     25.463697      5.781601
  H      15.014990     25.046526      5.886214
  H      16.982552     26.897899      5.898304
  H      17.807388     29.465847      5.817250
  H      19.495146     31.614105      5.886712
  H      18.869515     34.219007      5.883322
  H      17.099555     36.236058      5.818367
  H      16.099890     38.803579      5.891494
  P       2.892165     39.491450      9.955944
  O       2.891202     38.032321     10.183139
  O       3.183911     40.044356      8.562492
  O       1.495650     40.149926     10.377531
  O       3.875188     40.245324     10.988782
  C       5.243447     40.307330     10.639389
  C       6.096726     40.215135     11.880171
  O       5.946446     38.939286     12.530820
  C       7.566346     40.328046     11.545323
  O       8.273745     40.828606     12.654582
  C       7.955538     38.870707     11.296222
  O       9.320563     38.675355     11.554208
  C       7.044883     38.129801     12.285647
  N       6.556561     36.838069     11.779693
  C       5.254176     36.474855     11.503136
  N       5.143890     35.230409     11.113079
  C       6.423024     34.765609     11.101755
  C       6.956234     33.561270     10.641248
  N       6.252258     32.540872     10.167680
  N       8.311228     33.492162     10.707280
  C       9.102497     34.510360     11.149900
  N       8.659149     35.643143     11.582271
  C       7.320820     35.750988     11.515884
  H       0.977216     39.473576     10.821824
  H       5.510739     39.514723      9.933908
  H       5.447173     41.258629     10.136040
  H       5.793824     40.971178     12.606817
  H       7.738209     40.942774     10.655107
  H       9.170353     40.478528     12.567504
  H       7.700468     38.581952     10.277310
  H       9.749114     38.347314     10.758145
  H       7.597131     37.916949     13.207971
  H       4.434940     37.180527     11.554407
  H       5.277472     32.709951      9.965491
  H       6.704081     31.828289      9.614285
  H      10.166450     34.321261     11.098702
  H       8.766445     32.725570     10.220993
163
Coordinates from ORCA-job /data/Seafile/amp/al_surf/protonated_al_surf/frames/frame12/dry/amp_al_frame12_dry E -13417.887860768487
  Si      3.449464     33.770242      7.674550
  Si      3.507393     30.686013      7.828619
  O       2.028843     34.295948      8.242392
  O       2.221597     29.910837      8.464421
  O       3.574806     32.244690      8.293214
  O       3.483675     33.662876      6.032302
  O       3.482652     30.652351      6.187860
  Si      6.182506     26.066581      7.896783
  Si      8.852228     24.529332      7.908152
  O       4.834754     25.373156      8.486503
  O       7.498756     25.272183      8.431716
  O       8.854283     23.012954      8.504172
  O       6.217475     26.079247      6.250373
  O       8.798768     24.559378      6.263992
  Si      6.151067     29.131169      7.771543
  Si      6.136719     35.323537      7.462371
  Si      8.908613     33.772338      7.525985
  Si      8.905047     30.675501      7.660060
  O       4.881576     29.961720      8.359997
  O       4.779765     34.616546      8.080020
  O       7.426393     34.386599      7.841189
  O       7.507862     29.959923      8.127813
  O       6.229962     27.624369      8.382664
  O       8.841503     32.217042      8.184477
  O       5.905611     29.023216      6.152838
  O       5.931588     35.406820      5.839756
  O       9.139179     33.590924      5.918588
  O       9.035677     30.657685      6.033466
  Si      6.481563     38.356288      7.403546
  Si      9.012336     40.063286      7.769513
  O       5.130687     39.120951      7.487285
  O       7.754280     39.119828      8.163448
  O       6.416770     36.805923      8.029296
  O       8.770131     41.557011      8.393786
  O       7.120124     38.203324      5.871615
  O       9.176727     40.085256      6.131063
  Si     11.518409     26.040127      7.781625
  Si     14.179590     24.531468      7.866315
  O      10.170983     25.358738      8.397541
  O      12.873688     25.365183      8.375165
  O      13.953289     23.007462      8.396000
  O      11.446891     25.730654      6.167108
  O      14.215160     24.607669      6.222448
  Si     11.573750     29.218659      7.748926
  Al     11.655510     35.377028      7.771667
  Si     14.279560     33.758721      7.896227
  Si     14.216956     30.726675      7.823499
  O      10.186527     29.890554      8.302909
  O      10.087835     34.612452      8.188302
  O      13.051843     34.570592      8.513676
  O      12.903018     29.906592      8.387617
  O      11.518931     27.629265      8.088189
  O      14.383754     32.199696      8.472111
  O      11.596260     29.460616      6.125601
  O      11.926042     35.049252      6.055813
  O      14.082733     33.585525      6.269684
  O      13.983331     30.885871      6.205963
  Si     11.724503     38.644609      7.826744
  Si     14.440092     40.068944      7.887093
  O      10.393541     39.436374      8.387487
  O      13.080334     39.369232      8.439337
  O      11.657387     37.091423      8.157651
  O      14.639640     41.614223      8.395763
  O      11.825354     38.979335      6.208572
  O      14.440692     39.956050      6.245138
  Si     16.887633     26.003239      7.912236
  O      15.549857     25.214610      8.422820
  O      18.161916     25.167753      8.491512
  O      16.828295     26.011140      6.268207
  Si     16.930517     29.070375      7.817091
  Si     17.059161     35.310120      7.831348
  Si     19.692978     33.730239      7.866796
  Si     19.556114     30.645915      7.865678
  O      15.527199     29.807405      8.132350
  O      15.739937     34.458789      8.199302
  O      18.391828     34.545146      8.416239
  O      18.174329     29.948227      8.394764
  O      16.889288     27.551983      8.427869
  O      19.699911     32.179379      8.401848
  O      17.161725     28.855976      6.200949
  O      17.320902     35.380618      6.205933
  O      19.579519     33.648776      6.226700
  O      19.484134     30.702372      6.222346
  Si     17.020752     38.383796      7.845952
  O      15.781107     39.279815      8.408969
  O      18.486981     38.939166      8.313592
  O      16.966560     36.841839      8.388323
  O      16.885613     38.330221      6.206360
  O      20.741271     29.652878      8.387148
  O      21.119171     34.358724      8.359377
  H       4.074657     24.986772      8.036591
  H       1.410409     29.602015      8.036749
  H       1.410409     35.007985      8.036749
  H       4.074657     39.623228      8.036591
  H       8.948181     22.173255      8.038302
  H       8.948181     42.436745      8.038302
  H      14.277762     22.173204      8.038282
  H      14.277762     42.436796      8.038282
  H      18.960557     24.876228      8.036406
  H      18.960557     39.733772      8.036406
  H      21.624717     29.491420      8.036583
  H      21.624717     35.118580      8.036583
  H      13.274367     34.113556      5.991056
  H      11.154921     34.764556      5.560508
  H       8.992715     32.699399      5.580907
  H       9.877675     30.266743      5.739117
  H      12.393097     29.957543      5.850877
  H      14.020776     31.842325      5.960605
  H      13.573964     39.648475      5.916450
  H      10.992405     39.322559      5.848021
  H       8.510644     39.508652      5.710063
  H       6.708498     37.518539      5.336318
  H       5.190791     34.878985      5.517284
  H       3.383134     32.764862      5.693474
  H       4.197524     30.121444      5.806326
  H       6.073172     28.141254      5.792367
  H       6.969844     25.588278      5.888463
  H       9.627810     24.874375      5.870235
  H      12.292670     25.461995      5.782992
  H      15.012781     25.044546      5.886728
  H      16.983598     26.896165      5.897951
  H      17.808772     29.464251      5.816594
  H      19.495851     31.612325      5.884873
  H      18.872814     34.220033      5.879494
  H      17.103081     36.237582      5.813527
  H      16.102068     38.807167      5.887430
  P       2.886291     39.503611      9.988371
  O       2.881788     38.048901     10.239911
  O       3.181604     40.030733      8.584579
  O       1.492209     40.175654     10.396853
  O       3.872569     40.272665     11.003704
  C       5.240500     40.332523     10.651037
  C       6.095034     40.239417     11.890843
  O       5.949916     38.959454     12.534239
  C       7.564587     40.361700     11.559348
  O       8.266521     40.864045     12.670739
  C       7.965476     38.907769     11.307316
  O       9.329308     38.723891     11.577438
  C       7.053555     38.157384     12.288890
  N       6.572860     36.866405     11.775717
  C       5.269896     36.494980     11.514355
  N       5.163802     35.250625     11.123794
  C       6.445416     34.793860     11.100573
  C       6.979408     33.589545     10.644149
  N       6.274121     32.562455     10.187307
  N       8.335852     33.526609     10.698947
  C       9.126375     34.552602     11.125071
  N       8.680988     35.685950     11.555089
  C       7.341459     35.785122     11.503673
  H       0.966014     39.504378     10.840318
  H       5.505189     39.538066      9.946394
  H       5.443815     41.283522     10.146986
  H       5.789150     40.991076     12.620812
  H       7.734501     40.980153     10.671451
  H       9.164258     40.516068     12.586529
  H       7.719920     38.619378     10.285318
  H       9.768166     38.384206     10.792274
  H       7.602872     37.942845     13.212596
  H       4.446248     37.194657     11.578559
  H       5.297580     32.727098      9.990556
  H       6.722814     31.841727      9.642823
  H      10.191167     34.369052     11.063254
  H       8.790595     32.757127     10.216668
163
Coordinates from ORCA-job /data/Seafile/amp/al_surf/protonated_al_surf/frames/frame12/dry/amp_al_frame12_dry E -13417.888012447345
  Si      3.451853     33.773086      7.673355
  Si      3.506205     30.688353      7.828062
  O       2.034623     34.302666      8.246391
  O       2.218832     29.916989      8.465547
  O       3.576437     32.247097      8.291553
  O       3.479733     33.665636      6.030877
  O       3.479418     30.652597      6.187166
  Si      6.181229     26.067642      7.895793
  Si      8.850817     24.529407      7.907499
  O       4.832552     25.377065      8.486588
  O       7.497407     25.273122      8.430332
  O       8.851736     23.013043      8.503533
  O       6.215867     26.078495      6.249276
  O       8.798246     24.559111      6.263314
  Si      6.149762     29.131809      7.768245
  Si      6.139165     35.325911      7.450175
  Si      8.910477     33.770828      7.510387
  Si      8.904678     30.675047      7.653136
  O       4.880572     29.962817      8.357481
  O       4.784652     34.617379      8.073789
  O       7.427679     34.385194      7.823253
  O       7.507010     29.961229      8.121936
  O       6.230206     27.625969      8.380359
  O       8.842950     32.217890      8.173422
  O       5.901999     29.022043      6.150099
  O       5.926819     35.409626      5.828381
  O       9.143317     33.585013      5.903909
  O       9.035532     30.651847      6.026113
  Si      6.483597     38.360509      7.394996
  Si      9.018255     40.067160      7.765334
  O       5.133825     39.123643      7.490900
  O       7.756535     39.126612      8.151785
  O       6.424140     36.807733      8.017031
  O       8.784523     41.557622      8.400077
  O       7.112885     38.210891      5.859367
  O       9.184776     40.099479      6.126575
  Si     11.517510     26.039516      7.781669
  Si     14.179038     24.531243      7.867948
  O      10.169481     25.358630      8.397136
  O      12.872361     25.364240      8.376081
  O      13.954638     23.006934      8.398050
  O      11.446747     25.728877      6.167410
  O      14.215042     24.606292      6.223900
  Si     11.573340     29.218076      7.747068
  Al     11.657744     35.374013      7.759329
  Si     14.280532     33.756579      7.892577
  Si     14.216888     30.725150      7.822424
  O      10.184892     29.891109      8.298143
  O      10.089371     34.611620      8.172858
  O      13.051188     34.567686      8.506807
  O      12.901741     29.906523      8.386168
  O      11.518728     27.628903      8.087742
  O      14.383137     32.198333      8.469733
  O      11.597362     29.457657      6.123212
  O      11.931209     35.045008      6.043901
  O      14.088007     33.581511      6.265754
  O      13.983680     30.882525      6.204731
  Si     11.726962     38.642013      7.820070
  Si     14.440006     40.069020      7.887038
  O      10.396449     39.433986      8.383248
  O      13.080898     39.366313      8.436638
  O      11.662364     37.088197      8.146540
  O      14.636552     41.613847      8.397944
  O      11.828447     38.980406      6.202445
  O      14.442749     39.957890      6.244809
  Si     16.887325     26.002791      7.913341
  O      15.548077     25.216903      8.424161
  O      18.159942     25.163288      8.490697
  O      16.827496     26.011692      6.269264
  Si     16.931082     29.070091      7.818551
  Si     17.058599     35.309985      7.832737
  Si     19.692595     33.730798      7.869027
  Si     19.556625     30.646407      7.868069
  O      15.526838     29.805469      8.133032
  O      15.739608     34.458160      8.199373
  O      18.391480     34.545643      8.417957
  O      18.174648     29.948541      8.396184
  O      16.891593     27.551336      8.428888
  O      19.698481     32.180004      8.404170
  O      17.163117     28.855945      6.202571
  O      17.321304     35.380701      6.207539
  O      19.578786     33.649513      6.228921
  O      19.486278     30.702593      6.224450
  Si     17.020739     38.384083      7.847528
  O      15.780076     39.279224      8.409837
  O      18.485941     38.940926      8.316535
  O      16.965609     36.842104      8.389368
  O      16.888139     38.332203      6.207567
  O      20.742733     29.654664      8.389569
  O      21.119040     34.359464      8.360480
  H       4.074657     24.986772      8.036591
  H       1.410409     29.602015      8.036749
  H       1.410409     35.007985      8.036749
  H       4.074657     39.623228      8.036591
  H       8.948181     22.173255      8.038302
  H       8.948181     42.436745      8.038302
  H      14.277762     22.173204      8.038282
  H      14.277762     42.436796      8.038282
  H      18.960557     24.876228      8.036406
  H      18.960557     39.733772      8.036406
  H      21.624717     29.491420      8.036583
  H      21.624717     35.118580      8.036583
  H      13.280190     34.108288      5.983980
  H      11.160788     34.758144      5.548580
  H       8.998508     32.691704      5.570026
  H       9.877306     30.260565      5.732049
  H      12.394053     29.954093      5.848058
  H      14.010497     31.839372      5.959726
  H      13.576931     39.649485      5.914883
  H      10.995899     39.324909      5.843182
  H       8.519112     39.525085      5.703323
  H       6.698220     37.526243      5.326339
  H       5.186348     34.879188      5.509195
  H       3.377305     32.767717      5.692531
  H       4.193623     30.120917      5.805661
  H       6.069376     28.140188      5.789548
  H       6.968060     25.587411      5.887411
  H       9.627617     24.873437      5.869943
  H      12.292895     25.460795      5.783824
  H      15.012317     25.043537      5.888033
  H      16.982608     26.896971      5.899633
  H      17.810480     29.464295      5.818943
  H      19.498298     31.612432      5.886935
  H      18.872205     34.221092      5.882188
  H      17.103791     36.237822      5.815612
  H      16.104358     38.807857      5.887816
  P       2.894938     39.531220      9.978253
  O       2.887338     38.076700     10.228358
  O       3.186563     40.058521      8.573989
  O       1.502940     40.206049     10.389699
  O       3.883790     40.299361     10.991248
  C       5.253878     40.351051     10.646219
  C       6.103051     40.246030     11.889807
  O       5.951946     38.962308     12.525658
  C       7.575606     40.366265     11.569611
  O       8.271297     40.856625     12.690156
  C       7.974298     38.913075     11.308194
  O       9.336088     38.722286     11.584386
  C       7.053996     38.158060     12.278585
  N       6.572214     36.872130     11.753349
  C       5.268434     36.502952     11.491831
  N       5.160565     35.258533     11.101186
  C       6.441378     34.799379     11.077864
  C       6.973160     33.594303     10.622428
  N       6.265777     32.569072     10.163565
  N       8.329457     33.527470     10.679495
  C       9.121865     34.553152     11.103883
  N       8.678387     35.688274     11.531012
  C       7.339011     35.790179     11.480482
  H       0.978848     39.535401     10.836595
  H       5.515205     39.556773      9.940271
  H       5.466118     41.302504     10.147041
  H       5.795784     40.994828     12.622180
  H       7.753886     40.991444     10.688070
  H       9.167047     40.502410     12.611533
  H       7.733416     38.634869     10.282741
  H       9.778693     38.382257     10.800961
  H       7.598158     37.934442     13.203132
  H       4.445853     37.204096     11.555976
  H       5.291258     32.739160      9.961593
  H       6.713370     31.849055      9.616903
  H      10.186316     34.366500     11.043020
  H       8.783541     32.756342     10.200302
163
Coordinates from ORCA-job /data/Seafile/amp/al_surf/protonated_al_surf/frames/frame12/dry/amp_al_frame12_dry E -13417.888077604402
  Si      3.456011     33.775982      7.674091
  Si      3.505772     30.691238      7.829466
  O       2.038959     34.306965      8.248677
  O       2.214019     29.926590      8.467339
  O       3.580861     32.249611      8.292446
  O       3.482262     33.668052      6.031570
  O       3.477910     30.653228      6.188228
  Si      6.179750     26.069029      7.895420
  Si      8.848754     24.528968      7.907148
  O       4.828870     25.383293      8.487088
  O       7.495184     25.273133      8.429678
  O       8.849417     23.012763      8.503012
  O       6.214534     26.078072      6.248787
  O       8.796241     24.558971      6.262915
  Si      6.149144     29.133200      7.767697
  Si      6.144149     35.327818      7.444237
  Si      8.913534     33.766909      7.494895
  Si      8.905198     30.674317      7.648420
  O       4.879004     29.962840      8.357782
  O       4.789445     34.620131      8.072679
  O       7.428807     34.378462      7.806112
  O       7.506328     29.964344      8.120213
  O       6.232084     27.627932      8.379550
  O       8.848945     32.217735      8.166770
  O       5.900293     29.022223      6.149705
  O       5.923825     35.418644      5.823606
  O       9.147989     33.574702      5.889291
  O       9.032760     30.645042      6.020366
  Si      6.494580     38.361717      7.404258
  Si      9.028623     40.068617      7.773108
  O       5.140147     39.113751      7.497954
  O       7.762157     39.135334      8.165307
  O       6.438330     36.805648      8.018118
  O       8.813100     41.559119      8.416152
  O       7.132732     38.218466      5.871346
  O       9.186545     40.105673      6.133713
  Si     11.516296     26.037539      7.780751
  Si     14.178036     24.530447      7.869929
  O      10.167141     25.358555      8.396318
  O      12.870384     25.362478      8.376963
  O      13.955219     23.005889      8.400330
  O      11.446000     25.724305      6.167084
  O      14.214912     24.604287      6.225640
  Si     11.574023     29.216172      7.742335
  Al     11.661582     35.369088      7.741691
  Si     14.282664     33.752670      7.887003
  Si     14.218207     30.721955      7.819862
  O      10.184579     29.889409      8.291451
  O      10.091816     34.611512      8.154077
  O      13.050658     34.562142      8.496479
  O      12.900993     29.905556      8.382206
  O      11.519496     27.627367      8.085054
  O      14.383614     32.195446      8.465717
  O      11.599031     29.454427      6.118470
  O      11.937595     35.036467      6.027353
  O      14.096045     33.574942      6.259644
  O      13.986646     30.877190      6.201909
  Si     11.733916     38.637833      7.813481
  Si     14.442594     40.068881      7.887707
  O      10.405681     39.428126      8.386412
  O      13.086288     39.360013      8.435760
  O      11.672159     37.082042      8.129179
  O      14.634267     41.613933      8.400122
  O      11.833604     38.986914      6.197547
  O      14.448055     39.957980      6.245328
  Si     16.886708     26.000918      7.915240
  O      15.545276     25.219280      8.426303
  O      18.156304     25.154664      8.489385
  O      16.825386     26.011452      6.271050
  Si     16.932615     29.068268      7.821242
  Si     17.058400     35.309064      7.835343
  Si     19.692649     33.730466      7.872249
  Si     19.557255     30.646073      7.871308
  O      15.526817     29.801082      8.134100
  O      15.739596     34.456583      8.199681
  O      18.391336     34.544878      8.420708
  O      18.174996     29.948585      8.398910
  O      16.895627     27.549124      8.431002
  O      19.697925     32.179725      8.407668
  O      17.165755     28.854208      6.205437
  O      17.322368     35.379836      6.210326
  O      19.577409     33.648064      6.232221
  O      19.488049     30.702384      6.227303
  Si     17.021941     38.383294      7.848744
  O      15.782838     39.280230      8.411169
  O      18.487620     38.939846      8.316203
  O      16.964509     36.841749      8.391334
  O      16.889782     38.331845      6.208719
  O      20.743655     29.654584      8.391571
  O      21.119266     34.359992      8.361657
  H       4.074657     24.986772      8.036591
  H       1.410409     29.602015      8.036749
  H       1.410409     35.007985      8.036749
  H       4.074657     39.623228      8.036591
  H       8.948181     22.173255      8.038302
  H       8.948181     42.436745      8.038302
  H      14.277762     22.173204      8.038282
  H      14.277762     42.436796      8.038282
  H      18.960557     24.876228      8.036406
  H      18.960557     39.733772      8.036406
  H      21.624717     29.491420      8.036583
  H      21.624717     35.118580      8.036583
  H      13.290354     34.101421      5.973125
  H      11.167905     34.746522      5.532817
  H       9.003933     32.679369      5.560091
  H       9.873578     30.253565      5.724471
  H      12.398318     29.945931      5.842442
  H      14.010260     31.833839      5.955601
  H      13.583230     39.649043      5.913458
  H      11.001175     39.335716      5.842448
  H       8.520695     39.528198      5.716379
  H       6.717775     37.539528      5.331024
  H       5.183774     34.887181      5.504988
  H       3.375941     32.770318      5.693763
  H       4.192876     30.122414      5.807152
  H       6.067348     28.140836      5.788324
  H       6.966943     25.587270      5.887192
  H       9.625995     24.871989      5.869502
  H      12.292422     25.457014      5.783709
  H      15.011753     25.042166      5.889696
  H      16.980306     26.897107      5.902155
  H      17.812413     29.463336      5.821925
  H      19.500082     31.612110      5.889620
  H      18.870885     34.220088      5.885955
  H      17.103446     36.236229      5.817941
  H      16.105617     38.806412      5.888586
  P       2.905448     39.529634      9.965679
  O       2.897546     38.077230     10.221104
  O       3.200023     40.049570      8.559541
  O       1.509464     40.202037     10.365462
  O       3.886001     40.311193     10.974684
  C       5.258367     40.378698     10.640103
  C       6.097063     40.261589     11.891529
  O       5.940870     38.974601     12.520275
  C       7.574387     40.386527     11.595255
  O       8.249821     40.871749     12.730348
  C       7.980500     38.935318     11.331348
  O       9.338649     38.743702     11.626355
  C       7.047078     38.173151     12.282772
  N       6.573332     36.888299     11.746251
  C       5.269006     36.514825     11.492004
  N       5.161714     35.268643     11.108792
  C       6.443142     34.811837     11.079555
  C       6.974263     33.606851     10.626775
  N       6.265202     32.580143     10.171724
  N       8.330548     33.538893     10.682922
  C       9.123994     34.567496     11.100147
  N       8.680749     35.704894     11.521587
  C       7.341154     35.806610     11.476379
  H       0.985068     39.531545     10.812006
  H       5.530958     39.597706      9.923645
  H       5.466636     41.339221     10.157463
  H       5.779741     41.006521     12.623687
  H       7.767599     41.015001     10.719085
  H       9.146799     40.517915     12.666491
  H       7.755285     38.667578     10.300274
  H       9.789080     38.399995     10.849136
  H       7.579092     37.945233     13.213281
  H       4.445398     37.215437     11.556304
  H       5.291555     32.752367      9.966904
  H       6.710863     31.859806      9.624130
  H      10.188326     34.378682     11.038446
  H       8.784417     32.765991     10.207642
163
Coordinates from ORCA-job /data/Seafile/amp/al_surf/protonated_al_surf/frames/frame12/dry/amp_al_frame12_dry E -13417.888218223343
  Si      3.457757     33.778578      7.676931
  Si      3.505553     30.693284      7.831033
  O       2.041991     34.311231      8.254387
  O       2.212149     29.930599      8.467683
  O       3.581862     32.251579      8.294982
  O       3.483705     33.671774      6.034548
  O       3.478414     30.656974      6.189583
  Si      6.178843     26.069683      7.896553
  Si      8.847661     24.529011      7.908649
  O       4.826890     25.386070      8.487980
  O       7.494080     25.273705      8.431148
  O       8.846274     23.012452      8.502883
  O       6.214104     26.079074      6.250016
  O       8.795721     24.560851      6.264428
  Si      6.149093     29.133756      7.770081
  Si      6.147080     35.329219      7.448418
  Si      8.915120     33.766528      7.503435
  Si      8.905638     30.675360      7.656495
  O       4.877807     29.963288      8.359442
  O       4.791122     34.621896      8.076546
  O       7.429534     34.378662      7.811953
  O       7.505443     29.965597      8.125255
  O       6.232024     27.628772      8.381252
  O       8.849628     32.218359      8.176074
  O       5.901824     29.024270      6.151937
  O       5.929475     35.417334      5.827250
  O       9.150052     33.573561      5.898067
  O       9.032366     30.647958      6.028062
  Si      6.495671     38.365333      7.407982
  Si      9.031742     40.069598      7.778128
  O       5.142282     39.118696      7.504031
  O       7.762645     39.139173      8.171162
  O       6.437273     36.808802      8.020014
  O       8.821619     41.560605      8.422783
  O       7.134644     38.223354      5.875673
  O       9.188313     40.104410      6.138592
  Si     11.515729     26.037455      7.785332
  Si     14.177480     24.530311      7.872721
  O      10.166055     25.357688      8.399195
  O      12.869648     25.361512      8.380964
  O      13.955616     23.005358      8.402122
  O      11.445495     25.726722      6.171325
  O      14.213765     24.604799      6.228444
  Si     11.573912     29.215678      7.750179
  Al     11.662661     35.368377      7.748081
  Si     14.282556     33.751299      7.894359
  Si     14.218649     30.720624      7.827217
  O      10.183898     29.888995      8.298562
  O      10.094163     34.611048      8.161654
  O      13.050923     34.561123      8.503848
  O      12.900741     29.905239      8.389401
  O      11.519378     27.626807      8.092355
  O      14.383440     32.194358      8.472454
  O      11.598208     29.453470      6.126309
  O      11.937945     35.036995      6.033526
  O      14.095787     33.572590      6.266998
  O      13.989022     30.874904      6.209082
  Si     11.735248     38.635996      7.817744
  Si     14.442677     40.068822      7.889491
  O      10.408615     39.429278      8.392653
  O      13.087671     39.358454      8.439076
  O      11.674092     37.081213      8.136975
  O      14.632888     41.613850      8.401082
  O      11.834144     38.981970      6.200938
  O      14.447930     39.956467      6.247114
  Si     16.886392     26.000258      7.917406
  O      15.544011     25.220710      8.429028
  O      18.154643     25.150643      8.488957
  O      16.823567     26.012413      6.273181
  Si     16.932974     29.067941      7.826538
  Si     17.057176     35.308834      7.839409
  Si     19.692145     33.730677      7.874528
  Si     19.557622     30.646160      7.874742
  O      15.526917     29.799236      8.141582
  O      15.739168     34.456332      8.206579
  O      18.390792     34.545015      8.423327
  O      18.175699     29.948597      8.403322
  O      16.897939     27.548019      8.434427
  O      19.696886     32.180222      8.410950
  O      17.163805     28.855636      6.210218
  O      17.318679     35.378040      6.213891
  O      19.576136     33.647272      6.234560
  O      19.487919     30.701727      6.230646
  Si     17.021841     38.383624      7.850641
  O      15.782792     39.280473      8.413732
  O      18.487317     38.940581      8.317676
  O      16.963744     36.842289      8.394119
  O      16.889845     38.332481      6.210751
  O      20.744988     29.655941      8.394343
  O      21.118441     34.360993      8.362880
  H       4.074657     24.986772      8.036591
  H       1.410409     29.602015      8.036749
  H       1.410409     35.007985      8.036749
  H       4.074657     39.623228      8.036591
  H       8.948181     22.173255      8.038302
  H       8.948181     42.436745      8.038302
  H      14.277762     22.173204      8.038282
  H      14.277762     42.436796      8.038282
  H      18.960557     24.876228      8.036406
  H      18.960557     39.733772      8.036406
  H      21.624717     29.491420      8.036583
  H      21.624717     35.118580      8.036583
  H      13.290497     34.098030      5.979430
  H      11.168547     34.744380      5.540320
  H       9.003528     32.678579      5.568964
  H       9.871669     30.256092      5.729780
  H      12.397587     29.943828      5.849224
  H      14.021042     31.830656      5.960788
  H      13.582765     39.648422      5.915120
  H      11.002382     39.332778      5.846018
  H       8.515520     39.533037      5.723810
  H       6.728865     37.536592      5.338590
  H       5.188471     34.887433      5.508413
  H       3.379566     32.773917      5.696428
  H       4.193388     30.126346      5.808282
  H       6.069033     28.143579      5.789046
  H       6.966974     25.588915      5.888440
  H       9.625569     24.874283      5.871586
  H      12.291767     25.460154      5.787176
  H      15.009785     25.044182      5.892464
  H      16.977813     26.898530      5.905152
  H      17.809871     29.465026      5.826145
  H      19.497343     31.611408      5.892631
  H      18.868342     34.218058      5.888629
  H      17.099464     36.234072      5.820749
  H      16.105043     38.806399      5.890734
  P       2.893423     39.552864      9.967766
  O       2.885292     38.103808     10.242725
  O       3.182494     40.052281      8.553130
  O       1.499316     40.232110     10.362438
  O       3.877473     40.346029     10.962851
  C       5.250889     40.390363     10.630605
  C       6.085850     40.272474     11.883156
  O       5.926824     38.985650     12.510556
  C       7.563205     40.398097     11.588509
  O       8.237397     40.882367     12.724948
  C       7.967563     38.947158     11.323986
  O       9.323787     38.751669     11.622399
  C       7.032708     38.184573     12.272903
  N       6.562910     36.899463     11.734158
  C       5.259970     36.519977     11.479662
  N       5.158734     35.272884     11.097149
  C       6.442590     34.821108     11.070791
  C       6.980731     33.618253     10.618465
  N       6.277404     32.588622     10.162502
  N       8.337382     33.557443     10.675659
  C       9.125026     34.589356     11.095871
  N       8.675299     35.724401     11.516134
  C       7.335359     35.820436     11.467575
  H       0.979457     39.571818     10.829130
  H       5.513527     39.598885      9.922003
  H       5.472880     41.343344     10.139591
  H       5.767339     41.017240     12.615239
  H       7.758118     41.026790     10.712792
  H       9.135139     40.530051     12.660238
  H       7.744031     38.682125     10.291559
  H       9.774242     38.407183     10.845753
  H       7.563663     37.956707     13.204241
  H       4.434078     37.217336     11.540851
  H       5.303209     32.756593      9.956215
  H       6.726668     31.872903      9.611299
  H      10.190271     34.404778     11.039207
  H       8.796591     32.786971     10.200727
163
Coordinates from ORCA-job /data/Seafile/amp/al_surf/protonated_al_surf/frames/frame12/dry/amp_al_frame12_dry E -13417.888298155554
  Si      3.459582     33.781558      7.677670
  Si      3.504700     30.696077      7.831799
  O       2.046748     34.317169      8.258831
  O       2.208291     29.938464      8.468839
  O       3.583814     32.254361      8.294868
  O       3.481599     33.675286      6.035099
  O       3.476771     30.657931      6.190372
  Si      6.177424     26.071626      7.897033
  Si      8.845477     24.529278      7.909320
  O       4.823524     25.391872      8.488480
  O       7.491878     25.274167      8.431530
  O       8.842093     23.012304      8.502575
  O       6.212496     26.080208      6.250526
  O       8.794236     24.562027      6.265111
  Si      6.147856     29.135643      7.771003
  Si      6.150150     35.329460      7.445024
  Si      8.917833     33.763897      7.499836
  Si      8.906179     30.674240      7.657714
  O       4.876151     29.964363      8.360231
  O       4.794744     34.622911      8.075820
  O       7.431269     34.375482      7.803533
  O       7.504740     29.966914      8.126357
  O       6.232155     27.630624      8.381983
  O       8.852268     32.217528      8.175861
  O       5.900696     29.026851      6.152757
  O       5.928069     35.420608      5.824606
  O       9.155227     33.568062      5.894962
  O       9.033170     30.645405      6.029294
  Si      6.500430     38.365354      7.406514
  Si      9.040770     40.070928      7.779101
  O       5.146345     39.115773      7.513534
  O       7.770717     39.139250      8.163895
  O       6.447353     36.807478      8.016390
  O       8.840135     41.561066      8.430443
  O       7.132432     38.226065      5.871447
  O       9.200505     40.114980      6.140129
  Si     11.514330     26.036261      7.787403
  Si     14.176365     24.530007      7.874215
  O      10.164045     25.357283      8.400745
  O      12.867775     25.359569      8.383094
  O      13.956923     23.005030      8.404320
  O      11.443954     25.726147      6.173304
  O      14.211811     24.604132      6.229883
  Si     11.574173     29.214173      7.752319
  Al     11.664909     35.365490      7.745519
  Si     14.284059     33.748994      7.894306
  Si     14.219747     30.718106      7.828009
  O      10.183770     29.887101      8.300344
  O      10.096076     34.609940      8.157679
  O      13.051689     34.557906      8.503634
  O      12.901056     29.904271      8.390991
  O      11.519687     27.625447      8.094996
  O      14.385887     32.192081      8.472477
  O      11.597959     29.451620      6.128562
  O      11.941108     35.034058      6.031128
  O      14.098261     33.570139      6.266869
  O      13.990561     30.871269      6.209830
  Si     11.740715     38.633219      7.817067
  Si     14.445222     40.069274      7.889688
  O      10.413909     39.424077      8.393352
  O      13.091835     39.356426      8.439556
  O      11.680425     37.078105      8.134331
  O      14.632331     41.614095      8.402304
  O      11.839168     38.979619      6.200179
  O      14.451332     39.958619      6.247184
  Si     16.885652     25.998653      7.916894
  O      15.541974     25.222566      8.429863
  O      18.150925     25.143562      8.486730
  O      16.821824     26.011315      6.272621
  Si     16.934086     29.066346      7.826590
  Si     17.057268     35.308670      7.838577
  Si     19.692227     33.730656      7.873528
  Si     19.557979     30.646248      7.874718
  O      15.527152     29.795584      8.142712
  O      15.739737     34.455822      8.206914
  O      18.391069     34.545323      8.422238
  O      18.176104     29.948248      8.402916
  O      16.901565     27.546315      8.434251
  O      19.695899     32.180508      8.410617
  O      17.163812     28.854730      6.209930
  O      17.317995     35.377567      6.212794
  O      19.576894     33.646682      6.233475
  O      19.489154     30.700898      6.230530
  Si     17.023232     38.383746      7.850206
  O      15.785380     39.281395      8.414001
  O      18.488393     38.940199      8.317841
  O      16.963995     36.842226      8.393065
  O      16.891424     38.333299      6.210380
  O      20.745929     29.657795      8.395884
  O      21.118318     34.360797      8.362381
  H       4.074657     24.986772      8.036591
  H       1.410409     29.602015      8.036749
  H       1.410409     35.007985      8.036749
  H       4.074657     39.623228      8.036591
  H       8.948181     22.173255      8.038302
  H       8.948181     42.436745      8.038302
  H      14.277762     22.173204      8.038282
  H      14.277762     42.436796      8.038282
  H      18.960557     24.876228      8.036406
  H      18.960557     39.733772      8.036406
  H      21.624717     29.491420      8.036583
  H      21.624717     35.118580      8.036583
  H      13.294453     34.097595      5.977970
  H      11.171829     34.739782      5.538528
  H       9.008729     32.672327      5.567607
  H       9.873221     30.254552      5.731758
  H      12.395719     29.944892      5.851600
  H      14.026478     31.826716      5.960527
  H      13.585570     39.653135      5.914223
  H      11.008533     39.332884      5.845087
  H       8.532594     39.540500      5.720903
  H       6.723221     37.541297      5.334246
  H       5.185049     34.892969      5.507007
  H       3.378601     32.777402      5.696870
  H       4.193041     30.128890      5.809272
  H       6.068574     28.146686      5.788974
  H       6.965992     25.590812      5.889165
  H       9.624131     24.876050      5.872714
  H      12.290087     25.459282      5.788911
  H      15.007833     25.043368      5.893486
  H      16.976212     26.897446      5.904619
  H      17.810193     29.463590      5.825481
  H      19.497899     31.610520      5.892118
  H      18.869275     34.217482      5.887057
  H      17.100175     36.233911      5.819398
  H      16.108128     38.810068      5.890523
  P       2.901592     39.574432      9.979459
  O       2.897967     38.128844     10.273769
  O       3.181994     40.055119      8.556239
  O       1.508239     40.256107     10.372576
  O       3.888814     40.382043     10.959157
  C       5.262714     40.413331     10.627807
  C       6.095160     40.291364     11.880816
  O       5.932063     39.004011     12.504619
  C       7.573012     40.416874     11.589105
  O       8.243781     40.906381     12.725604
  C       7.979758     38.965503     11.330213
  O       9.333784     38.773044     11.640255
  C       7.039160     38.203355     12.273768
  N       6.572357     36.917449     11.733208
  C       5.268908     36.533737     11.485505
  N       5.169526     35.286561     11.102943
  C       6.454342     34.837284     11.074289
  C       6.993979     33.634195     10.622655
  N       6.292311     32.600399     10.172885
  N       8.350776     33.577545     10.673798
  C       9.137522     34.612228     11.088182
  N       8.686835     35.747027     11.507885
  C       7.346463     35.839820     11.464764
  H       0.992666     39.602347     10.852990
  H       5.519837     39.620086      9.919071
  H       5.492514     41.364521     10.136547
  H       5.776004     41.034830     12.614049
  H       7.769822     41.042712     10.711781
  H       9.142635     40.556348     12.663747
  H       7.764208     38.698676     10.295950
  H       9.789471     38.423378     10.869357
  H       7.565030     37.976362     13.208400
  H       4.441974     37.230153     11.547580
  H       5.316506     32.765081      9.971205
  H       6.742100     31.889585      9.615271
  H      10.202688     34.429812     11.027719
  H       8.810039     32.805504     10.200949
163
Coordinates from ORCA-job /data/Seafile/amp/al_surf/protonated_al_surf/frames/frame12/dry/amp_al_frame12_dry E -13417.888409099825
  Si      3.463216     33.787758      7.678693
  Si      3.503605     30.701780      7.832154
  O       2.053992     34.326234      8.266053
  O       2.202056     29.952560      8.469435
  O       3.588030     32.259901      8.294539
  O       3.480149     33.682346      6.035922
  O       3.474358     30.661935      6.190587
  Si      6.174877     26.075036      7.896886
  Si      8.841406     24.529600      7.909525
  O       4.817634     25.402250      8.488871
  O       7.487983     25.275157      8.431471
  O       8.834969     23.012127      8.501415
  O       6.209193     26.081541      6.250458
  O       8.790831     24.563559      6.265240
  Si      6.146210     29.139370      7.771279
  Si      6.156035     35.331413      7.441224
  Si      8.922283     33.760652      7.494372
  Si      8.906903     30.673669      7.659982
  O       4.873095     29.966019      8.360158
  O       4.799917     34.627764      8.075136
  O       7.434027     34.371125      7.791956
  O       7.502941     29.970794      8.127830
  O       6.232879     27.634139      8.381581
  O       8.857030     32.217348      8.176987
  O       5.899831     29.032017      6.152817
  O       5.929222     35.429098      5.821816
  O       9.162596     33.560018      5.890306
  O       9.033023     30.643600      6.031434
  Si      6.509972     38.367759      7.411731
  Si      9.052652     40.071640      7.786019
  O       5.153731     39.113436      7.526841
  O       7.779186     39.143771      8.169394
  O       6.461621     36.806869      8.014190
  O       8.871104     41.563295      8.443137
  O       7.141281     38.236750      5.875569
  O       9.208665     40.120231      6.147284
  Si     11.511793     26.034335      7.789622
  Si     14.174269     24.529218      7.875700
  O      10.160419     25.356447      8.401781
  O      12.864549     25.356498      8.385293
  O      13.958110     23.004309      8.407089
  O      11.441321     25.725552      6.175306
  O      14.208718     24.602008      6.231242
  Si     11.574363     29.211570      7.754606
  Al     11.668820     35.361550      7.739271
  Si     14.286575     33.745160      7.893964
  Si     14.221405     30.713735      7.828529
  O      10.183415     29.884096      8.301965
  O      10.099296     34.609543      8.150248
  O      13.052476     34.552595      8.501481
  O      12.901380     29.902284      8.392267
  O      11.519719     27.623153      8.098634
  O      14.389143     32.188115      8.471724
  O      11.597652     29.448026      6.130990
  O      11.946433     35.030396      6.025395
  O      14.104229     33.566195      6.266040
  O      13.993013     30.865176      6.210264
  Si     11.748217     38.629080      7.817081
  Si     14.449057     40.069464      7.890628
  O      10.421716     39.415893      8.398290
  O      13.098270     39.352494      8.441202
  O      11.690095     37.073093      8.129296
  O      14.631427     41.614334      8.403853
  O      11.844332     38.979610      6.200814
  O      14.456434     39.960300      6.247971
  Si     16.884320     25.995765      7.915088
  O      15.538329     25.225551      8.430128
  O      18.144666     25.131901      8.482379
  O      16.819004     26.008983      6.270651
  Si     16.935745     29.063778      7.825638
  Si     17.057255     35.308068      7.838054
  Si     19.692476     33.730354      7.872196
  Si     19.558577     30.646090      7.874123
  O      15.527459     29.789536      8.144178
  O      15.740527     34.454776      8.208511
  O      18.391438     34.545166      8.420735
  O      18.176416     29.947847      8.401375
  O      16.907381     27.543364      8.432477
  O      19.694721     32.180502      8.409925
  O      17.163579     28.853752      6.208356
  O      17.316472     35.376334      6.211781
  O      19.577946     33.645718      6.231939
  O      19.491806     30.699741      6.229763
  Si     17.025351     38.383388      7.849524
  O      15.790057     39.283159      8.414844
  O      18.491158     38.938056      8.316375
  O      16.964053     36.841800      8.391920
  O      16.892705     38.333311      6.209914
  O      20.746796     29.659355      8.397425
  O      21.118005     34.360659      8.361709
  H       4.074657     24.986772      8.036591
  H       1.410409     29.602015      8.036749
  H       1.410409     35.007985      8.036749
  H       4.074657     39.623228      8.036591
  H       8.948181     22.173255      8.038302
  H       8.948181     42.436745      8.038302
  H      14.277762     22.173204      8.038282
  H      14.277762     42.436796      8.038282
  H      18.960557     24.876228      8.036406
  H      18.960557     39.733772      8.036406
  H      21.624717     29.491420      8.036583
  H      21.624717     35.118580      8.036583
  H      13.302292     34.094946      5.974557
  H      11.177698     34.731967      5.534264
  H       9.013725     32.663673      5.565309
  H       9.872577     30.251884      5.733767
  H      12.396074     29.939727      5.853185
  H      14.030522     31.820119      5.959918
  H      13.591177     39.654731      5.913884
  H      11.014993     39.337775      5.847597
  H       8.540981     39.544345      5.728377
  H       6.734360     37.552981      5.335282
  H       5.183650     34.905055      5.504290
  H       3.378232     32.784213      5.697886
  H       4.192107     30.134905      5.809458
  H       6.067869     28.152563      5.787648
  H       6.963542     25.592898      5.889728
  H       9.620865     24.877993      5.873372
  H      12.287085     25.458084      5.790500
  H      15.004701     25.041093      5.894345
  H      16.973028     26.895208      5.902768
  H      17.810770     29.461476      5.823595
  H      19.500251     31.609350      5.891179
  H      18.870249     34.216236      5.885312
  H      17.100065     36.232741      5.817832
  H      16.110067     38.811990      5.890960
  P       2.903118     39.587739      9.978870
  O       2.911182     38.146419     10.294973
  O       3.175607     40.048151      8.547125
  O       1.505281     40.264011     10.364916
  O       3.885465     40.417916     10.944128
  C       5.261838     40.442615     10.620331
  C       6.087000     40.314146     11.877425
  O       5.918753     39.025115     12.494970
  C       7.566965     40.441213     11.596834
  O       8.226496     40.937238     12.737352
  C       7.980344     38.990130     11.345439
  O       9.331391     38.803353     11.673713
  C       7.029665     38.226316     12.276928
  N       6.569941     36.940195     11.729729
  C       5.267066     36.550108     11.487932
  N       5.171715     35.302647     11.105846
  C       6.458316     34.859205     11.072295
  C       7.001055     33.657290     10.620007
  N       6.301940     32.618607     10.176693
  N       8.357942     33.607127     10.663882
  C       9.142155     34.645759     11.072369
  N       8.688801     35.779183     11.492681
  C       7.347805     35.866150     11.456823
  H       0.997224     39.616039     10.860847
  H       5.519325     39.653350      9.907185
  H       5.497835     41.396037     10.135965
  H       5.762768     41.054810     12.611306
  H       7.770028     41.064177     10.719023
  H       9.127994     40.593148     12.683207
  H       7.778878     38.721998     10.308297
  H       9.795778     38.447606     10.910997
  H       7.544784     37.999289     13.217623
  H       4.437949     37.244424     11.550647
  H       5.324056     32.778802      9.981583
  H       6.751983     31.914452      9.610851
  H      10.207597     34.467688     11.006830
  H       8.818130     32.833960     10.193326
163
Coordinates from ORCA-job /data/Seafile/amp/al_surf/protonated_al_surf/frames/frame12/dry/amp_al_frame12_dry E -13417.888500021028
  Si      3.467556     33.796583      7.680562
  Si      3.501967     30.709836      7.832033
  O       2.063637     34.338948      8.276690
  O       2.193911     29.971194      8.469003
  O       3.593473     32.267435      8.293987
  O       3.476886     33.691928      6.037615
  O       3.471450     30.668560      6.190296
  Si      6.171282     26.079998      7.895918
  Si      8.835443     24.530035      7.908758
  O       4.809411     25.416866      8.488579
  O       7.482421     25.276540      8.430566
  O       8.824469     23.011945      8.499073
  O       6.204495     26.083359      6.249535
  O       8.785798     24.565236      6.264253
  Si      6.143649     29.144750      7.770575
  Si      6.162681     35.335405      7.436520
  Si      8.927739     33.758771      7.486248
  Si      8.907106     30.674322      7.660602
  O       4.868620     29.968077      8.359494
  O       4.806135     34.635545      8.073643
  O       7.438192     34.369015      7.776852
  O       7.500224     29.976433      8.127688
  O       6.234073     27.639135      8.379861
  O       8.861364     32.218621      8.176207
  O       5.897844     29.039120      6.151912
  O       5.930706     35.441212      5.818207
  O       9.171878     33.553171      5.883240
  O       9.033005     30.642520      6.032242
  Si      6.521007     38.372485      7.419915
  Si      9.066344     40.071936      7.793606
  O       5.163370     39.114056      7.544886
  O       7.788112     39.150845      8.179532
  O       6.477481     36.807869      8.011246
  O       8.909231     41.566326      8.454874
  O       7.149930     38.252473      5.881528
  O       9.215088     40.122652      6.155170
  Si     11.507738     26.032677      7.791090
  Si     14.170798     24.528240      7.876243
  O      10.155265     25.355371      8.401569
  O      12.859704     25.353057      8.386268
  O      13.958539     23.003419      8.409375
  O      11.437226     25.725992      6.176308
  O      14.204144     24.599667      6.231590
  Si     11.573364     29.209228      7.756500
  Al     11.674414     35.357622      7.731862
  Si     14.289955     33.740121      7.894132
  Si     14.223067     30.708087      7.829530
  O      10.181724     29.881414      8.303103
  O      10.103312     34.610066      8.140435
  O      13.053550     34.545709      8.499132
  O      12.900944     29.899766      8.393465
  O      11.518237     27.621032      8.102216
  O      14.393460     32.182804      8.471402
  O      11.596906     29.445101      6.133097
  O      11.954530     35.028118      6.018733
  O      14.111831     33.560387      6.265649
  O      13.995716     30.858107      6.211092
  Si     11.757602     38.624370      7.817187
  Si     14.454670     40.069668      7.891045
  O      10.430745     39.405408      8.402873
  O      13.106885     39.348124      8.442463
  O      11.701322     37.067415      8.124649
  O      14.631673     41.614771      8.404647
  O      11.851440     38.980203      6.201942
  O      14.463151     39.961673      6.248247
  Si     16.882178     25.991747      7.911881
  O      15.533327     25.228580      8.429132
  O      18.136291     25.116562      8.475573
  O      16.814706     26.006492      6.267193
  Si     16.937334     29.060287      7.824343
  Si     17.057656     35.306649      7.837461
  Si     19.693215     33.729424      7.870776
  Si     19.559132     30.645359      7.873182
  O      15.527398     29.781745      8.146373
  O      15.741828     34.453031      8.211063
  O      18.392285     34.544278      8.419004
  O      18.176502     29.946808      8.399119
  O      16.914320     27.539143      8.429568
  O      19.694252     32.179781      8.408908
  O      17.162484     28.852686      6.206173
  O      17.315107     35.373772      6.210582
  O      19.579208     33.643953      6.230251
  O      19.494146     30.698212      6.228668
  Si     17.028667     38.382195      7.847723
  O      15.797334     39.285797      8.414730
  O      18.495984     38.933981      8.312954
  O      16.964771     36.840623      8.389941
  O      16.893801     38.331374      6.208409
  O      20.747615     29.660298      8.398908
  O      21.118021     34.360304      8.360898
  H       4.074657     24.986772      8.036591
  H       1.410409     29.602015      8.036749
  H       1.410409     35.007985      8.036749
  H       4.074657     39.623228      8.036591
  H       8.948181     22.173255      8.038302
  H       8.948181     42.436745      8.038302
  H      14.277762     22.173204      8.038282
  H      14.277762     42.436796      8.038282
  H      18.960557     24.876228      8.036406
  H      18.960557     39.733772      8.036406
  H      21.624717     29.491420      8.036583
  H      21.624717     35.118580      8.036583
  H      13.310455     34.087985      5.971808
  H      11.187031     34.724472      5.528810
  H       9.019520     32.656730      5.559916
  H       9.871816     30.248642      5.735141
  H      12.397036     29.933662      5.854783
  H      14.035506     31.812387      5.959779
  H      13.598802     39.654367      5.913641
  H      11.022815     39.341393      5.850389
  H       8.545204     39.546938      5.738629
  H       6.747738     37.568398      5.338198
  H       5.183229     34.920669      5.499853
  H       3.375510     32.793308      5.700563
  H       4.190610     30.143776      5.808898
  H       6.065856     28.160355      5.785462
  H       6.960117     25.595513      5.890247
  H       9.615953     24.880711      5.873463
  H      12.282661     25.458012      5.791223
  H      15.000419     25.038259      5.894631
  H      16.967166     26.893291      5.900224
  H      17.810038     29.459688      5.821185
  H      19.502694     31.607985      5.890517
  H      18.870290     34.213144      5.884104
  H      17.099038     36.229772      5.815840
  H      16.111550     38.812059      5.891262
  P       2.910139     39.608169      9.977347
  O       2.932773     38.172185     10.318353
  O       3.174994     40.046601      8.537064
  O       1.506526     40.277369     10.353791
  O       3.885189     40.464212     10.927568
  C       5.264203     40.483592     10.612017
  C       6.081191     40.344835     11.873425
  O       5.905150     39.052662     12.481826
  C       7.564085     40.471682     11.606680
  O       8.210128     40.973724     12.752317
  C       7.983919     39.020645     11.364336
  O       9.330637     38.837816     11.715002
  C       7.020103     38.255350     12.280251
  N       6.569485     36.969080     11.724736
  C       5.267955     36.572153     11.485192
  N       5.178394     35.323720     11.104630
  C       6.467159     34.886888     11.069956
  C       7.014588     33.685193     10.622412
  N       6.319746     32.640332     10.185031
  N       8.371499     33.640468     10.666802
  C       9.151789     34.684019     11.069606
  N       8.693962     35.817385     11.485981
  C       7.352337     35.898247     11.452015
  H       1.008096     39.637407     10.869348
  H       5.522102     39.700411      9.892161
  H       5.506613     41.440951     10.138229
  H       5.752347     41.081710     12.609036
  H       7.775918     41.091584     10.728760
  H       9.114150     40.635275     12.707689
  H       7.799702     38.750671     10.324327
  H       9.805312     38.475331     10.962183
  H       7.520860     38.027764     13.228558
  H       4.436603     37.264259     11.544898
  H       5.340940     32.796451      9.991121
  H       6.772704     31.943010      9.612843
  H      10.218050     34.510384     11.002775
  H       8.834297     32.863691     10.204651
163
Coordinates from ORCA-job /data/Seafile/amp/al_surf/protonated_al_surf/frames/frame12/dry/amp_al_frame12_dry E -13417.886643040913
  Si      3.466838     33.796324      7.682775
  Si      3.503330     30.710112      7.829107
  O       2.068510     34.342602      8.288659
  O       2.195360     29.972675      8.466124
  O       3.595442     32.266120      8.292924
  O       3.467004     33.695021      6.039918
  O       3.470778     30.670891      6.187260
  Si      6.172008     26.080579      7.891795
  Si      8.834923     24.527858      7.904738
  O       4.808523     25.422687      8.487205
  O       7.482786     25.276526      8.426126
  O       8.818676     23.012232      8.496873
  O       6.204143     26.081136      6.245553
  O       8.785040     24.561739      6.260134
  Si      6.144666     29.145431      7.762719
  Si      6.162616     35.333424      7.433732
  Si      8.928879     33.760742      7.488815
  Si      8.907984     30.677128      7.652761
  O       4.870393     29.967683      8.354037
  O       4.807171     34.633643      8.071902
  O       7.438974     34.372854      7.775993
  O       7.501640     29.976451      8.117929
  O       6.236813     27.640315      8.373501
  O       8.858490     32.218909      8.173825
  O       5.895027     29.038806      6.144752
  O       5.934426     35.432596      5.813906
  O       9.176735     33.560972      5.884719
  O       9.036464     30.649049      6.024648
  Si      6.517179     38.374356      7.410698
  Si      9.070015     40.068400      7.778306
  O       5.175817     39.132082      7.546556
  O       7.790932     39.147592      8.160901
  O       6.470946     36.809349      8.001623
  O       8.911344     41.562441      8.441301
  O       7.132333     38.254288      5.868789
  O       9.225264     40.119059      6.140809
  Si     11.506326     26.032679      7.786130
  Si     14.169081     24.528714      7.873027
  O      10.154540     25.353657      8.396022
  O      12.857939     25.353206      8.381410
  O      13.956789     23.004677      8.407641
  O      11.435211     25.726366      6.170769
  O      14.202934     24.599136      6.228250
  Si     11.573686     29.209237      7.752518
  Al     11.675622     35.357692      7.740110
  Si     14.290120     33.738510      7.898756
  Si     14.223137     30.706915      7.829288
  O      10.182030     29.882699      8.296026
  O      10.104383     34.607629      8.146383
  O      13.055359     34.544416      8.506014
  O      12.900477     29.898917      8.390532
  O      11.516400     27.620780      8.098193
  O      14.394121     32.180537      8.472994
  O      11.597472     29.446514      6.129727
  O      11.957411     35.034122      6.026726
  O      14.109840     33.558740      6.270513
  O      13.996725     30.858221      6.210567
  Si     11.760660     38.621723      7.815843
  Si     14.455744     40.068304      7.890978
  O      10.431865     39.403345      8.391834
  O      13.108091     39.347308      8.441865
  O      11.698865     37.067324      8.134890
  O      14.633021     41.613220      8.403635
  O      11.862758     38.968218      6.199716
  O      14.466668     39.960042      6.248172
  Si     16.880557     25.990982      7.909276
  O      15.530937     25.229664      8.425996
  O      18.132085     25.112181      8.472445
  O      16.813168     26.005905      6.264327
  Si     16.936615     29.059564      7.823331
  Si     17.057300     35.305684      7.839196
  Si     19.692434     33.729175      7.871837
  Si     19.557543     30.646188      7.874435
  O      15.526411     29.779407      8.146351
  O      15.742039     34.451791      8.214862
  O      18.391887     34.543708      8.420083
  O      18.175111     29.946664      8.398483
  O      16.914824     27.537983      8.427070
  O      19.692573     32.180144      8.410287
  O      17.160968     28.852458      6.204361
  O      17.314439     35.371578      6.211727
  O      19.579066     33.642690      6.231080
  O      19.493590     30.698454      6.229675
  Si     17.028226     38.381233      7.848630
  O      15.797640     39.284869      8.415920
  O      18.495590     38.932153      8.314257
  O      16.964534     36.839895      8.390229
  O      16.893545     38.330520      6.209364
  O      20.746523     29.661686      8.401216
  O      21.117363     34.359568      8.361554
  H       4.074657     24.986772      8.036591
  H       1.410409     29.602015      8.036749
  H       1.410409     35.007985      8.036749
  H       4.074657     39.623228      8.036591
  H       8.948181     22.173255      8.038302
  H       8.948181     42.436745      8.038302
  H      14.277762     22.173204      8.038282
  H      14.277762     42.436796      8.038282
  H      18.960557     24.876228      8.036406
  H      18.960557     39.733772      8.036406
  H      21.624717     29.491420      8.036583
  H      21.624717     35.118580      8.036583
  H      13.310189     34.088019      5.977602
  H      11.189127     34.731574      5.535850
  H       9.024271     32.666446      5.555945
  H       9.877048     30.256557      5.727943
  H      12.397509     29.936913      5.852787
  H      14.045660     31.811690      5.958423
  H      13.601526     39.656331      5.911736
  H      11.036341     39.327926      5.841445
  H       8.544534     39.556977      5.722902
  H       6.739101     37.555515      5.334921
  H       5.185620     34.913017      5.493979
  H       3.369458     32.795165      5.701215
  H       4.188731     30.144713      5.803952
  H       6.062655     28.158991      5.778199
  H       6.962252     25.594187      5.887335
  H       9.615968     24.877845      5.869351
  H      12.281278     25.458397      5.785188
  H      14.999870     25.038699      5.891643
  H      16.966995     26.893356      5.897561
  H      17.807981     29.460754      5.818880
  H      19.501624     31.608916      5.891291
  H      18.870680     34.213327      5.884431
  H      17.096992     36.227848      5.815976
  H      16.112219     38.814554      5.892460
  P       2.838814     39.638698      9.958614
  O       2.851795     38.218215     10.358439
  O       3.140350     40.029435      8.499083
  O       1.404483     40.320228     10.271165
  O       3.815688     40.506268     10.909730
  C       5.212304     40.517511     10.599073
  C       6.037747     40.351358     11.859261
  O       5.844924     39.047542     12.462928
  C       7.531123     40.475109     11.586854
  O       8.194858     40.954390     12.735775
  C       7.927836     39.018143     11.334877
  O       9.276990     38.808921     11.678875
  C       6.957424     38.248201     12.254467
  N       6.497811     36.963449     11.706220
  C       5.191928     36.578463     11.475824
  N       5.089457     35.332481     11.100256
  C       6.373714     34.882334     11.060283
  C       6.904107     33.673030     10.621246
  N       6.195386     32.632023     10.206478
  N       8.259415     33.618665     10.652634
  C       9.051422     34.657194     11.041036
  N       8.608088     35.794090     11.455691
  C       7.269430     35.887083     11.429692
  H       0.893466     39.710634     10.822605
  H       5.462827     39.740796      9.876604
  H       5.474386     41.479930     10.123901
  H       5.718272     41.080777     12.601114
  H       7.751406     41.111467     10.710275
  H       9.099553     40.608018     12.683484
  H       7.729970     38.764470     10.297164
  H       9.760725     38.454668     10.927176
  H       7.463029     38.010931     13.199000
  H       4.366815     37.276053     11.538811
  H       5.213788     32.791360     10.022369
  H       6.624301     31.925183      9.634094
  H      10.112907     34.475909     10.970014
  H       8.708018     32.833581     10.195022
163
Coordinates from ORCA-job /data/Seafile/amp/al_surf/protonated_al_surf/frames/frame12/dry/amp_al_frame12_dry E -13417.886889415424
  Si      3.465864     33.800241      7.685462
  Si      3.501715     30.713523      7.833357
  O       2.067229     34.345731      8.290923
  O       2.190982     29.979432      8.467897
  O       3.595822     32.271061      8.296275
  O       3.464599     33.699997      6.042610
  O       3.473154     30.675573      6.191777
  Si      6.170426     26.082720      7.897448
  Si      8.832277     24.529506      7.908757
  O       4.804643     25.426204      8.489357
  O       7.480193     25.276464      8.432040
  O       8.815438     23.011433      8.497348
  O       6.203194     26.085431      6.251548
  O       8.783134     24.566696      6.264330
  Si      6.143465     29.147410      7.774291
  Si      6.163027     35.334671      7.440829
  Si      8.927830     33.760582      7.498999
  Si      8.905479     30.675683      7.670745
  O       4.866387     29.968685      8.361104
  O       4.806115     34.637931      8.076459
  O       7.438637     34.372590      7.785599
  O       7.497773     29.979477      8.133964
  O       6.234839     27.640707      8.382208
  O       8.855731     32.220525      8.187560
  O       5.898860     29.044340      6.155379
  O       5.935161     35.438861      5.822128
  O       9.173749     33.557286      5.896110
  O       9.033782     30.648570      6.042697
  Si      6.517011     38.373450      7.421458
  Si      9.065377     40.068720      7.789107
  O       5.173004     39.132306      7.562710
  O       7.789920     39.143052      8.174142
  O       6.471020     36.808070      8.010086
  O       8.912163     41.565195      8.446485
  O       7.131451     38.260808      5.879641
  O       9.214884     40.115324      6.149982
  Si     11.504832     26.033108      7.794279
  Si     14.167954     24.528692      7.875385
  O      10.153179     25.352706      8.402648
  O      12.856858     25.351858      8.387192
  O      13.956831     23.003908      8.408782
  O      11.433636     25.731574      6.178422
  O      14.199950     24.599690      6.230967
  Si     11.571562     29.208649      7.765695
  Al     11.673702     35.358837      7.744491
  Si     14.289657     33.739313      7.902015
  Si     14.222325     30.705979      7.835154
  O      10.181759     29.882415      8.312245
  O      10.103384     34.608999      8.154504
  O      13.053980     34.545381      8.508730
  O      12.901068     29.897974      8.400318
  O      11.514806     27.620293      8.110664
  O      14.394876     32.180771      8.476462
  O      11.593300     29.444618      6.141975
  O      11.952761     35.033141      6.030896
  O      14.110810     33.563388      6.273271
  O      13.994462     30.856664      6.216413
  Si     11.756219     38.624016      7.823335
  Si     14.455036     40.068445      7.892192
  O      10.427707     39.405237      8.401598
  O      13.106515     39.349261      8.444863
  O      11.697297     37.068979      8.138725
  O      14.633594     41.613651      8.402828
  O      11.850361     38.970794      6.206960
  O      14.461185     39.960770      6.249478
  Si     16.879890     25.990572      7.908264
  O      15.530424     25.229925      8.427451
  O      18.130827     25.109759      8.470751
  O      16.811865     26.006023      6.263735
  Si     16.936540     29.059810      7.822641
  Si     17.057062     35.305530      7.838422
  Si     19.692674     33.728907      7.869921
  Si     19.558351     30.645559      7.871884
  O      15.526402     29.778816      8.150012
  O      15.741673     34.452453      8.216731
  O      18.392412     34.544040      8.418796
  O      18.175440     29.946823      8.396847
  O      16.916696     27.537892      8.426294
  O      19.693647     32.179574      8.408275
  O      17.157825     28.855095      6.203522
  O      17.311490     35.371033      6.210960
  O      19.579699     33.644236      6.229271
  O      19.495198     30.698016      6.227803
  Si     17.028700     38.380893      7.847819
  O      15.798513     39.285929      8.416414
  O      18.498022     38.930031      8.311852
  O      16.964821     36.839458      8.389885
  O      16.891586     38.329842      6.208875
  O      20.746557     29.659968      8.399529
  O      21.117692     34.359197      8.360070
  H       4.074657     24.986772      8.036591
  H       1.410409     29.602015      8.036749
  H       1.410409     35.007985      8.036749
  H       4.074657     39.623228      8.036591
  H       8.948181     22.173255      8.038302
  H       8.948181     42.436745      8.038302
  H      14.277762     22.173204      8.038282
  H      14.277762     42.436796      8.038282
  H      18.960557     24.876228      8.036406
  H      18.960557     39.733772      8.036406
  H      21.624717     29.491420      8.036583
  H      21.624717     35.118580      8.036583
  H      13.317609     34.104833      5.980114
  H      11.183943     34.728499      5.542497
  H       9.015437     32.663052      5.569028
  H       9.875150     30.256486      5.747559
  H      12.391347     29.936086      5.862573
  H      14.036033     31.810704      5.965574
  H      13.594866     39.656386      5.916441
  H      11.020179     39.327941      5.852506
  H       8.544919     39.542867      5.732781
  H       6.734251     37.564338      5.343654
  H       5.185631     34.922083      5.501904
  H       3.369269     32.800750      5.703529
  H       4.192322     30.150222      5.810199
  H       6.068056     28.165628      5.787956
  H       6.960009     25.598132      5.892421
  H       9.613298     24.884199      5.873976
  H      12.278951     25.463486      5.791813
  H      14.996195     25.038586      5.892966
  H      16.963347     26.893101      5.896170
  H      17.806359     29.461456      5.817973
  H      19.504275     31.608301      5.889547
  H      18.870555     34.213260      5.882349
  H      17.094905     36.227592      5.815738
  H      16.109011     38.811635      5.892743
  P       2.863204     39.657049      9.963852
  O       2.862035     38.255410     10.357279
  O       3.146108     40.025881      8.523275
  O       1.469212     40.333104     10.278364
  O       3.846445     40.531934     10.899009
  C       5.230459     40.538460     10.598091
  C       6.051758     40.382375     11.854486
  O       5.862523     39.085833     12.461644
  C       7.535561     40.497109     11.576947
  O       8.196912     40.998582     12.710599
  C       7.939600     39.039708     11.341810
  O       9.286084     38.845864     11.685979
  C       6.974495     38.282145     12.264005
  N       6.516937     36.995587     11.718180
  C       5.214221     36.605134     11.483462
  N       5.118312     35.358830     11.100132
  C       6.404612     34.916451     11.059200
  C       6.942409     33.711550     10.612329
  N       6.239682     32.670567     10.187384
  N       8.298805     33.664166     10.643683
  C       9.084578     34.703485     11.039743
  N       8.635149     35.836423     11.462374
  C       7.294615     35.922359     11.436399
  H       0.971756     39.736883     10.820257
  H       5.470716     39.763370      9.877610
  H       5.493339     41.492945     10.133575
  H       5.737818     41.118933     12.589845
  H       7.743920     41.117512     10.697664
  H       9.099673     40.656180     12.658193
  H       7.745699     38.763007     10.310339
  H       9.766381     38.479868     10.937197
  H       7.475379     38.054940     13.210242
  H       4.385357     37.300398     11.547237
  H       5.257261     32.827285     10.008703
  H       6.676950     31.969052      9.616154
  H      10.148322     34.529037     10.966024
  H       8.752532     32.883863     10.183977
163
Coordinates from ORCA-job /data/Seafile/amp/al_surf/protonated_al_surf/frames/frame12/dry/amp_al_frame12_dry E -13417.879910816864
  Si      3.466439     33.808762      7.689622
  Si      3.499915     30.719651      7.843081
  O       2.064896     34.355645      8.289587
  O       2.186688     29.982781      8.471186
  O       3.594654     32.279945      8.306622
  O       3.470838     33.701678      6.047451
  O       3.478189     30.682268      6.201436
  Si      6.166217     26.085208      7.904871
  Si      8.828920     24.533296      7.917028
  O       4.799804     25.425570      8.491728
  O       7.475511     25.278120      8.441849
  O       8.813906     23.010491      8.498938
  O       6.203692     26.090619      6.258540
  O       8.782321     24.576664      6.272632
  Si      6.140357     29.149630      7.788199
  Si      6.162368     35.349461      7.437565
  Si      8.927420     33.764336      7.490000
  Si      8.902584     30.678331      7.682444
  O       4.861756     29.971753      8.373893
  O       4.806630     34.652391      8.076052
  O       7.439830     34.383651      7.780326
  O       7.495480     29.982319      8.148879
  O       6.230791     27.642750      8.393361
  O       8.854978     32.228781      8.187773
  O       5.900551     29.047547      6.167879
  O       5.932996     35.449136      5.819209
  O       9.170508     33.553124      5.888628
  O       9.029048     30.640874      6.053613
  Si      6.514081     38.389756      7.419927
  Si      9.067847     40.076178      7.785967
  O       5.158658     39.149310      7.553601
  O       7.787926     39.156624      8.180616
  O       6.468957     36.827084      8.007966
  O       8.914916     41.567827      8.449162
  O       7.130269     38.269160      5.878122
  O       9.213303     40.123960      6.148914
  Si     11.503162     26.034915      7.806582
  Si     14.166998     24.527485      7.881727
  O      10.151002     25.354199      8.414415
  O      12.855769     25.351499      8.397281
  O      13.956933     23.000453      8.410416
  O      11.432243     25.736573      6.190962
  O      14.196921     24.604628      6.237619
  Si     11.566363     29.210646      7.776029
  Al     11.676719     35.358920      7.725071
  Si     14.291700     33.738112      7.892573
  Si     14.221051     30.704572      7.839228
  O      10.177213     29.885819      8.326754
  O      10.107204     34.613472      8.140403
  O      13.053965     34.546060      8.493034
  O      12.898963     29.899209      8.408828
  O      11.511552     27.622969      8.124247
  O      14.394737     32.182429      8.474879
  O      11.589299     29.443054      6.151523
  O      11.954539     35.025317      6.012609
  O      14.117502     33.556294      6.263699
  O      13.986380     30.850759      6.221550
  Si     11.757921     38.625495      7.809031
  Si     14.458169     40.071015      7.886750
  O      10.431781     39.408104      8.396193
  O      13.108025     39.348882      8.434918
  O      11.698845     37.068153      8.119041
  O      14.633699     41.616236      8.400718
  O      11.850767     38.982370      6.193990
  O      14.467294     39.959191      6.244684
  Si     16.880653     25.988583      7.913936
  O      15.531421     25.226791      8.434188
  O      18.134154     25.108580      8.472463
  O      16.807557     26.007645      6.269991
  Si     16.937723     29.058628      7.829187
  Si     17.059911     35.304546      7.839229
  Si     19.696373     33.726576      7.871844
  Si     19.563161     30.641050      7.873460
  O      15.526336     29.778827      8.155588
  O      15.742907     34.450905      8.212832
  O      18.394930     34.542120      8.420702
  O      18.178923     29.944143      8.401519
  O      16.917840     27.536577      8.433374
  O      19.699502     32.176116      8.410144
  O      17.157849     28.853874      6.211085
  O      17.315830     35.369882      6.212926
  O      19.578685     33.640626      6.232153
  O      19.496244     30.695109      6.229882
  Si     17.032221     38.380641      7.846821
  O      15.801100     39.287380      8.413538
  O      18.500740     38.932825      8.310738
  O      16.967700     36.838654      8.391335
  O      16.893962     38.326398      6.208044
  O      20.751093     29.656152      8.399466
  O      21.120876     34.359864      8.359693
  H       4.074657     24.986772      8.036591
  H       1.410409     29.602015      8.036749
  H       1.410409     35.007985      8.036749
  H       4.074658     39.623228      8.036591
  H       8.948181     22.173255      8.038302
  H       8.948181     42.436745      8.038302
  H      14.277762     22.173204      8.038282
  H      14.277762     42.436796      8.038282
  H      18.960557     24.876228      8.036406
  H      18.960557     39.733772      8.036406
  H      21.624717     29.491420      8.036583
  H      21.624717     35.118580      8.036583
  H      13.319750     34.089627      5.966911
  H      11.187274     34.718729      5.526064
  H       9.010718     32.657127      5.567996
  H       9.866475     30.245396      5.758409
  H      12.387398     29.929542      5.869115
  H      14.008540     31.805376      5.968758
  H      13.604470     39.647353      5.911752
  H      11.019908     39.335103      5.843124
  H       8.540310     39.552270      5.731786
  H       6.743865     37.572474      5.346419
  H       5.185656     34.931700      5.501093
  H       3.374972     32.803779      5.713578
  H       4.197346     30.157533      5.822369
  H       6.069122     28.171288      5.800254
  H       6.959142     25.605026      5.900339
  H       9.610384     24.896455      5.884941
  H      12.275806     25.469878      5.804467
  H      14.991297     25.042978      5.900246
  H      16.956137     26.894054      5.904242
  H      17.805131     29.459058      5.825930
  H      19.507207     31.603994      5.892599
  H      18.868984     34.207593      5.887579
  H      17.099107     36.223833      5.818398
  H      16.111508     38.803962      5.891300
  P       2.914680     39.616963      9.995745
  O       2.898902     38.152689     10.390344
  O       3.163043     40.024699      8.533438
  O       1.547037     40.374141     10.401940
  O       3.895357     40.489662     10.887798
  C       5.236066     40.487247     10.566949
  C       6.042214     40.366629     11.818364
  O       5.879583     39.097700     12.447089
  C       7.500839     40.462584     11.546835
  O       8.119905     41.007134     12.664081
  C       7.948667     39.012875     11.340002
  O       9.288027     38.853441     11.694211
  C       6.996519     38.284386     12.267749
  N       6.554399     36.990575     11.726451
  C       5.259142     36.580944     11.483186
  N       5.181343     35.327974     11.092255
  C       6.473853     34.903426     11.058286
  C       7.040487     33.709694     10.593871
  N       6.360248     32.661779     10.119590
  N       8.402447     33.673214     10.651885
  C       9.171158     34.721910     11.077382
  N       8.694870     35.853391     11.502268
  C       7.349042     35.923284     11.457477
  H       1.052819     39.756053     10.965950
  H       5.485207     39.690308      9.845173
  H       5.463163     41.430736     10.108111
  H       5.718015     41.131568     12.536269
  H       7.696706     41.033993     10.662904
  H       9.015672     40.673739     12.624153
  H       7.782657     38.703282     10.305343
  H       9.759238     38.482048     10.937194
  H       7.490883     38.081193     13.220621
  H       4.421072     37.269634     11.554331
  H       5.383940     32.815100      9.914816
  H       6.842336     31.985199      9.528256
  H      10.246460     34.556443     11.016624
  H       8.883262     32.900636     10.183992
163
Coordinates from ORCA-job /data/Seafile/amp/al_surf/protonated_al_surf/frames/frame12/dry/amp_al_frame12_dry E -13417.887794588059
  Si      3.466432     33.803617      7.684416
  Si      3.500732     30.716104      7.835654
  O       2.066847     34.350098      8.287050
  O       2.188827     29.981460      8.468930
  O       3.596057     32.274715      8.298546
  O       3.469130     33.699146      6.041836
  O       3.474729     30.677185      6.194041
  Si      6.168547     26.083823      7.898863
  Si      8.830758     24.530546      7.911055
  O       4.802559     25.426091      8.489268
  O       7.478066     25.277014      8.434544
  O       8.814808     23.010727      8.497756
  O       6.203836     26.086856      6.252603
  O       8.783384     24.569940      6.266611
  Si      6.141728     29.148691      7.777633
  Si      6.162140     35.343843      7.437891
  Si      8.928208     33.764232      7.494552
  Si      8.903800     30.678986      7.672491
  O       4.864309     29.969931      8.364768
  O       4.806016     34.645433      8.072901
  O       7.439299     34.379954      7.781845
  O       7.496788     29.981391      8.137427
  O       6.233385     27.642033      8.384692
  O       8.855009     32.225334      8.186169
  O       5.899160     29.044946      6.157945
  O       5.933621     35.447731      5.818891
  O       9.175358     33.558487      5.891976
  O       9.033081     30.646479      6.044257
  Si      6.521446     38.383784      7.426417
  Si      9.072998     40.070306      7.799156
  O       5.169320     39.143025      7.558005
  O       7.795357     39.149161      8.189028
  O       6.471149     36.818615      8.011732
  O       8.916902     41.564029      8.457378
  O       7.143013     38.263412      5.882548
  O       9.220371     40.118955      6.161037
  Si     11.503623     26.034164      7.798047
  Si     14.167228     24.528105      7.878006
  O      10.151823     25.353427      8.406284
  O      12.855753     25.352017      8.390519
  O      13.956414     23.002070      8.408909
  O      11.433122     25.733898      6.182342
  O      14.198757     24.602737      6.233673
  Si     11.568303     29.210411      7.767827
  Al     11.678229     35.358132      7.740447
  Si     14.292833     33.737383      7.901932
  Si     14.222212     30.704507      7.838696
  O      10.178377     29.885234      8.315937
  O      10.105694     34.611751      8.150479
  O      13.055993     34.542850      8.506232
  O      12.899115     29.898128      8.403782
  O      11.512260     27.622090      8.114341
  O      14.395940     32.179837      8.479190
  O      11.593131     29.445737      6.144206
  O      11.957939     35.031636      6.027091
  O      14.114582     33.558516      6.273310
  O      13.992503     30.854813      6.220378
  Si     11.762899     38.623522      7.825828
  Si     14.460078     40.070043      7.893630
  O      10.436010     39.403864      8.410179
  O      13.113104     39.348475      8.447209
  O      11.703105     37.066574      8.137481
  O      14.635932     41.616934      8.403424
  O      11.855966     38.976224      6.209809
  O      14.467234     39.957467      6.251252
  Si     16.880267     25.989072      7.912454
  O      15.530711     25.227539      8.431071
  O      18.132900     25.108649      8.472327
  O      16.809375     26.007424      6.268186
  Si     16.937164     29.058380      7.829138
  Si     17.059826     35.304482      7.844329
  Si     19.695370     33.727349      7.874048
  Si     19.560315     30.643087      7.875201
  O      15.526338     29.777801      8.155473
  O      15.744241     34.450523      8.220118
  O      18.395300     34.542520      8.424433
  O      18.177177     29.944792      8.402267
  O      16.917072     27.536227      8.432366
  O      19.697748     32.177318      8.411944
  O      17.157280     28.854110      6.210507
  O      17.313846     35.369206      6.217414
  O      19.577925     33.641645      6.233953
  O      19.493373     30.696901      6.231266
  Si     17.032565     38.380286      7.850620
  O      15.803644     39.287689      8.418362
  O      18.501433     38.932278      8.312425
  O      16.968464     36.838934      8.395402
  O      16.893746     38.325588      6.211678
  O      20.748874     29.657384      8.400046
  O      21.120928     34.359428      8.361101
  H       4.074657     24.986772      8.036591
  H       1.410409     29.602015      8.036749
  H       1.410409     35.007985      8.036749
  H       4.074657     39.623228      8.036591
  H       8.948181     22.173255      8.038302
  H       8.948181     42.436745      8.038302
  H      14.277762     22.173204      8.038282
  H      14.277762     42.436796      8.038282
  H      18.960557     24.876228      8.036406
  H      18.960557     39.733772      8.036406
  H      21.624717     29.491420      8.036583
  H      21.624717     35.118580      8.036583
  H      13.316380     34.090384      5.979950
  H      11.190962     34.727003      5.537836
  H       9.018137     32.663501      5.567395
  H       9.872277     30.252137      5.750000
  H      12.393611     29.932901      5.865331
  H      14.023944     31.809195      5.969096
  H      13.604369     39.646021      5.918211
  H      11.026000     39.330102      5.856373
  H       8.551769     39.547114      5.742324
  H       6.753959     37.569148      5.347395
  H       5.185541     34.930348      5.498795
  H       3.372901     32.800364      5.705829
  H       4.193415     30.151760      5.813517
  H       6.067755     28.167164      5.791047
  H       6.959797     25.599911      5.894330
  H       9.612724     24.888323      5.877705
  H      12.277606     25.466495      5.796246
  H      14.994222     25.040974      5.896168
  H      16.959484     26.894188      5.901800
  H      17.804455     29.459979      5.824785
  H      19.503546     31.606084      5.893179
  H      18.868280     34.209453      5.888602
  H      17.096623     36.223687      5.821934
  H      16.111355     38.804518      5.894538
  P       2.891884     39.626601      9.979495
  O       2.889653     38.188363     10.362682
  O       3.152900     40.028266      8.527658
  O       1.506598     40.343925     10.352920
  O       3.875128     40.495574     10.899909
  C       5.257363     40.491120     10.589544
  C       6.065497     40.342696     11.862657
  O       5.878734     39.053410     12.472908
  C       7.554000     40.455477     11.606980
  O       8.194168     40.959525     12.763221
  C       7.971015     39.003520     11.371944
  O       9.315339     38.822998     11.728863
  C       6.995682     38.249911     12.287175
  N       6.542797     36.962216     11.733884
  C       5.242480     36.562591     11.487776
  N       5.158012     35.313316     11.099982
  C       6.448697     34.880987     11.066235
  C       7.004868     33.684485     10.611968
  N       6.319209     32.637388     10.156930
  N       8.363468     33.644409     10.662761
  C       9.138374     34.688877     11.077975
  N       8.672443     35.818822     11.500734
  C       7.329843     35.894284     11.460510
  H       1.001140     39.722525     10.903408
  H       5.514526     39.700977      9.866340
  H       5.514920     41.447991     10.117885
  H       5.736437     41.084222     12.599598
  H       7.777572     41.067946     10.722074
  H       9.100918     40.615701     12.731456
  H       7.794128     38.726745     10.327076
  H       9.785948     38.462548     10.974317
  H       7.486908     38.028052     13.247316
  H       4.408603     37.252401     11.555394
  H       5.340340     32.786739      9.960251
  H       6.785118     31.950622      9.578286
  H      10.207730     34.520718     11.012490
  H       8.832606     32.870387     10.196637
163
Coordinates from ORCA-job /data/Seafile/amp/al_surf/protonated_al_surf/frames/frame12/dry/amp_al_frame12_dry E -13417.887627639153
  Si      3.466750     33.798708      7.680178
  Si      3.501365     30.712462      7.829078
  O       2.069907     34.343987      8.289238
  O       2.190570     29.980552      8.466267
  O       3.598321     32.269299      8.291019
  O       3.461844     33.696109      6.037328
  O       3.471220     30.672618      6.187325
  Si      6.170429     26.082341      7.894258
  Si      8.832029     24.528542      7.905955
  O       4.804521     25.427500      8.487701
  O       7.480218     25.276377      8.428655
  O       8.814959     23.011301      8.496390
  O       6.203745     26.082118      6.247936
  O       8.783871     24.563839      6.261364
  Si      6.142883     29.146643      7.767961
  Si      6.159743     35.340845      7.427728
  Si      8.924842     33.764170      7.477427
  Si      8.903637     30.678850      7.657137
  O       4.866381     29.967441      8.356099
  O       4.806327     34.639615      8.065022
  O       7.437874     34.379080      7.765866
  O       7.497565     29.980683      8.123877
  O       6.236245     27.641048      8.377042
  O       8.853194     32.224737      8.170014
  O       5.895979     29.040375      6.149530
  O       5.926267     35.445478      5.809082
  O       9.170607     33.556877      5.875125
  O       9.032441     30.644258      6.029266
  Si      6.516738     38.379829      7.414801
  Si      9.067471     40.072165      7.780217
  O       5.173360     39.134742      7.557907
  O       7.790931     39.149656      8.166824
  O       6.469371     36.813737      8.000573
  O       8.914948     41.565319      8.443279
  O       7.125996     38.265983      5.871890
  O       9.212469     40.123426      6.140672
  Si     11.503678     26.034403      7.789043
  Si     14.167098     24.529244      7.873632
  O      10.152407     25.353358      8.398157
  O      12.855711     25.353628      8.382932
  O      13.955616     23.004206      8.407153
  O      11.433405     25.730049      6.173572
  O      14.200445     24.600493      6.228939
  Si     11.568124     29.211060      7.755838
  Al     11.673456     35.359768      7.721792
  Si     14.288745     33.739286      7.885972
  Si     14.220187     30.706324      7.825600
  O      10.177849     29.886768      8.301705
  O      10.101569     34.612080      8.131472
  O      13.051548     34.544919      8.488973
  O      12.897524     29.899860      8.390881
  O      11.512069     27.622562      8.102758
  O      14.392085     32.182059      8.464298
  O      11.592859     29.445237      6.131927
  O      11.953908     35.031392      6.008755
  O      14.110690     33.558054      6.257466
  O      13.993001     30.854485      6.206456
  Si     11.758193     38.625006      7.806643
  Si     14.456823     40.069402      7.884950
  O      10.430918     39.405804      8.388888
  O      13.107989     39.347324      8.432641
  O      11.697093     37.069221      8.117268
  O      14.634419     41.613375      8.400569
  O      11.854178     38.981536      6.191738
  O      14.466899     39.964016      6.241987
  Si     16.879418     25.990867      7.908218
  O      15.529620     25.229946      8.426213
  O      18.130807     25.110060      8.470193
  O      16.811426     26.006764      6.263604
  Si     16.934896     29.060233      7.821003
  Si     17.056795     35.305265      7.831998
  Si     19.692656     33.729174      7.869292
  Si     19.557017     30.645832      7.871795
  O      15.524179     29.779886      8.144208
  O      15.740264     34.452286      8.204736
  O      18.391112     34.543532      8.415284
  O      18.173565     29.947431      8.395428
  O      16.914802     27.538272      8.425210
  O      19.693234     32.179813      8.407580
  O      17.158576     28.853931      6.202467
  O      17.316069     35.372270      6.205328
  O      19.580558     33.643924      6.228683
  O      19.493899     30.698684      6.227390
  Si     17.029733     38.380436      7.843177
  O      15.799187     39.285761      8.409582
  O      18.498188     38.929550      8.309754
  O      16.964406     36.838975      8.384232
  O      16.895316     38.330674      6.203816
  O      20.745018     29.659214      8.398536
  O      21.117636     34.359391      8.359861
  H       4.074657     24.986772      8.036591
  H       1.410409     29.602015      8.036749
  H       1.410409     35.007985      8.036749
  H       4.074657     39.623228      8.036591
  H       8.948181     22.173255      8.038302
  H       8.948181     42.436745      8.038302
  H      14.277762     22.173204      8.038282
  H      14.277762     42.436796      8.038282
  H      18.960557     24.876228      8.036406
  H      18.960557     39.733772      8.036406
  H      21.624717     29.491420      8.036583
  H      21.624717     35.118580      8.036583
  H      13.311935     34.088251      5.963698
  H      11.186486     34.725765      5.519315
  H       9.013866     32.661619      5.550695
  H       9.872441     30.249397      5.735013
  H      12.394519     29.932171      5.853707
  H      14.024812     31.809005      5.955448
  H      13.602857     39.655278      5.906981
  H      11.022986     39.338197      5.839123
  H       8.538601     39.544445      5.724818
  H       6.730542     37.569289      5.336009
  H       5.177270     34.926256      5.491032
  H       3.363711     32.795853      5.700527
  H       4.189141     30.145875      5.805551
  H       6.064802     28.161107      5.783141
  H       6.960214     25.593186      5.889995
  H       9.614444     24.881287      5.871652
  H      12.279453     25.462370      5.788229
  H      14.997604     25.038520      5.891784
  H      16.962553     26.894211      5.896631
  H      17.806846     29.460862      5.817391
  H      19.504697     31.608813      5.889222
  H      18.871116     34.212756      5.881771
  H      17.098668     36.228816      5.810735
  H      16.112648     38.811961      5.886809
  P       2.892710     39.646079      9.978758
  O       2.904460     38.233249     10.364307
  O       3.159701     40.029466      8.521744
  O       1.491607     40.337401     10.324511
  O       3.885061     40.519093     10.909586
  C       5.268061     40.516559     10.604056
  C       6.089292     40.364662     11.857883
  O       5.906299     39.072080     12.463131
  C       7.563628     40.479516     11.582561
  O       8.220090     40.985040     12.713043
  C       7.970966     39.025093     11.343012
  O       9.315309     38.833440     11.691811
  C       7.008824     38.268033     12.260433
  N       6.548290     36.981455     11.714207
  C       5.244756     36.592296     11.481459
  N       5.146227     35.345387     11.103497
  C       6.431053     34.901721     11.059049
  C       6.968617     33.699796     10.609490
  N       6.268395     32.663127     10.175742
  N       8.323232     33.646291     10.644792
  C       9.110147     34.683524     11.041408
  N       8.662938     35.817489     11.460451
  C       7.323311     35.906981     11.436079
  H       1.006000     39.736008     10.872880
  H       5.510512     39.734520      9.886991
  H       5.526630     41.469014     10.132902
  H       5.777123     41.104155     12.592456
  H       7.769420     41.092954     10.706150
  H       9.113825     40.645607     12.655745
  H       7.780825     38.752282     10.309526
  H       9.792359     38.470028     10.941264
  H       7.509644     38.042295     13.202545
  H       4.418620     37.288095     11.547974
  H       5.291255     32.827463      9.989861
  H       6.715095     31.970598      9.599449
  H      10.172791     34.504786     10.967135
  H       8.777382     32.869137     10.181470
163
Coordinates from ORCA-job /data/Seafile/amp/al_surf/protonated_al_surf/frames/frame12/dry/amp_al_frame12_dry E -13417.886898445351
  Si      3.466703     33.805099      7.679621
  Si      3.500141     30.718295      7.830857
  O       2.071322     34.351034      8.292048
  O       2.185871     29.991449      8.467221
  O       3.599955     32.276645      8.292463
  O       3.460765     33.702925      6.037200
  O       3.471123     30.678844      6.189291
  Si      6.166739     26.087054      7.895540
  Si      8.827090     24.531914      7.906431
  O       4.798943     25.435542      8.488354
  O       7.475449     25.279058      8.430562
  O       8.809838     23.012786      8.495321
  O       6.199243     26.087661      6.249562
  O       8.778219     24.568540      6.262092
  Si      6.141735     29.151677      7.772609
  Si      6.162586     35.343888      7.425838
  Si      8.927968     33.764483      7.482240
  Si      8.902956     30.680772      7.665634
  O       4.862838     29.970538      8.359142
  O       4.806708     34.647677      8.063906
  O       7.439033     34.379818      7.766980
  O       7.495420     29.986012      8.131790
  O       6.235124     27.645196      8.379866
  O       8.855054     32.227639      8.179532
  O       5.898250     29.048641      6.153219
  O       5.931386     35.450762      5.807765
  O       9.174705     33.554040      5.880609
  O       9.028645     30.649888      6.037131
  Si      6.522476     38.385240      7.421043
  Si      9.072874     40.071788      7.790399
  O       5.174878     39.140948      7.564848
  O       7.795711     39.148939      8.183560
  O       6.472791     36.817039      7.998802
  O       8.928614     41.566279      8.452876
  O       7.134748     38.277248      5.877022
  O       9.214805     40.123145      6.151625
  Si     11.501203     26.034670      7.789374
  Si     14.164813     24.528193      7.872052
  O      10.149347     25.354640      8.398724
  O      12.853109     25.352466      8.382469
  O      13.954283     23.003505      8.406822
  O      11.430222     25.733131      6.173685
  O      14.197076     24.598735      6.227680
  Si     11.567730     29.210485      7.756674
  Al     11.677979     35.358214      7.721802
  Si     14.292301     33.736107      7.885461
  Si     14.222681     30.702610      7.824698
  O      10.179180     29.886365      8.305281
  O      10.104947     34.614790      8.134488
  O      13.054465     34.541311      8.488672
  O      12.898952     29.898545      8.390246
  O      11.510926     27.622581      8.105082
  O      14.396776     32.178810      8.462842
  O      11.589946     29.444659      6.132683
  O      11.956478     35.030514      6.008657
  O      14.114771     33.556556      6.256592
  O      13.997208     30.850349      6.205450
  Si     11.762769     38.623895      7.812280
  Si     14.460326     40.070252      7.884998
  O      10.434755     39.401137      8.399014
  O      13.113060     39.347060      8.435660
  O      11.705673     37.066436      8.118983
  O      14.636328     41.614445      8.400302
  O      11.854788     38.981742      6.197527
  O      14.467611     39.965239      6.242126
  Si     16.878634     25.987558      7.904697
  O      15.527326     25.229999      8.424324
  O      18.127206     25.102949      8.466824
  O      16.810236     26.003696      6.260359
  Si     16.936843     29.057175      7.817876
  Si     17.058871     35.303951      7.828781
  Si     19.694913     33.727097      7.865405
  Si     19.559137     30.643023      7.867819
  O      15.525323     29.774985      8.144428
  O      15.742904     34.450409      8.204333
  O      18.393280     34.542300      8.411538
  O      18.175008     29.945268      8.392006
  O      16.918707     27.535289      8.421958
  O      19.694994     32.177448      8.403950
  O      17.157723     28.853160      6.199100
  O      17.315398     35.369827      6.202044
  O      19.583953     33.642160      6.224854
  O      19.496911     30.695247      6.223839
  Si     17.032526     38.379569      7.840054
  O      15.804015     39.287192      8.408452
  O      18.502115     38.926601      8.305795
  O      16.966013     36.837569      8.381392
  O      16.895926     38.329231      6.201134
  O      20.745867     29.657151      8.397310
  O      21.118632     34.358195      8.358198
  H       4.074657     24.986772      8.036591
  H       1.410409     29.602015      8.036749
  H       1.410409     35.007985      8.036749
  H       4.074657     39.623228      8.036591
  H       8.948181     22.173255      8.038302
  H       8.948181     42.436745      8.038302
  H      14.277762     22.173204      8.038282
  H      14.277762     42.436796      8.038282
  H      18.960557     24.876228      8.036406
  H      18.960557     39.733772      8.036406
  H      21.624717     29.491420      8.036583
  H      21.624717     35.118580      8.036583
  H      13.316446     34.087361      5.962564
  H      11.188808     34.722492      5.520905
  H       9.015130     32.658961      5.557519
  H       9.868482     30.256655      5.740715
  H      12.390247     29.931596      5.852038
  H      14.041322     31.804046      5.951962
  H      13.600678     39.663650      5.907443
  H      11.023588     39.339036      5.846422
  H       8.547092     39.569082      5.735367
  H       6.726834     37.584588      5.336026
  H       5.182928     34.932666      5.487558
  H       3.364763     32.803217      5.700327
  H       4.190643     30.154304      5.807811
  H       6.066752     28.170504      5.785350
  H       6.955682     25.600648      5.890490
  H       9.607418     24.887207      5.871646
  H      12.274771     25.463566      5.787535
  H      14.993729     25.036036      5.889333
  H      16.961777     26.890329      5.892537
  H      17.806616     29.458662      5.813546
  H      19.506903     31.605022      5.885002
  H      18.875233     34.210733      5.876881
  H      17.100731     36.226374      5.807026
  H      16.114845     38.812830      5.884460
  P       2.886029     39.639206      9.978215
  O       2.887097     38.222127     10.351703
  O       3.158955     40.038231      8.531082
  O       1.482313     40.310518     10.316704
  O       3.872820     40.509951     10.918920
  C       5.240851     40.543645     10.611657
  C       6.058621     40.382696     11.860917
  O       5.863914     39.082991     12.456699
  C       7.542581     40.498330     11.593165
  O       8.191419     41.007565     12.728930
  C       7.958144     39.040977     11.362624
  O       9.305684     38.853994     11.721814
  C       6.982386     38.282716     12.274153
  N       6.536931     36.993768     11.722805
  C       5.237415     36.595293     11.483159
  N       5.149637     35.348811     11.099751
  C       6.438369     34.914721     11.064752
  C       6.984805     33.712210     10.619818
  N       6.289592     32.664419     10.187872
  N       8.341867     33.670685     10.658297
  C       9.121454     34.715929     11.056840
  N       8.663645     35.848150     11.475921
  C       7.322405     35.926091     11.446047
  H       0.955412     39.662642     10.850731
  H       5.487368     39.781044      9.873146
  H       5.484735     41.510900     10.172985
  H       5.743754     41.116798     12.600394
  H       7.756274     41.112076     10.713729
  H       9.096166     40.662430     12.688040
  H       7.778191     38.763575     10.327160
  H       9.788496     38.485572     10.974406
  H       7.471008     38.061970     13.228627
  H       4.405392     37.286318     11.544801
  H       5.307373     32.815443      9.999183
  H       6.739557     31.964776      9.615181
  H      10.186910     34.545985     10.985902
  H       8.802412     32.890062     10.199333
163
Coordinates from ORCA-job /data/Seafile/amp/al_surf/protonated_al_surf/frames/frame12/dry/amp_al_frame12_dry E -13417.887419708462
  Si      3.465877     33.806734      7.682366
  Si      3.499501     30.719455      7.834245
  O       2.069109     34.354263      8.290314
  O       2.184794     29.991923      8.469643
  O       3.598547     32.278562      8.296046
  O       3.463455     33.703046      6.040135
  O       3.471200     30.679324      6.192993
  Si      6.165741     26.088102      7.896969
  Si      8.826297     24.532941      7.908562
  O       4.797684     25.435600      8.488509
  O       7.474170     25.279411      8.432434
  O       8.809312     23.012583      8.495929
  O       6.199464     26.089512      6.250845
  O       8.778170     24.570896      6.264254
  Si      6.141358     29.152774      7.774719
  Si      6.162595     35.345091      7.429461
  Si      8.929494     33.765121      7.486079
  Si      8.903732     30.680932      7.667724
  O       4.862358     29.971170      8.362219
  O       4.806414     34.649626      8.066597
  O       7.439953     34.380410      7.771033
  O       7.495931     29.986019      8.133119
  O       6.234516     27.645907      8.381695
  O       8.856138     32.227915      8.181876
  O       5.898198     29.049694      6.154943
  O       5.932126     35.451817      5.811121
  O       9.176890     33.554907      5.884373
  O       9.031327     30.650066      6.039326
  Si      6.524377     38.385571      7.422611
  Si      9.075778     40.070239      7.793993
  O       5.174082     39.144388      7.559439
  O       7.797095     39.148955      8.186933
  O       6.474457     36.819188      8.004032
  O       8.928014     41.563352      8.455507
  O       7.139382     38.267865      5.877732
  O       9.221637     40.124603      6.156432
  Si     11.500880     26.034693      7.792968
  Si     14.164633     24.527388      7.873859
  O      10.148975     25.354694      8.402042
  O      12.852776     25.351387      8.384965
  O      13.954475     23.002153      8.407381
  O      11.429771     25.735016      6.176999
  O      14.196079     24.600301      6.229559
  Si     11.567925     29.210309      7.761177
  Al     11.681836     35.356017      7.727379
  Si     14.295871     33.734040      7.891122
  Si     14.224164     30.701106      7.830779
  O      10.179532     29.886061      8.309992
  O      10.106798     34.614871      8.139854
  O      13.057890     34.539287      8.494189
  O      12.899912     29.897550      8.395719
  O      11.510705     27.622484      8.109486
  O      14.400016     32.177142      8.469622
  O      11.591091     29.444463      6.137114
  O      11.960688     35.026160      6.014680
  O      14.118659     33.553449      6.262456
  O      13.996985     30.849320      6.211692
  Si     11.766427     38.622932      7.816060
  Si     14.462970     40.070926      7.887218
  O      10.437803     39.398160      8.402448
  O      13.116313     39.347229      8.438438
  O      11.710058     37.064334      8.121195
  O      14.637891     41.616480      8.401765
  O      11.859489     38.982063      6.201781
  O      14.470592     39.963770      6.244497
  Si     16.879045     25.986118      7.907232
  O      15.527853     25.227904      8.426505
  O      18.128395     25.101607      8.468238
  O      16.809075     26.003749      6.263100
  Si     16.938174     29.055513      7.822543
  Si     17.061739     35.303090      7.833804
  Si     19.697269     33.725849      7.868144
  Si     19.560896     30.641255      7.869822
  O      15.526643     29.773217      8.150381
  O      15.746197     34.448715      8.209964
  O      18.396456     34.541628      8.416106
  O      18.177249     29.943110      8.395565
  O      16.919902     27.533589      8.426182
  O      19.698294     32.175711      8.406007
  O      17.157406     28.852103      6.203783
  O      17.316807     35.367736      6.207273
  O      19.584061     33.640538      6.227815
  O      19.495673     30.694238      6.226014
  Si     17.034836     38.379214      7.842735
  O      15.806980     39.288126      8.410253
  O      18.504385     38.928132      8.306946
  O      16.969119     36.837173      8.385491
  O      16.896595     38.326027      6.203685
  O      20.748229     29.655646      8.397970
  O      21.121568     34.357765      8.359372
  H       4.074657     24.986772      8.036591
  H       1.410409     29.602015      8.036749
  H       1.410409     35.007985      8.036749
  H       4.074657     39.623228      8.036591
  H       8.948181     22.173255      8.038302
  H       8.948181     42.436745      8.038302
  H      14.277762     22.173204      8.038282
  H      14.277762     42.436796      8.038282
  H      18.960557     24.876228      8.036406
  H      18.960557     39.733772      8.036406
  H      21.624717     29.491420      8.036583
  H      21.624717     35.118580      8.036583
  H      13.319165     34.082700      5.968169
  H      11.193883     34.718569      5.526467
  H       9.018617     32.659254      5.561770
  H       9.870797     30.256498      5.744083
  H      12.391589     29.930152      5.856476
  H      14.041954     31.802473      5.957299
  H      13.604958     39.660841      5.909847
  H      11.030041     39.339097      5.850140
  H       8.545573     39.562394      5.731904
  H       6.741196     37.581021      5.340363
  H       5.184929     34.932856      5.490353
  H       3.368378     32.804186      5.703958
  H       4.190859     30.155378      5.811921
  H       6.066507     28.172010      5.787739
  H       6.955684     25.603275      5.892089
  H       9.606839     24.889997      5.874633
  H      12.273791     25.465672      5.791165
  H      14.991900     25.037635      5.891402
  H      16.960082     26.890086      5.895858
  H      17.805339     29.457581      5.818319
  H      19.505512     31.603565      5.887414
  H      18.875527     34.208603      5.880438
  H      17.101617     36.223232      5.812325
  H      16.116073     38.808484      5.886545
  P       2.892892     39.626355      9.979151
  O       2.904437     38.182246     10.359913
  O       3.158721     40.036369      8.532209
  O       1.491166     40.313933     10.344974
  O       3.857893     40.498718     10.910659
  C       5.234486     40.536600     10.593744
  C       6.044768     40.370755     11.860047
  O       5.848928     39.069123     12.457707
  C       7.541489     40.487337     11.604146
  O       8.182953     40.990156     12.757813
  C       7.962514     39.031916     11.371966
  O       9.310435     38.848661     11.735596
  C       6.978859     38.270849     12.282361
  N       6.539797     36.981770     11.726866
  C       5.241130     36.577902     11.482256
  N       5.160846     35.329493     11.094906
  C       6.454060     34.901602     11.063280
  C       7.009327     33.700308     10.617912
  N       6.318954     32.645835     10.178394
  N       8.369698     33.666028     10.663987
  C       9.143848     34.717070     11.069494
  N       8.675501     35.848568     11.489010
  C       7.332343     35.918276     11.452345
  H       0.997572     39.689444     10.877294
  H       5.503430     39.769512      9.850140
  H       5.473349     41.515031     10.150961
  H       5.717363     41.103473     12.605270
  H       7.766833     41.106453     10.719872
  H       9.096245     40.640617     12.730888
  H       7.789855     38.756452     10.329378
  H       9.792970     38.481274     10.987399
  H       7.463427     38.048998     13.247009
  H       4.402591     37.265226     11.547202
  H       5.335509     32.788707      9.982811
  H       6.775805     31.941858      9.607631
  H      10.213534     34.553868     11.003433
  H       8.837724     32.884760     10.205125
163
Coordinates from ORCA-job /data/Seafile/amp/al_surf/protonated_al_surf/frames/frame12/dry/amp_al_frame12_dry E -13417.888421472095
  Si      3.466697     33.803902      7.683216
  Si      3.499550     30.717606      7.832485
  O       2.069966     34.351238      8.291393
  O       2.184866     29.990615      8.468585
  O       3.599815     32.275046      8.294635
  O       3.461657     33.700577      6.040587
  O       3.469532     30.676566      6.191026
  Si      6.166867     26.086839      7.894917
  Si      8.827185     24.531143      7.906607
  O       4.798608     25.435701      8.487610
  O       7.475314     25.278265      8.429821
  O       8.809354     23.011816      8.495015
  O       6.200123     26.086156      6.248633
  O       8.779390     24.567895      6.262096
  Si      6.141114     29.151414      7.770198
  Si      6.161680     35.344243      7.429611
  Si      8.927777     33.765139      7.479195
  Si      8.903166     30.680963      7.659258
  O       4.863180     29.969425      8.359085
  O       4.806727     34.646547      8.066564
  O       7.439693     34.379847      7.766232
  O       7.495874     29.985463      8.126431
  O       6.235739     27.645066      8.378201
  O       8.855317     32.226700      8.173408
  O       5.895640     29.046285      6.151005
  O       5.928260     35.451823      5.811003
  O       9.174607     33.555044      5.877182
  O       9.031558     30.647654      6.031209
  Si      6.524399     38.383721      7.423527
  Si      9.075833     40.071349      7.790518
  O       5.176325     39.140679      7.561977
  O       7.798760     39.149584      8.180714
  O       6.475347     36.816787      8.005413
  O       8.928431     41.564171      8.453562
  O       7.137802     38.266318      5.878432
  O       9.221452     40.128693      6.152145
  Si     11.500756     26.034531      7.790608
  Si     14.164638     24.528182      7.873206
  O      10.149037     25.353964      8.399408
  O      12.852640     25.351948      8.383119
  O      13.954391     23.002942      8.406854
  O      11.430051     25.733529      6.174692
  O      14.196672     24.600168      6.228667
  Si     11.566922     29.210608      7.757102
  Al     11.679768     35.356902      7.720982
  Si     14.294194     33.735393      7.886287
  Si     14.222506     30.702506      7.826903
  O      10.177509     29.887009      8.303726
  O      10.105056     34.614228      8.132494
  O      13.056111     34.540268      8.488490
  O      12.898119     29.898438      8.391633
  O      11.509983     27.622516      8.105713
  O      14.397921     32.178395      8.465251
  O      11.590762     29.443648      6.133150
  O      11.959335     35.025423      6.008608
  O      14.118041     33.554291      6.257634
  O      13.994280     30.850402      6.207802
  Si     11.765705     38.623760      7.808456
  Si     14.462342     40.070551      7.884811
  O      10.438003     39.398783      8.395891
  O      13.115316     39.346513      8.433473
  O      11.707807     37.066001      8.113553
  O      14.637205     41.615591      8.400908
  O      11.859536     38.985333      6.194412
  O      14.472040     39.964519      6.241949
  Si     16.878641     25.987249      7.906840
  O      15.527512     25.228934      8.425547
  O      18.127874     25.102242      8.467616
  O      16.809100     26.004194      6.262508
  Si     16.936848     29.056677      7.821021
  Si     17.060492     35.303413      7.832472
  Si     19.696060     33.726576      7.868487
  Si     19.559609     30.642361      7.870087
  O      15.525335     29.774666      8.146793
  O      15.744514     34.449687      8.206432
  O      18.395053     34.541780      8.415389
  O      18.175708     29.944366      8.394326
  O      16.918700     27.534622      8.424798
  O      19.696819     32.176549      8.405982
  O      17.158000     28.852212      6.202274
  O      17.317586     35.368853      6.205938
  O      19.583655     33.640927      6.227995
  O      19.495766     30.695202      6.225934
  Si     17.033876     38.379224      7.841799
  O      15.805789     39.287722      8.408239
  O      18.503234     38.927869      8.306718
  O      16.967788     36.837533      8.383870
  O      16.897371     38.326913      6.202511
  O      20.746720     29.656190      8.397920
  O      21.120761     34.357926      8.359383
  H       4.074657     24.986772      8.036591
  H       1.410409     29.602015      8.036749
  H       1.410409     35.007985      8.036749
  H       4.074657     39.623228      8.036591
  H       8.948181     22.173255      8.038302
  H       8.948181     42.436745      8.038302
  H      14.277762     22.173204      8.038282
  H      14.277762     42.436796      8.038282
  H      18.960557     24.876228      8.036406
  H      18.960557     39.733772      8.036406
  H      21.624717     29.491420      8.036583
  H      21.624717     35.118580      8.036583
  H      13.318969     34.083769      5.962867
  H      11.192624     34.717826      5.520378
  H       9.016471     32.659027      5.554525
  H       9.871197     30.253518      5.736778
  H      12.391803     29.929202      5.853181
  H      14.034452     31.803706      5.954300
  H      13.607254     39.659694      5.906735
  H      11.029556     39.342903      5.843025
  H       8.543924     39.557822      5.727470
  H       6.741742     37.577995      5.342210
  H       5.180673     34.932935      5.491163
  H       3.365391     32.801208      5.704173
  H       4.188626     30.152001      5.809370
  H       6.063927     28.167847      5.784331
  H       6.956463     25.598675      5.890450
  H       9.608907     24.886257      5.872507
  H      12.274728     25.464528      5.789054
  H      14.992916     25.037478      5.890584
  H      16.960288     26.890794      5.895154
  H      17.806420     29.457766      5.817158
  H      19.506437     31.604609      5.887309
  H      18.875065     34.209188      5.880374
  H      17.102106     36.224652      5.811016
  H      16.116709     38.809279      5.884923
  P       2.892815     39.628936      9.975148
  O       2.908407     38.199985     10.349417
  O       3.161721     40.035849      8.525990
  O       1.487803     40.311078     10.335141
  O       3.868184     40.498378     10.912455
  C       5.252606     40.528508     10.600996
  C       6.070690     40.364794     11.864416
  O       5.885434     39.068793     12.458579
  C       7.551358     40.485184     11.598844
  O       8.200387     40.992256     12.742245
  C       7.967350     39.034132     11.360397
  O       9.308128     38.852367     11.718262
  C       7.000615     38.273841     12.270281
  N       6.550513     36.986652     11.715578
  C       5.248070     36.587466     11.480623
  N       5.160292     35.338749     11.093965
  C       6.450602     34.904805     11.051951
  C       7.000824     33.705130     10.604916
  N       6.310642     32.657272     10.171282
  N       8.358588     33.663731     10.646130
  C       9.137258     34.709648     11.045211
  N       8.676924     35.841932     11.463281
  C       7.334911     35.918835     11.434894
  H       0.990761     39.684180     10.863169
  H       5.516558     39.764209      9.860364
  H       5.496232     41.498640     10.151318
  H       5.751290     41.097047     12.609926
  H       7.763752     41.098895     10.717710
  H       9.098438     40.654276     12.694190
  H       7.788568     38.758889     10.320302
  H       9.787944     38.484451     10.972752
  H       7.493045     38.050822     13.223839
  H       4.414231     37.277323     11.551886
  H       5.331405     32.806960      9.982105
  H       6.766968     31.963657      9.602450
  H      10.204662     34.540547     10.974477
  H       8.821638     32.885562     10.191670
163
Coordinates from ORCA-job /data/Seafile/amp/al_surf/protonated_al_surf/frames/frame12/dry/amp_al_frame12_dry E -13417.887952073595
  Si      3.467008     33.803221      7.683596
  Si      3.499530     30.716906      7.834445
  O       2.070306     34.349283      8.292813
  O       2.183432     29.991954      8.468944
  O       3.600246     32.274758      8.296188
  O       3.462487     33.699939      6.041067
  O       3.471797     30.676518      6.192838
  Si      6.167018     26.086611      7.897263
  Si      8.826990     24.530308      7.907248
  O       4.797879     25.436473      8.488556
  O       7.475232     25.277077      8.431668
  O       8.808778     23.011168      8.495052
  O       6.200550     26.087933      6.251111
  O       8.778824     24.567906      6.262746
  Si      6.141554     29.150889      7.776982
  Si      6.161467     35.344377      7.432215
  Si      8.926302     33.765030      7.485354
  Si      8.902343     30.680839      7.669158
  O       4.861733     29.968179      8.363583
  O       4.806005     34.646570      8.067760
  O       7.438666     34.380828      7.771557
  O       7.495020     29.985560      8.135920
  O       6.235938     27.644072      8.382835
  O       8.854057     32.227538      8.181962
  O       5.898933     29.048075      6.157469
  O       5.931217     35.450970      5.813743
  O       9.172295     33.552984      5.883955
  O       9.028427     30.647893      6.040807
  Si      6.522491     38.384380      7.424361
  Si      9.071595     40.071798      7.790770
  O       5.176055     39.141234      7.562212
  O       7.793755     39.151495      8.185493
  O       6.471477     36.817544      8.005629
  O       8.926803     41.567127      8.450368
  O       7.137618     38.275022      5.881221
  O       9.212992     40.121620      6.152097
  Si     11.500356     26.034585      7.791557
  Si     14.164303     24.528362      7.872832
  O      10.148989     25.352972      8.400130
  O      12.852541     25.352044      8.383426
  O      13.953391     23.003231      8.406329
  O      11.429385     25.734536      6.175585
  O      14.196364     24.600546      6.228372
  Si     11.566023     29.210583      7.761463
  Al     11.677901     35.357521      7.723437
  Si     14.292275     33.735261      7.888391
  Si     14.221267     30.702264      7.829368
  O      10.177573     29.886644      8.310735
  O      10.103542     34.615269      8.136804
  O      13.053930     34.540127      8.490565
  O      12.897595     29.897956      8.395098
  O      11.509180     27.622171      8.108525
  O      14.396685     32.178375      8.467184
  O      11.588399     29.445367      6.137464
  O      11.955977     35.025596      6.010887
  O      14.115938     33.554883      6.259610
  O      13.993953     30.850280      6.210321
  Si     11.762025     38.623907      7.811521
  Si     14.460053     40.070357      7.885053
  O      10.433853     39.400345      8.398173
  O      13.112367     39.347394      8.434940
  O      11.706254     37.066553      8.116984
  O      14.637143     41.614888      8.400185
  O      11.854523     38.983923      6.197375
  O      14.467420     39.964006      6.242242
  Si     16.878370     25.987391      7.906216
  O      15.527382     25.228902      8.425226
  O      18.127259     25.102003      8.466872
  O      16.809297     26.005160      6.261848
  Si     16.935582     29.057083      7.821376
  Si     17.058541     35.303609      7.832128
  Si     19.694784     33.727322      7.867737
  Si     19.557774     30.643259      7.870035
  O      15.524242     29.774555      8.148456
  O      15.742844     34.449760      8.207337
  O      18.393657     34.542640      8.414695
  O      18.174142     29.945180      8.394712
  O      16.918279     27.534696      8.424582
  O      19.695459     32.177542      8.405909
  O      17.155876     28.853431      6.202474
  O      17.314925     35.368801      6.205412
  O      19.582159     33.642261      6.227214
  O      19.493549     30.696101      6.225974
  Si     17.032346     38.379109      7.841129
  O      15.804182     39.287902      8.408177
  O      18.502586     38.926537      8.305436
  O      16.966069     36.837681      8.383705
  O      16.895283     38.326784      6.202078
  O      20.744687     29.655766      8.397226
  O      21.119824     34.357646      8.358615
  H       4.074657     24.986772      8.036591
  H       1.410409     29.602015      8.036749
  H       1.410409     35.007985      8.036749
  H       4.074658     39.623228      8.036591
  H       8.948181     22.173255      8.038302
  H       8.948181     42.436745      8.038302
  H      14.277762     22.173204      8.038282
  H      14.277762     42.436796      8.038282
  H      18.960557     24.876228      8.036406
  H      18.960557     39.733772      8.036406
  H      21.624717     29.491420      8.036583
  H      21.624717     35.118580      8.036583
  H      13.317155     34.085477      5.965123
  H      11.188103     34.718750      5.522961
  H       9.014238     32.657351      5.562226
  H       9.867244     30.253003      5.744685
  H      12.389503     29.931120      5.857085
  H      14.036229     31.804014      5.957400
  H      13.600978     39.661135      5.908507
  H      11.022748     39.338411      5.846163
  H       8.544498     39.574629      5.736397
  H       6.720619     37.584736      5.339388
  H       5.184547     34.931459      5.493216
  H       3.365608     32.800193      5.704753
  H       4.191733     30.152079      5.812063
  H       6.067798     28.169997      5.789569
  H       6.957023     25.600504      5.892411
  H       9.608447     24.886724      5.873083
  H      12.274259     25.465671      5.789472
  H      14.993269     25.037653      5.890501
  H      16.960806     26.892244      5.895053
  H      17.803945     29.459873      5.816950
  H      19.504147     31.605850      5.887570
  H      18.873211     34.211106      5.880068
  H      17.098303     36.224841      5.810071
  H      16.114180     38.809776      5.885053
  P       2.890713     39.642230      9.975328
  O       2.913613     38.224617     10.347709
  O       3.159258     40.040292      8.524480
  O       1.488022     40.318993     10.326784
  O       3.863137     40.521080     10.909532
  C       5.243059     40.547562     10.601973
  C       6.058957     40.388525     11.857285
  O       5.868080     39.092396     12.456538
  C       7.542968     40.500791     11.591052
  O       8.187654     41.010680     12.729505
  C       7.961269     39.045079     11.363460
  O       9.306819     38.860020     11.721949
  C       6.987576     38.289994     12.277525
  N       6.544076     37.000027     11.728518
  C       5.245625     36.599417     11.491148
  N       5.159116     35.352793     11.111323
  C       6.447696     34.921054     11.071612
  C       6.995652     33.721870     10.623275
  N       6.303040     32.676760     10.189130
  N       8.351843     33.680735     10.659846
  C       9.129802     34.725151     11.056708
  N       8.671637     35.855905     11.476023
  C       7.330502     35.933150     11.450655
  H       0.996277     39.698247     10.858838
  H       5.503590     39.780862      9.870311
  H       5.483877     41.512959     10.151980
  H       5.739769     41.124758     12.596070
  H       7.757883     41.110708     10.708902
  H       9.091261     40.657323     12.698016
  H       7.783220     38.766520     10.326916
  H       9.786747     38.489995     10.976063
  H       7.475817     38.071836     13.233009
  H       4.413170     37.288638     11.553723
  H       5.322946     32.829344      9.998550
  H       6.756249     31.979751      9.612221
  H      10.195295     34.556035     10.981756
  H       8.813894     32.903214     10.198621
163
Coordinates from ORCA-job /data/Seafile/amp/al_surf/protonated_al_surf/frames/frame12/dry/amp_al_frame12_dry E -13417.888127929162
  Si      3.466584     33.802559      7.683220
  Si      3.499956     30.716371      7.834177
  O       2.070468     34.349237      8.294827
  O       2.183660     29.992177      8.468747
  O       3.600766     32.274223      8.296143
  O       3.460897     33.699483      6.041020
  O       3.472342     30.675714      6.192668
  Si      6.166813     26.087011      7.896724
  Si      8.826625     24.530194      7.906799
  O       4.796988     25.438325      8.488130
  O       7.474732     25.277047      8.431401
  O       8.807226     23.011325      8.494705
  O       6.200871     26.088321      6.250537
  O       8.778665     24.568147      6.262320
  Si      6.142247     29.151111      7.776711
  Si      6.162209     35.342463      7.430359
  Si      8.928290     33.764625      7.485900
  Si      8.903236     30.681181      7.667733
  O       4.862274     29.968212      8.363845
  O       4.806469     34.644983      8.066390
  O       7.439698     34.379736      7.770706
  O       7.496038     29.985726      8.135533
  O       6.236889     27.644624      8.382682
  O       8.855180     32.227289      8.181781
  O       5.899563     29.048199      6.157040
  O       5.932642     35.445450      5.811660
  O       9.175674     33.554074      5.884759
  O       9.029472     30.647791      6.039375
  Si      6.520626     38.382077      7.418036
  Si      9.073423     40.072034      7.785923
  O       5.173516     39.140942      7.556308
  O       7.794941     39.150637      8.175877
  O       6.470712     36.816407      8.002297
  O       8.927566     41.566719      8.446536
  O       7.133658     38.265562      5.873580
  O       9.219202     40.122701      6.148473
  Si     11.500056     26.034389      7.790635
  Si     14.164050     24.528188      7.872329
  O      10.148754     25.352763      8.399614
  O      12.852148     25.351958      8.382788
  O      13.953126     23.003086      8.405828
  O      11.428864     25.734083      6.174680
  O      14.196017     24.601133      6.227933
  Si     11.566416     29.210644      7.760209
  Al     11.679750     35.357411      7.725998
  Si     14.293366     33.734516      7.890471
  Si     14.221572     30.701985      7.829996
  O      10.177956     29.887152      8.309216
  O      10.105321     34.614742      8.138430
  O      13.055442     34.539462      8.493433
  O      12.897841     29.897489      8.394786
  O      11.508902     27.622226      8.107122
  O      14.397508     32.177738      8.468867
  O      11.589315     29.446193      6.136371
  O      11.958470     35.026814      6.013352
  O      14.116041     33.553769      6.261882
  O      13.993199     30.851028      6.211209
  Si     11.763131     38.622979      7.812696
  Si     14.460883     40.070094      7.886178
  O      10.434918     39.401022      8.396631
  O      13.113268     39.346648      8.436538
  O      11.706699     37.066008      8.120449
  O      14.637936     41.615132      8.400369
  O      11.858630     38.980777      6.198630
  O      14.468726     39.961427      6.243507
  Si     16.878193     25.986933      7.906200
  O      15.527138     25.228540      8.425204
  O      18.126661     25.100543      8.466023
  O      16.808299     26.005829      6.261927
  Si     16.935964     29.056611      7.822213
  Si     17.059435     35.303147      7.834618
  Si     19.695387     33.726636      7.869076
  Si     19.558231     30.642623      7.870835
  O      15.524374     29.773977      8.148806
  O      15.743834     34.449051      8.209701
  O      18.394522     34.542009      8.416955
  O      18.174554     29.944561      8.395755
  O      16.918644     27.534138      8.425222
  O      19.696506     32.176807      8.407240
  O      17.156124     28.853136      6.203281
  O      17.315252     35.367981      6.207866
  O      19.581085     33.641268      6.228756
  O      19.493236     30.695917      6.226831
  Si     17.032837     38.378523      7.842596
  O      15.805138     39.288081      8.409973
  O      18.503286     38.926387      8.306100
  O      16.966822     36.837280      8.386110
  O      16.894986     38.325073      6.203627
  O      20.745256     29.655224      8.397698
  O      21.120606     34.357304      8.358836
  H       4.074657     24.986772      8.036591
  H       1.410409     29.602015      8.036749
  H       1.410409     35.007985      8.036749
  H       4.074657     39.623228      8.036591
  H       8.948181     22.173255      8.038302
  H       8.948181     42.436745      8.038302
  H      14.277762     22.173204      8.038282
  H      14.277762     42.436796      8.038282
  H      18.960557     24.876228      8.036406
  H      18.960557     39.733772      8.036406
  H      21.624717     29.491420      8.036583
  H      21.624717     35.118580      8.036583
  H      13.315464     34.081281      5.968074
  H      11.190948     34.720670      5.524650
  H       9.019157     32.658789      5.561847
  H       9.868290     30.252619      5.743166
  H      12.391188     29.930846      5.856477
  H      14.033185     31.804766      5.958519
  H      13.603468     39.655393      5.909783
  H      11.028871     39.337107      5.845720
  H       8.537739     39.542075      5.725771
  H       6.733463     37.572561      5.338045
  H       5.186083     34.925293      5.491166
  H       3.364532     32.799804      5.704520
  H       4.192555     30.151631      5.811733
  H       6.068398     28.170250      5.788892
  H       6.957524     25.601158      5.892087
  H       9.608382     24.886738      5.872951
  H      12.273668     25.465522      5.788496
  H      14.992941     25.038030      5.890120
  H      16.959883     26.893042      5.895645
  H      17.803474     29.460095      5.817575
  H      19.504367     31.605621      5.888436
  H      18.872236     34.210419      5.882149
  H      17.097634     36.223476      5.812181
  H      16.114205     38.808085      5.886218
  P       2.890315     39.641503      9.969414
  O       2.900116     38.218020     10.345856
  O       3.159948     40.039350      8.521624
  O       1.492062     40.324188     10.316492
  O       3.864289     40.523637     10.898279
  C       5.236447     40.554458     10.592890
  C       6.049198     40.390091     11.849152
  O       5.851291     39.090095     12.443630
  C       7.538850     40.504829     11.591394
  O       8.182169     41.004120     12.739838
  C       7.951678     39.048580     11.357404
  O       9.297583     38.856582     11.719486
  C       6.971643     38.289475     12.266637
  N       6.530135     36.999063     11.717187
  C       5.232202     36.594739     11.478801
  N       5.149398     35.346357     11.103074
  C       6.439737     34.917574     11.065017
  C       6.992514     33.718608     10.619437
  N       6.303153     32.667152     10.187118
  N       8.350209     33.681931     10.659331
  C       9.124997     34.730321     11.056668
  N       8.661407     35.861358     11.473063
  C       7.319506     35.933819     11.444327
  H       0.986933     39.694118     10.853424
  H       5.494367     39.790465      9.859721
  H       5.477495     41.522298     10.149372
  H       5.729312     41.122767     12.590477
  H       7.763250     41.123526     10.712163
  H       9.086956     40.647615     12.711690
  H       7.773278     38.778427     10.318328
  H       9.779058     38.488787     10.973417
  H       7.457813     38.069636     13.224539
  H       4.398462     37.281490     11.539767
  H       5.321908     32.815465      9.996342
  H       6.760407     31.973602      9.612355
  H      10.191228     34.563612     10.985923
  H       8.816094     32.903739     10.199744
163
Coordinates from ORCA-job /data/Seafile/amp/al_surf/protonated_al_surf/frames/frame12/dry/amp_al_frame12_dry E -13417.888056679471
  Si      3.466123     33.805703      7.680637
  Si      3.499333     30.719000      7.831986
  O       2.069711     34.353027      8.290078
  O       2.184235     29.993641      8.468401
  O       3.600451     32.277067      8.293250
  O       3.460696     33.701271      6.038253
  O       3.469768     30.677065      6.190544
  Si      6.166478     26.087844      7.894414
  Si      8.826442     24.531019      7.905655
  O       4.797044     25.439053      8.486920
  O       7.474479     25.278265      8.429134
  O       8.807166     23.012210      8.494488
  O       6.200160     26.087134      6.248130
  O       8.778383     24.567679      6.261128
  Si      6.141186     29.152204      7.769757
  Si      6.162359     35.344570      7.426951
  Si      8.928966     33.766295      7.477692
  Si      8.903102     30.682367      7.657607
  O       4.862625     29.970064      8.359073
  O       4.806960     34.647012      8.062749
  O       7.440698     34.380969      7.764245
  O       7.495657     29.986796      8.125432
  O       6.236876     27.646134      8.377676
  O       8.855061     32.228060      8.172153
  O       5.895037     29.046705      6.150693
  O       5.929793     35.452951      5.808384
  O       9.175915     33.555803      5.876078
  O       9.031211     30.648625      6.029488
  Si      6.525394     38.382108      7.422228
  Si      9.076813     40.068617      7.792167
  O       5.177990     39.140908      7.557988
  O       7.799441     39.147361      8.184035
  O       6.473335     36.816363      8.004046
  O       8.930888     41.560817      8.455853
  O       7.145190     38.261461      5.877577
  O       9.217687     40.123953      6.153509
  Si     11.499880     26.034796      7.788252
  Si     14.163793     24.528051      7.871352
  O      10.148601     25.353678      8.397650
  O      12.851892     25.352345      8.380592
  O      13.952799     23.002979      8.405120
  O      11.428823     25.732724      6.172417
  O      14.196246     24.600316      6.226838
  Si     11.566219     29.211100      7.754541
  Al     11.682282     35.356279      7.718523
  Si     14.295803     33.733574      7.882855
  Si     14.222617     30.701260      7.823637
  O      10.177308     29.888406      8.301633
  O      10.106523     34.615237      8.131176
  O      13.057977     34.538301      8.485520
  O      12.898174     29.897691      8.388511
  O      11.508556     27.622949      8.102799
  O      14.399402     32.176938      8.461945
  O      11.589256     29.444903      6.130534
  O      11.960888     35.024237      6.006069
  O      14.119144     33.552187      6.254198
  O      13.993289     30.849262      6.204701
  Si     11.767585     38.622566      7.807826
  Si     14.463713     40.070551      7.883218
  O      10.440147     39.397499      8.396300
  O      13.117327     39.345748      8.432243
  O      11.710431     37.064568      8.112121
  O      14.639098     41.615606      8.399211
  O      11.859971     38.985829      6.193717
  O      14.471966     39.963502      6.240411
  Si     16.878240     25.986304      7.905316
  O      15.526914     25.228186      8.423870
  O      18.126748     25.100500      8.466041
  O      16.808682     26.003815      6.261007
  Si     16.937152     29.055546      7.818891
  Si     17.061872     35.302674      7.830126
  Si     19.697066     33.725603      7.867344
  Si     19.559788     30.641278      7.868747
  O      15.525325     29.773293      8.143686
  O      15.745970     34.448263      8.203170
  O      18.396066     34.541017      8.413840
  O      18.175715     29.943402      8.392624
  O      16.918928     27.533644      8.423019
  O      19.697915     32.175422      8.404748
  O      17.159764     28.850350      6.200360
  O      17.320604     35.368952      6.203825
  O      19.584441     33.640227      6.226870
  O      19.495781     30.694950      6.224605
  Si     17.034979     38.378516      7.839982
  O      15.807528     39.287924      8.406254
  O      18.504425     38.927083      8.304763
  O      16.968770     36.836710      8.382080
  O      16.897719     38.326105      6.200754
  O      20.746544     29.654445      8.396370
  O      21.121563     34.357114      8.358534
  H       4.074657     24.986772      8.036591
  H       1.410409     29.602015      8.036749
  H       1.410409     35.007985      8.036749
  H       4.074657     39.623228      8.036591
  H       8.948181     22.173255      8.038302
  H       8.948181     42.436745      8.038302
  H      14.277762     22.173204      8.038282
  H      14.277762     42.436796      8.038282
  H      18.960557     24.876228      8.036406
  H      18.960557     39.733772      8.036406
  H      21.624717     29.491420      8.036583
  H      21.624717     35.118580      8.036583
  H      13.319531     34.081283      5.959728
  H      11.193432     34.718866      5.517469
  H       9.018244     32.659978      5.553001
  H       9.870457     30.253866      5.734458
  H      12.390831     29.929728      5.850449
  H      14.032984     31.802737      5.951373
  H      13.607255     39.657291      5.906400
  H      11.028759     39.341529      5.843256
  H       8.544471     39.556352      5.735493
  H       6.755170     37.575446      5.343146
  H       5.181661     34.934503      5.487942
  H       3.363784     32.801666      5.702660
  H       4.189786     30.153423      5.809309
  H       6.062966     28.168138      5.784264
  H       6.956693     25.599672      5.890433
  H       9.607990     24.885933      5.871761
  H      12.273652     25.463795      5.787145
  H      14.993023     25.036999      5.889254
  H      16.960293     26.890612      5.894317
  H      17.807833     29.456664      5.815845
  H      19.507163     31.604757      5.886769
  H      18.876122     34.209185      5.879789
  H      17.103845     36.224706      5.809503
  H      16.116973     38.808601      5.883627
  P       2.897421     39.629904      9.975423
  O       2.912419     38.190881     10.356034
  O       3.162134     40.036949      8.524900
  O       1.489324     40.315123     10.336883
  O       3.870067     40.505935     10.909419
  C       5.254469     40.532956     10.598134
  C       6.069203     40.365049     11.864263
  O       5.878926     39.065700     12.452874
  C       7.551351     40.488291     11.602418
  O       8.201112     40.990833     12.748618
  C       7.964043     39.037476     11.360043
  O       9.304720     38.854756     11.718823
  C       6.994974     38.273576     12.267716
  N       6.547938     36.983887     11.713831
  C       5.245530     36.580779     11.479283
  N       5.161469     35.329374     11.096474
  C       6.453731     34.898575     11.055791
  C       7.007654     33.698400     10.610022
  N       6.319098     32.644951     10.177430
  N       8.366771     33.661831     10.651375
  C       9.142668     34.712329     11.049903
  N       8.678004     35.845090     11.466422
  C       7.335322     35.917180     11.436981
  H       0.989803     39.687581     10.872026
  H       5.519363     39.765462      9.857239
  H       5.501671     41.506616     10.147627
  H       5.750239     41.094223     12.613685
  H       7.766965     41.106006     10.723095
  H       9.096049     40.649766     12.699659
  H       7.784630     38.766159     10.317548
  H       9.783986     38.487667     10.972578
  H       7.485981     38.051925     13.223718
  H       4.409776     37.269497     11.547503
  H       5.339183     32.791275      9.985939
  H       6.777157     31.950235      9.610290
  H      10.210827     34.546768     10.980080
  H       8.833240     32.884635     10.195159
163
Coordinates from ORCA-job /data/Seafile/amp/al_surf/protonated_al_surf/frames/frame12/dry/amp_al_frame12_dry E -13417.888309508235
  Si      3.466130     33.804251      7.689067
  Si      3.499753     30.717881      7.838754
  O       2.067533     34.351812      8.294587
  O       2.181854     29.993559      8.470859
  O       3.600044     32.275948      8.301298
  O       3.464434     33.700596      6.046575
  O       3.474769     30.677130      6.197222
  Si      6.166783     26.087566      7.899859
  Si      8.826467     24.530013      7.910976
  O       4.795672     25.438774      8.488891
  O       7.474012     25.276167      8.435039
  O       8.806158     23.010000      8.496298
  O       6.202730     26.090120      6.253720
  O       8.780467     24.570620      6.266545
  Si      6.142031     29.151929      7.782507
  Si      6.161879     35.345140      7.441649
  Si      8.927122     33.765700      7.496148
  Si      8.903209     30.681200      7.678589
  O       4.861216     29.968129      8.368669
  O       4.805447     34.647554      8.074752
  O       7.438898     34.381134      7.782394
  O       7.495489     29.986087      8.143815
  O       6.236486     27.644417      8.387109
  O       8.854340     32.228086      8.191560
  O       5.901651     29.049743      6.162289
  O       5.934002     35.452736      5.822510
  O       9.174234     33.554858      5.894410
  O       9.032778     30.647157      6.050316
  Si      6.528070     38.383883      7.435172
  Si      9.076336     40.069000      7.800658
  O       5.179399     39.143923      7.565066
  O       7.799622     39.149306      8.197287
  O       6.473205     36.818220      8.018152
  O       8.928877     41.564520      8.456566
  O       7.148895     38.268679      5.891589
  O       9.215629     40.116476      6.161579
  Si     11.499656     26.034451      7.800002
  Si     14.163664     24.528190      7.877458
  O      10.148355     25.351413      8.406865
  O      12.851932     25.350877      8.390341
  O      13.952739     23.001744      8.407389
  O      11.428829     25.738402      6.183555
  O      14.194527     24.604373      6.233175
  Si     11.566263     29.210137      7.773788
  Al     11.680296     35.356389      7.735618
  Si     14.293989     33.733449      7.900922
  Si     14.221794     30.700998      7.843431
  O      10.178096     29.886949      8.322297
  O      10.104276     34.615820      8.149395
  O      13.055712     34.538558      8.502767
  O      12.897978     29.896719      8.408972
  O      11.508063     27.621563      8.119753
  O      14.398277     32.177094      8.481243
  O      11.590457     29.445719      6.150047
  O      11.958933     35.022520      6.023430
  O      14.116787     33.551574      6.272527
  O      13.992622     30.849669      6.224672
  Si     11.766989     38.623085      7.818881
  Si     14.463563     40.070439      7.888529
  O      10.439978     39.399648      8.406975
  O      13.117460     39.347029      8.440539
  O      11.710321     37.065859      8.126047
  O      14.639715     41.616740      8.400675
  O      11.858754     38.981014      6.204319
  O      14.469722     39.959859      6.246062
  Si     16.877958     25.986512      7.912005
  O      15.527425     25.226913      8.430824
  O      18.127533     25.099011      8.468411
  O      16.805898     26.008202      6.267914
  Si     16.935808     29.055894      7.832622
  Si     17.059896     35.302372      7.842542
  Si     19.695696     33.726362      7.874056
  Si     19.557791     30.642312      7.876080
  O      15.524639     29.772911      8.161880
  O      15.744469     34.448469      8.219097
  O      18.395812     34.541891      8.423946
  O      18.175446     29.943731      8.404204
  O      16.919374     27.532829      8.434033
  O      19.698046     32.176407      8.412344
  O      17.152985     28.853898      6.213472
  O      17.313990     35.365840      6.215831
  O      19.578354     33.640279      6.233942
  O      19.488492     30.696326      6.232257
  Si     17.034390     38.377909      7.846086
  O      15.807834     39.289016      8.412488
  O      18.504985     38.927334      8.306877
  O      16.968414     36.837325      8.392253
  O      16.894576     38.321480      6.207203
  O      20.746564     29.654254      8.398577
  O      21.122289     34.357609      8.360407
  H       4.074657     24.986772      8.036591
  H       1.410409     29.602015      8.036749
  H       1.410409     35.007985      8.036749
  H       4.074657     39.623228      8.036591
  H       8.948181     22.173255      8.038302
  H       8.948181     42.436745      8.038302
  H      14.277762     22.173204      8.038282
  H      14.277762     42.436796      8.038282
  H      18.960557     24.876228      8.036406
  H      18.960557     39.733772      8.036406
  H      21.624717     29.491420      8.036583
  H      21.624717     35.118580      8.036583
  H      13.316340     34.080062      5.978460
  H      11.191336     34.717396      5.535029
  H       9.017219     32.658855      5.572136
  H       9.872258     30.252437      5.756249
  H      12.392202     29.930595      5.870543
  H      14.030825     31.803598      5.971774
  H      13.604473     39.653050      5.913681
  H      11.028332     39.336143      5.852352
  H       8.541885     39.539766      5.744032
  H       6.734543     37.579753      5.353400
  H       5.187453     34.934244      5.500347
  H       3.368752     32.801460      5.710356
  H       4.195674     30.153435      5.817799
  H       6.070598     28.172200      5.794381
  H       6.959385     25.603586      5.895369
  H       9.610314     24.889561      5.878332
  H      12.273317     25.471032      5.796644
  H      14.990448     25.041900      5.895095
  H      16.957095     26.895470      5.902317
  H      17.799041     29.461054      5.827002
  H      19.498782     31.605633      5.893686
  H      18.869434     34.209130      5.887845
  H      17.096105     36.220421      5.819816
  H      16.113676     38.803296      5.889640
  P       2.882287     39.631232      9.964243
  O       2.910607     38.208401     10.331844
  O       3.154108     40.036956      8.514584
  O       1.469494     40.303350     10.317837
  O       3.844217     40.509156     10.906004
  C       5.233733     40.539535     10.600289
  C       6.047437     40.382478     11.866449
  O       5.865604     39.089691     12.466756
  C       7.530622     40.498854     11.602721
  O       8.170548     41.014607     12.743844
  C       7.958194     39.047147     11.374852
  O       9.301575     38.870864     11.735436
  C       6.988996     38.292192     12.288768
  N       6.549640     37.001256     11.736879
  C       5.250814     36.594972     11.495878
  N       5.170870     35.345839     11.111442
  C       6.463776     34.919700     11.074896
  C       7.019798     33.724419     10.623410
  N       6.331752     32.676646     10.178064
  N       8.378641     33.688906     10.668455
  C       9.151901     34.738213     11.073028
  N       8.684648     35.867494     11.492515
  C       7.341968     35.937390     11.461431
  H       0.969966     39.678718     10.844477
  H       5.506349     39.773630      9.861242
  H       5.472456     41.508696     10.149063
  H       5.721619     41.120108     12.607072
  H       7.744229     41.103309     10.717500
  H       9.072175     40.666461     12.711088
  H       7.785023     38.764186     10.335465
  H       9.781919     38.496394     10.988007
  H       7.478180     38.076941     13.247190
  H       4.411846     37.282989     11.558789
  H       5.350751     32.825328      9.983448
  H       6.789990     31.982808      9.599988
  H      10.221259     34.575052     11.003320
  H       8.846662     32.914130     10.209092
163
Coordinates from ORCA-job /data/Seafile/amp/al_surf/protonated_al_surf/frames/frame12/dry/amp_al_frame12_dry E -13417.888177964165
  Si      3.467243     33.803479      7.681564
  Si      3.499363     30.717403      7.832690
  O       2.071421     34.349256      8.293009
  O       2.182700     29.994862      8.467563
  O       3.601251     32.274931      8.293631
  O       3.461327     33.700371      6.039165
  O       3.471820     30.675557      6.190986
  Si      6.166391     26.088252      7.896918
  Si      8.825663     24.530884      7.907334
  O       4.795533     25.441461      8.487699
  O       7.473706     25.277622      8.431615
  O       8.805235     23.011699      8.494404
  O       6.200440     26.088681      6.250729
  O       8.778193     24.569173      6.262698
  Si      6.141963     29.152302      7.776240
  Si      6.162297     35.343853      7.431203
  Si      8.927939     33.766478      7.484037
  Si      8.902559     30.682601      7.667665
  O       4.861375     29.968689      8.362727
  O       4.806578     34.645605      8.064810
  O       7.440201     34.381543      7.769711
  O       7.494960     29.987448      8.135279
  O       6.237136     27.645763      8.382241
  O       8.854134     32.228831      8.180874
  O       5.899210     29.049008      6.156755
  O       5.932706     35.451856      5.812696
  O       9.174696     33.554749      5.883025
  O       9.029570     30.648543      6.039537
  Si      6.521727     38.381634      7.424567
  Si      9.070743     40.070561      7.787143
  O       5.177805     39.140133      7.560771
  O       7.793938     39.149518      8.184992
  O       6.469370     36.815885      8.005884
  O       8.928159     41.567140      8.445036
  O       7.139443     38.269611      5.883214
  O       9.207651     40.114577      6.148406
  Si     11.499177     26.035329      7.791200
  Si     14.163180     24.528916      7.872029
  O      10.147981     25.353019      8.399803
  O      12.851521     25.352620      8.382439
  O      13.951848     23.003553      8.404930
  O      11.428022     25.734873      6.175071
  O      14.195250     24.601963      6.227541
  Si     11.565626     29.211636      7.761211
  Al     11.680351     35.357993      7.722341
  Si     14.293837     33.734496      7.887338
  Si     14.221474     30.701919      7.828582
  O      10.177198     29.888862      8.309813
  O      10.105030     34.616367      8.135938
  O      13.055764     34.539310      8.489620
  O      12.897744     29.897853      8.394438
  O      11.507618     27.623012      8.107881
  O      14.398102     32.177797      8.466356
  O      11.588188     29.447189      6.137313
  O      11.958425     35.025166      6.009997
  O      14.116834     33.553559      6.258538
  O      13.992808     30.850475      6.209704
  Si     11.761998     38.623671      7.810549
  Si     14.460463     40.070065      7.884294
  O      10.433836     39.401386      8.395170
  O      13.112853     39.346757      8.434111
  O      11.706914     37.066415      8.116355
  O      14.638707     41.614682      8.398540
  O      11.855228     38.984124      6.196524
  O      14.467317     39.962691      6.241505
  Si     16.877575     25.987046      7.905020
  O      15.526586     25.228770      8.424214
  O      18.125589     25.099858      8.464556
  O      16.807930     26.005889      6.260592
  Si     16.935909     29.056636      7.820143
  Si     17.059843     35.303221      7.831292
  Si     19.695424     33.726311      7.867008
  Si     19.558257     30.642378      7.868873
  O      15.524562     29.773954      8.147023
  O      15.744255     34.449343      8.206003
  O      18.394602     34.541692      8.414055
  O      18.174591     29.944553      8.393381
  O      16.918720     27.534143      8.423264
  O      19.696841     32.176408      8.404862
  O      17.157067     28.852610      6.201133
  O      17.317478     35.369133      6.204537
  O      19.582018     33.641345      6.226449
  O      19.493757     30.695902      6.224771
  Si     17.032478     38.378331      7.840342
  O      15.805254     39.288350      8.407244
  O      18.503402     38.925262      8.303435
  O      16.966943     36.837157      8.383195
  O      16.894195     38.325393      6.201411
  O      20.744386     29.654062      8.395977
  O      21.120486     34.356593      8.357663
  H       4.074657     24.986772      8.036591
  H       1.410409     29.602015      8.036749
  H       1.410409     35.007985      8.036749
  H       4.074657     39.623228      8.036591
  H       8.948181     22.173255      8.038302
  H       8.948181     42.436745      8.038302
  H      14.277762     22.173204      8.038282
  H      14.277762     42.436796      8.038282
  H      18.960557     24.876228      8.036406
  H      18.960557     39.733772      8.036406
  H      21.624717     29.491420      8.036583
  H      21.624717     35.118580      8.036583
  H      13.317541     34.083480      5.964651
  H      11.190100     34.720079      5.521481
  H       9.016945     32.659686      5.559997
  H       9.869129     30.253594      5.744070
  H      12.390417     29.932184      5.857809
  H      14.032930     31.804577      5.957730
  H      13.600998     39.657905      5.908647
  H      11.023316     39.338775      5.845097
  H       8.537305     39.544214      5.738104
  H       6.737398     37.579218      5.342211
  H       5.185415     34.933336      5.491240
  H       3.364594     32.800189      5.703070
  H       4.192573     30.151690      5.810715
  H       6.067880     28.170521      5.789149
  H       6.957323     25.600990      5.892850
  H       9.608250     24.888323      5.873911
  H      12.273261     25.466339      5.789137
  H      14.992586     25.039067      5.890173
  H      16.959659     26.893536      5.894735
  H      17.804923     29.459800      5.815957
  H      19.505349     31.606206      5.887148
  H      18.873018     34.211010      5.880136
  H      17.100035     36.225305      5.809540
  H      16.112902     38.808911      5.885004
  P       2.889109     39.641364      9.970907
  O       2.904666     38.218404     10.351673
  O       3.160256     40.037247      8.520652
  O       1.491106     40.321149     10.317569
  O       3.863614     40.524770     10.899382
  C       5.235050     40.553424     10.593548
  C       6.047006     40.390550     11.849457
  O       5.851202     39.090669     12.440772
  C       7.534830     40.508019     11.592385
  O       8.178030     41.007580     12.742255
  C       7.946902     39.053808     11.355744
  O       9.292245     38.865428     11.717141
  C       6.968637     38.291770     12.262927
  N       6.524301     37.001456     11.711972
  C       5.226029     36.599721     11.476302
  N       5.140664     35.352258     11.100049
  C       6.429254     34.920897     11.060666
  C       6.978863     33.721581     10.618551
  N       6.289544     32.673279     10.194099
  N       8.334265     33.681917     10.654667
  C       9.110404     34.727764     11.045154
  N       8.651701     35.858699     11.460183
  C       7.310740     35.934652     11.436047
  H       0.997852     39.698404     10.851666
  H       5.492000     39.790446      9.861989
  H       5.475727     41.519754     10.149416
  H       5.727184     41.120973     12.591612
  H       7.757617     41.128391     10.715246
  H       9.082509     40.652620     12.714696
  H       7.767774     38.783808     10.317453
  H       9.772693     38.497344     10.973366
  H       7.454337     38.070374     13.219180
  H       4.394545     37.287547     11.538205
  H       5.309875     32.824014     10.008285
  H       6.744808     31.979752      9.626240
  H      10.174708     34.559001     10.970789
  H       8.796809     32.905356     10.199082
163
Coordinates from ORCA-job /data/Seafile/amp/al_surf/protonated_al_surf/frames/frame12/dry/amp_al_frame12_dry E -13417.888434088738
  Si      3.467282     33.803418      7.682018
  Si      3.499420     30.716938      7.831169
  O       2.071356     34.349776      8.293907
  O       2.183014     29.995262      8.468087
  O       3.601600     32.274674      8.292878
  O       3.461340     33.701358      6.039786
  O       3.469483     30.674887      6.189812
  Si      6.165920     26.088374      7.893145
  Si      8.825418     24.530839      7.904096
  O       4.795363     25.442864      8.486110
  O       7.473405     25.277870      8.427729
  O       8.805278     23.012425      8.493429
  O       6.198903     26.087563      6.246954
  O       8.777473     24.567017      6.259649
  Si      6.142234     29.152106      7.769453
  Si      6.162096     35.344986      7.429749
  Si      8.928810     33.766112      7.476069
  Si      8.904064     30.682061      7.657835
  O       4.862512     29.968262      8.358497
  O       4.807557     34.645383      8.064862
  O       7.440765     34.380723      7.764104
  O       7.496659     29.986599      8.125416
  O       6.238239     27.646193      8.376896
  O       8.856058     32.228478      8.171379
  O       5.896168     29.047592      6.150422
  O       5.929073     35.454977      5.811718
  O       9.174982     33.555790      5.874994
  O       9.031922     30.648321      6.029765
  Si      6.525258     38.382917      7.422419
  Si      9.075975     40.071068      7.786947
  O       5.181069     39.146686      7.556434
  O       7.797969     39.150714      8.181635
  O       6.473761     36.817439      8.006463
  O       8.933616     41.564811      8.449647
  O       7.141747     38.262879      5.877944
  O       9.215029     40.122542      6.148606
  Si     11.499228     26.034497      7.785610
  Si     14.163311     24.527916      7.869184
  O      10.148012     25.353430      8.395504
  O      12.851326     25.352202      8.378030
  O      13.951820     23.003414      8.404027
  O      11.428087     25.732294      6.169710
  O      14.195800     24.599789      6.224747
  Si     11.566686     29.210701      7.752757
  Al     11.682447     35.355746      7.716392
  Si     14.295377     33.732464      7.881034
  Si     14.222724     30.700448      7.821536
  O      10.178691     29.888253      8.301272
  O      10.106221     34.615597      8.128889
  O      13.057080     34.536869      8.483935
  O      12.898709     29.896847      8.386687
  O      11.508050     27.622596      8.100740
  O      14.399743     32.176077      8.460099
  O      11.589765     29.445361      6.128663
  O      11.960982     35.022502      6.004189
  O      14.118305     33.551297      6.252442
  O      13.994353     30.849042      6.202602
  Si     11.766281     38.622596      7.805916
  Si     14.463054     40.070701      7.881580
  O      10.438175     39.397885      8.393087
  O      13.116021     39.346007      8.430242
  O      11.711668     37.064417      8.109484
  O      14.639416     41.614955      8.398597
  O      11.859865     38.985117      6.192200
  O      14.471069     39.964831      6.238766
  Si     16.878029     25.985793      7.902772
  O      15.526574     25.228060      8.421670
  O      18.125319     25.098988      8.463932
  O      16.809187     26.003579      6.258533
  Si     16.937159     29.055158      7.815984
  Si     17.061441     35.302297      7.827564
  Si     19.696948     33.725461      7.865068
  Si     19.559495     30.641171      7.866573
  O      15.525183     29.772271      8.141491
  O      15.745551     34.447535      8.200827
  O      18.395729     34.541019      8.411545
  O      18.175375     29.943276      8.390080
  O      16.919269     27.533276      8.420287
  O      19.697914     32.175365      8.402563
  O      17.159721     28.850315      6.197333
  O      17.320276     35.368875      6.201233
  O      19.584644     33.640548      6.224628
  O      19.495842     30.694416      6.222515
  Si     17.034370     38.377817      7.838223
  O      15.807050     39.287954      8.404414
  O      18.504108     38.925329      8.303486
  O      16.968173     36.836075      8.380199
  O      16.897471     38.325102      6.199111
  O      20.744885     29.653453      8.395479
  O      21.121526     34.355849      8.357067
  H       4.074657     24.986772      8.036591
  H       1.410409     29.602015      8.036749
  H       1.410409     35.007985      8.036749
  H       4.074657     39.623228      8.036591
  H       8.948181     22.173255      8.038302
  H       8.948181     42.436745      8.038302
  H      14.277762     22.173204      8.038282
  H      14.277762     42.436796      8.038282
  H      18.960557     24.876228      8.036406
  H      18.960557     39.733772      8.036406
  H      21.624717     29.491420      8.036583
  H      21.624717     35.118580      8.036583
  H      13.317562     34.078888      5.958590
  H      11.193037     34.717509      5.515234
  H       9.019417     32.659940      5.552324
  H       9.871838     30.254131      5.734764
  H      12.391775     29.930266      5.848888
  H      14.035787     31.802850      5.949727
  H      13.605516     39.659908      5.904718
  H      11.029467     39.342109      5.840961
  H       8.538466     39.554933      5.732531
  H       6.753731     37.577352      5.340696
  H       5.182575     34.934684      5.490678
  H       3.364871     32.801883      5.702933
  H       4.190145     30.151694      5.808738
  H       6.063824     28.168929      5.783424
  H       6.955459     25.600158      5.888741
  H       9.607120     24.885640      5.870192
  H      12.272991     25.462730      5.784557
  H      14.992888     25.036555      5.887067
  H      16.961359     26.890603      5.892034
  H      17.807978     29.456937      5.812842
  H      19.507721     31.604373      5.884515
  H      18.876308     34.210092      5.877633
  H      17.103864     36.225232      5.806930
  H      16.116969     38.808498      5.881659
  P       2.884538     39.626725      9.965686
  O       2.907645     38.198472     10.339123
  O       3.156148     40.033642      8.519864
  O       1.471621     40.295244     10.311055
  O       3.847140     40.509138     10.905695
  C       5.228099     40.545949     10.598820
  C       6.042125     40.381799     11.858387
  O       5.853831     39.080359     12.448974
  C       7.527301     40.505600     11.594475
  O       8.175015     41.010999     12.735388
  C       7.947291     39.052405     11.357349
  O       9.293203     38.871350     11.718333
  C       6.975498     38.286916     12.266606
  N       6.537967     36.994524     11.717768
  C       5.239753     36.586420     11.485776
  N       5.158564     35.336775     11.110023
  C       6.450458     34.911325     11.068410
  C       7.003243     33.710454     10.623075
  N       6.312010     32.656933     10.194754
  N       8.361284     33.676833     10.657864
  C       9.135755     34.729832     11.050035
  N       8.671320     35.861859     11.466980
  C       7.329192     35.930778     11.443539
  H       0.967534     39.659248     10.837985
  H       5.496964     39.783329      9.861291
  H       5.465413     41.520241     10.153470
  H       5.720458     41.111736     12.603359
  H       7.741395     41.124222     10.715808
  H       9.074538     40.669758     12.687952
  H       7.769797     38.779456     10.318829
  H       9.775304     38.499210     10.975617
  H       7.464894     38.069165     13.221559
  H       4.404663     37.271313     11.549528
  H       5.331096     32.803317     10.007904
  H       6.764979     31.955215      9.617961
  H      10.202834     34.567248     10.973864
  H       8.827228     32.895966     10.196909
163
Coordinates from ORCA-job /data/Seafile/amp/al_surf/protonated_al_surf/frames/frame12/dry/amp_al_frame12_dry E -13417.888142676562
  Si      3.465678     33.806530      7.684270
  Si      3.498895     30.720134      7.835159
  O       2.069599     34.355536      8.293719
  O       2.180950     29.997866      8.469364
  O       3.600847     32.278190      8.296495
  O       3.459146     33.702022      6.041852
  O       3.471790     30.676992      6.193664
  Si      6.165199     26.089873      7.897233
  Si      8.824065     24.531142      7.909203
  O       4.792999     25.444479      8.487339
  O       7.471643     25.277634      8.432845
  O       8.802523     23.010856      8.494672
  O       6.200599     26.089946      6.251030
  O       8.778320     24.571381      6.264706
  Si      6.140934     29.154133      7.776015
  Si      6.162104     35.346059      7.429937
  Si      8.929080     33.767418      7.484813
  Si      8.902714     30.683581      7.667887
  O       4.860758     29.969978      8.363943
  O       4.806612     34.649278      8.065526
  O       7.440345     34.382931      7.769274
  O       7.494954     29.988657      8.134869
  O       6.237135     27.647409      8.382500
  O       8.854392     32.230045      8.180808
  O       5.898246     29.050017      6.156072
  O       5.931512     35.451981      5.810814
  O       9.177648     33.555915      5.883191
  O       9.033289     30.647508      6.039807
  Si      6.528672     38.385115      7.425247
  Si      9.081493     40.068985      7.793854
  O       5.182111     39.146551      7.561131
  O       7.804452     39.147219      8.186401
  O       6.473440     36.819071      8.005938
  O       8.936621     41.561684      8.456488
  O       7.144904     38.269904      5.880849
  O       9.222931     40.125072      6.155786
  Si     11.497752     26.034983      7.796697
  Si     14.161944     24.528153      7.875277
  O      10.146443     25.352238      8.404203
  O      12.850064     25.351423      8.387190
  O      13.951085     23.001810      8.405724
  O      11.426808     25.737464      6.180313
  O      14.192931     24.604149      6.230961
  Si     11.564952     29.210947      7.766885
  Al     11.684232     35.355475      7.725859
  Si     14.296926     33.731682      7.892916
  Si     14.222264     30.699513      7.836306
  O      10.176529     29.889520      8.313661
  O      10.106582     34.616912      8.138715
  O      13.058441     34.536500      8.494167
  O      12.897404     29.896673      8.401691
  O      11.505782     27.622642      8.114581
  O      14.400411     32.175567      8.473687
  O      11.589837     29.445324      6.143168
  O      11.963712     35.021122      6.013955
  O      14.120449     33.549135      6.264397
  O      13.992525     30.847650      6.217570
  Si     11.771282     38.621928      7.811096
  Si     14.466726     40.070888      7.884502
  O      10.443905     39.396628      8.399348
  O      13.120981     39.345697      8.434626
  O      11.714551     37.064213      8.117249
  O      14.641586     41.616738      8.398688
  O      11.864223     38.982039      6.196723
  O      14.474859     39.961711      6.241967
  Si     16.876974     25.985041      7.909405
  O      15.525967     25.226475      8.428396
  O      18.125403     25.096107      8.465817
  O      16.804644     26.006417      6.265301
  Si     16.936359     29.054236      7.828236
  Si     17.062363     35.301330      7.837890
  Si     19.697488     33.724568      7.871474
  Si     19.558703     30.640345      7.873243
  O      15.524586     29.771016      8.155969
  O      15.746823     34.446994      8.212631
  O      18.397452     34.540281      8.420386
  O      18.175616     29.942291      8.400240
  O      16.919749     27.531534      8.430492
  O      19.699662     32.174419      8.409378
  O      17.155159     28.851254      6.209221
  O      17.318498     35.365709      6.211374
  O      19.581009     33.638114      6.231328
  O      19.490421     30.694430      6.229355
  Si     17.036446     38.376836      7.842727
  O      15.810847     39.289256      8.408465
  O      18.506801     38.925738      8.304345
  O      16.970137     36.836003      8.388228
  O      16.897076     38.320258      6.203827
  O      20.746281     29.652320      8.397293
  O      21.123349     34.356423      8.359027
  H       4.074657     24.986772      8.036591
  H       1.410409     29.602015      8.036749
  H       1.410409     35.007985      8.036749
  H       4.074657     39.623228      8.036591
  H       8.948181     22.173255      8.038302
  H       8.948181     42.436745      8.038302
  H      14.277762     22.173204      8.038282
  H      14.277762     42.436796      8.038282
  H      18.960557     24.876228      8.036406
  H      18.960557     39.733772      8.036406
  H      21.624717     29.491420      8.036583
  H      21.624717     35.118580      8.036583
  H      13.320531     34.077981      5.969701
  H      11.196201     34.717145      5.525057
  H       9.020388     32.659795      5.560644
  H       9.872807     30.252134      5.746938
  H      12.392163     29.929313      5.864092
  H      14.031816     31.801332      5.964128
  H      13.610574     39.654008      5.908369
  H      11.033466     39.335562      5.844110
  H       8.549460     39.546804      5.736723
  H       6.718089     37.581539      5.341561
  H       5.184470     34.933090      5.489940
  H       3.362143     32.802712      5.706328
  H       4.193212     30.154273      5.813910
  H       6.066320     28.171959      5.789135
  H       6.957281     25.603116      5.893424
  H       9.608008     24.890740      5.876797
  H      12.271289     25.469606      5.793972
  H      14.989110     25.041139      5.893085
  H      16.955837     26.893592      5.899755
  H      17.801635     29.458129      5.823342
  H      19.501692     31.603766      5.891061
  H      18.872325     34.206878      5.885055
  H      17.100892     36.220406      5.815746
  H      16.116719     38.802334      5.885997
  P       2.887467     39.623889      9.967716
  O       2.911331     38.190592     10.341493
  O       3.157621     40.033792      8.517272
  O       1.476271     40.300784     10.325856
  O       3.851198     40.504306     10.906821
  C       5.235237     40.534718     10.599255
  C       6.047980     40.369822     11.867418
  O       5.862275     39.071055     12.455427
  C       7.531137     40.495635     11.609851
  O       8.172287     41.003100     12.760506
  C       7.953914     39.047051     11.370513
  O       9.295082     38.871976     11.733383
  C       6.984392     38.282050     12.275843
  N       6.545812     36.991968     11.715226
  C       5.245794     36.581251     11.473369
  N       5.171139     35.330625     11.084524
  C       6.467152     34.908386     11.048519
  C       7.030859     33.714458     10.602371
  N       6.350196     32.659753     10.161927
  N       8.390893     33.684896     10.653232
  C       9.159216     34.738569     11.058472
  N       8.685327     35.866878     11.474803
  C       7.341465     35.930885     11.438756
  H       0.977699     39.674448     10.858590
  H       5.503557     39.770329      9.856646
  H       5.477169     41.507392     10.151471
  H       5.723663     41.098991     12.615865
  H       7.748085     41.109764     10.728473
  H       9.073720     40.661008     12.722976
  H       7.780795     38.772852     10.326418
  H       9.775760     38.499204     10.987241
  H       7.472453     38.062551     13.236532
  H       4.403908     37.265524     11.540750
  H       5.368018     32.802609      9.966200
  H       6.815170     31.973240      9.600507
  H      10.229536     34.579605     10.994141
  H       8.863599     32.911977     10.200553
163
Coordinates from ORCA-job /data/Seafile/amp/al_surf/protonated_al_surf/frames/frame12/dry/amp_al_frame12_dry E -13417.888533781159
  Si      3.467461     33.807423      7.689405
  Si      3.498776     30.720995      7.838584
  O       2.072266     34.358203      8.299775
  O       2.179086     30.000011      8.470146
  O       3.601062     32.278809      8.300625
  O       3.460566     33.704576      6.046875
  O       3.473859     30.679678      6.197057
  Si      6.164851     26.090866      7.899965
  Si      8.822899     24.531157      7.910655
  O       4.791326     25.446816      8.488365
  O       7.470795     25.277596      8.435142
  O       8.799536     23.010309      8.494539
  O       6.200939     26.092677      6.253850
  O       8.777705     24.573068      6.266169
  Si      6.140996     29.154800      7.782659
  Si      6.164207     35.346512      7.438098
  Si      8.929271     33.766714      7.492483
  Si      8.902812     30.682854      7.676796
  O       4.859723     29.970302      8.368840
  O       4.808770     34.648162      8.072282
  O       7.441623     34.383233      7.776765
  O       7.494543     29.989103      8.143128
  O       6.237019     27.647617      8.387357
  O       8.854189     32.229824      8.188498
  O       5.900015     29.052741      6.162597
  O       5.934465     35.453569      5.819287
  O       9.177408     33.555377      5.891284
  O       9.032775     30.646983      6.048765
  Si      6.527458     38.385000      7.430986
  Si      9.079685     40.070670      7.796942
  O       5.180445     39.145020      7.569825
  O       7.801886     39.150805      8.188663
  O       6.473976     36.819132      8.013103
  O       8.939239     41.565936      8.455237
  O       7.141745     38.269516      5.885510
  O       9.220314     40.121433      6.158301
  Si     11.496938     26.034862      7.800061
  Si     14.161331     24.528613      7.876563
  O      10.145706     25.351079      8.406769
  O      12.849415     25.350928      8.389738
  O      13.951074     23.001927      8.406416
  O      11.425868     25.739092      6.183503
  O      14.191829     24.605286      6.232264
  Si     11.564934     29.210574      7.773621
  Al     11.682525     35.356180      7.733034
  Si     14.295235     33.732273      7.898865
  Si     14.221558     30.699748      7.841829
  O      10.177033     29.889166      8.321372
  O      10.106721     34.615823      8.146064
  O      13.057044     34.537256      8.500950
  O      12.897358     29.896375      8.407950
  O      11.505299     27.621998      8.120047
  O      14.399490     32.175929      8.479113
  O      11.589315     29.445526      6.149720
  O      11.961435     35.023254      6.020740
  O      14.117768     33.550436      6.270461
  O      13.992301     30.848328      6.223089
  Si     11.768236     38.621532      7.818393
  Si     14.464401     40.070070      7.888241
  O      10.441564     39.399409      8.404300
  O      13.118673     39.345437      8.440513
  O      11.711086     37.064925      8.125874
  O      14.640636     41.616331      8.399816
  O      11.860701     38.978223      6.203974
  O      14.470313     39.959641      6.245689
  Si     16.876308     25.985353      7.909827
  O      15.525093     25.227617      8.429567
  O      18.123909     25.094130      8.464796
  O      16.803389     26.008020      6.265716
  Si     16.935611     29.054770      7.830518
  Si     17.060548     35.301791      7.840490
  Si     19.696037     33.725427      7.872499
  Si     19.557566     30.641444      7.874669
  O      15.524004     29.770791      8.159975
  O      15.745394     34.447806      8.216970
  O      18.396316     34.541263      8.422118
  O      18.174918     29.943024      8.402060
  O      16.920466     27.531547      8.431814
  O      19.697976     32.175546      8.411005
  O      17.152928     28.852990      6.211224
  O      17.315172     35.365713      6.213716
  O      19.578766     33.639328      6.232332
  O      19.489045     30.695563      6.230796
  Si     17.034901     38.377179      7.845025
  O      15.809139     39.289196      8.412143
  O      18.505853     38.925955      8.305707
  O      16.968796     36.836575      8.390690
  O      16.894599     38.321023      6.206181
  O      20.745817     29.653549      8.398261
  O      21.122487     34.356602      8.359138
  H       4.074657     24.986772      8.036591
  H       1.410409     29.602015      8.036749
  H       1.410409     35.007985      8.036749
  H       4.074657     39.623228      8.036591
  H       8.948181     22.173255      8.038302
  H       8.948181     42.436745      8.038302
  H      14.277762     22.173204      8.038282
  H      14.277762     42.436796      8.038282
  H      18.960557     24.876228      8.036406
  H      18.960557     39.733772      8.036406
  H      21.624717     29.491420      8.036583
  H      21.624717     35.118580      8.036583
  H      13.319159     34.081699      5.976114
  H      11.193466     34.719066      5.532238
  H       9.019375     32.659562      5.568645
  H       9.872115     30.251084      5.755487
  H      12.391428     29.930188      5.870552
  H      14.032435     31.802392      5.970478
  H      13.605219     39.651531      5.913849
  H      11.030161     39.333197      5.851485
  H       8.549344     39.550187      5.740889
  H       6.755130     37.577678      5.349186
  H       5.186441     34.936368      5.498268
  H       3.364825     32.805203      5.710453
  H       4.195947     30.157229      5.817697
  H       6.069007     28.175171      5.794254
  H       6.958247     25.606529      5.895816
  H       9.607623     24.893295      5.878751
  H      12.270663     25.471903      5.796490
  H      14.988107     25.042722      5.894297
  H      16.954227     26.895802      5.900718
  H      17.799251     29.460383      5.824906
  H      19.499604     31.605213      5.892602
  H      18.869497     34.208264      5.886536
  H      17.096972     36.220701      5.817819
  H      16.113542     38.803246      5.889008
  P       2.894916     39.642874      9.974377
  O       2.919880     38.221225     10.356581
  O       3.158864     40.036320      8.520479
  O       1.490726     40.319406     10.328831
  O       3.864383     40.529740     10.899612
  C       5.248850     40.552687     10.599448
  C       6.058649     40.387489     11.864802
  O       5.869713     39.091111     12.457707
  C       7.543981     40.503008     11.608150
  O       8.181700     41.008962     12.756622
  C       7.964547     39.051718     11.374783
  O       9.305843     38.870420     11.737040
  C       6.991038     38.293652     12.282487
  N       6.549074     37.004708     11.728796
  C       5.249653     36.601075     11.492448
  N       5.166311     35.352383     11.110479
  C       6.457289     34.923300     11.069842
  C       7.009732     33.727014     10.619385
  N       6.320260     32.679684     10.183370
  N       8.367290     33.688844     10.658037
  C       9.142714     34.736018     11.055756
  N       8.680027     35.866162     11.474827
  C       7.337932     35.939274     11.450098
  H       1.000575     39.700603     10.868402
  H       5.512564     39.789830      9.862269
  H       5.494851     41.519561     10.153762
  H       5.734361     41.120528     12.607180
  H       7.764528     41.115391     10.727788
  H       9.085348     40.654797     12.731887
  H       7.790731     38.776016     10.335112
  H       9.786928     38.497030     10.992855
  H       7.476712     38.074075     13.241009
  H       4.413736     37.290609     11.556680
  H       5.339398     32.831296      9.995931
  H       6.776775     31.990988      9.604559
  H      10.209873     34.569307     10.982779
  H       8.832320     32.913271     10.202171
163
Coordinates from ORCA-job /data/Seafile/amp/al_surf/protonated_al_surf/frames/frame12/dry/amp_al_frame12_dry E -13417.888206853100
  Si      3.467700     33.804832      7.675178
  Si      3.498867     30.718407      7.824711
  O       2.076460     34.352739      8.295474
  O       2.182335     30.000171      8.464753
  O       3.604079     32.275949      8.285784
  O       3.453574     33.703556      6.033017
  O       3.465152     30.675695      6.183282
  Si      6.164614     26.090008      7.887331
  Si      8.822799     24.530516      7.898356
  O       4.792572     25.450614      8.483329
  O       7.471564     25.278906      8.421958
  O       8.800137     23.013285      8.489950
  O       6.195744     26.085298      6.241225
  O       8.774016     24.564710      6.253908
  Si      6.141653     29.153489      7.758509
  Si      6.162627     35.346219      7.414537
  Si      8.930026     33.767451      7.458375
  Si      8.903772     30.683561      7.641378
  O       4.862399     29.969006      8.349482
  O       4.809917     34.645779      8.052446
  O       7.442075     34.382807      7.745792
  O       7.496152     29.989190      8.111123
  O       6.240240     27.648696      8.367968
  O       8.855737     32.230073      8.154506
  O       5.891903     29.047185      6.140204
  O       5.926422     35.457145      5.796891
  O       9.177732     33.557202      5.857515
  O       9.030504     30.648871      6.013211
  Si      6.524790     38.386318      7.417326
  Si      9.077333     40.071493      7.782168
  O       5.183613     39.147914      7.559341
  O       7.799101     39.150876      8.177973
  O       6.471715     36.818118      7.993004
  O       8.939954     41.565429      8.446622
  O       7.135908     38.276807      5.872918
  O       9.214796     40.122766      6.143578
  Si     11.497208     26.033819      7.776066
  Si     14.161724     24.527825      7.863587
  O      10.146207     25.353093      8.387326
  O      12.849357     25.352794      8.369882
  O      13.949429     23.004350      8.400756
  O      11.425981     25.728280      6.160417
  O      14.195674     24.597240      6.219133
  Si     11.566035     29.210228      7.738134
  Al     11.683946     35.356106      7.701063
  Si     14.295871     33.731259      7.868225
  Si     14.222762     30.698937      7.808114
  O      10.178198     29.889675      8.284681
  O      10.107270     34.616023      8.111987
  O      13.056915     34.535413      8.469974
  O      12.897858     29.896184      8.371986
  O      11.505728     27.622627      8.088583
  O      14.399616     32.174654      8.446350
  O      11.589672     29.443341      6.113892
  O      11.964115     35.025363      5.988829
  O      14.120678     33.550468      6.239262
  O      13.996554     30.846768      6.188867
  Si     11.767338     38.622603      7.798500
  Si     14.463867     40.070704      7.877965
  O      10.439477     39.397710      8.387028
  O      13.117177     39.344166      8.425024
  O      11.712096     37.063453      8.098893
  O      14.639863     41.614019      8.396505
  O      11.861803     38.989062      6.185086
  O      14.473129     39.966971      6.235061
  Si     16.877020     25.984471      7.896945
  O      15.524359     25.229115      8.416000
  O      18.121857     25.095413      8.459369
  O      16.809093     26.000939      6.252639
  Si     16.937335     29.053944      7.807336
  Si     17.061679     35.302128      7.819734
  Si     19.697040     33.725075      7.860960
  Si     19.559001     30.640979      7.862346
  O      15.524286     29.770244      8.130374
  O      15.745351     34.446773      8.190442
  O      18.394967     34.540414      8.405250
  O      18.173926     29.943283      8.383114
  O      16.919882     27.532369      8.412556
  O      19.696899     32.175086      8.398481
  O      17.162763     28.847983      6.188807
  O      17.323606     35.370485      6.193568
  O      19.587303     33.640123      6.220394
  O      19.498399     30.694397      6.218203
  Si     17.034670     38.377570      7.833844
  O      15.808046     39.288139      8.400566
  O      18.504716     38.922879      8.300283
  O      16.967323     36.835348      8.373790
  O      16.898326     38.327009      6.194841
  O      20.742968     29.652772      8.393433
  O      21.120560     34.355253      8.355295
  H       4.074657     24.986772      8.036591
  H       1.410409     29.602015      8.036749
  H       1.410409     35.007985      8.036749
  H       4.074657     39.623228      8.036591
  H       8.948181     22.173255      8.038302
  H       8.948181     42.436745      8.038302
  H      14.277762     22.173204      8.038282
  H      14.277762     42.436796      8.038282
  H      18.960557     24.876228      8.036406
  H      18.960557     39.733772      8.036406
  H      21.624717     29.491420      8.036583
  H      21.624717     35.118580      8.036583
  H      13.321375     34.079408      5.944315
  H      11.196174     34.720696      5.498903
  H       9.021131     32.662034      5.533901
  H       9.870557     30.254522      5.717729
  H      12.392260     29.927757      5.834101
  H      14.039866     31.800453      5.935656
  H      13.607498     39.662983      5.899912
  H      11.031516     39.347260      5.834072
  H       8.538182     39.554338      5.730332
  H       6.723383     37.586341      5.331788
  H       5.177253     34.939344      5.477005
  H       3.356739     32.803559      5.696155
  H       4.185642     30.153085      5.800928
  H       6.058490     28.167789      5.773708
  H       6.952715     25.597318      5.883621
  H       9.603666     24.883498      5.863841
  H      12.271149     25.457725      5.775992
  H      14.993815     25.033170      5.881767
  H      16.961508     26.888021      5.885775
  H      17.811914     29.454491      5.805175
  H      19.511133     31.604807      5.880637
  H      18.879395     34.210156      5.872646
  H      17.107595     36.227535      5.799951
  H      16.118336     38.812544      5.877985
  P       2.892545     39.638270      9.970355
  O       2.915867     38.212651     10.354917
  O       3.158022     40.034005      8.522136
  O       1.484024     40.308106     10.313445
  O       3.858742     40.529389     10.897074
  C       5.237563     40.561346     10.591569
  C       6.048094     40.386637     11.848752
  O       5.850938     39.080953     12.431941
  C       7.535108     40.507899     11.590423
  O       8.181853     41.002263     12.735454
  C       7.947752     39.053542     11.346838
  O       9.293034     38.863110     11.708763
  C       6.970422     38.285267     12.250907
  N       6.531248     36.994087     11.700636
  C       5.233513     36.589654     11.472616
  N       5.147816     35.341154     11.099543
  C       6.436492     34.911492     11.055338
  C       6.983188     33.708461     10.609824
  N       6.287756     32.657220     10.187739
  N       8.339233     33.670744     10.637732
  C       9.117211     34.720874     11.025324
  N       8.658826     35.854270     11.442768
  C       7.318258     35.928167     11.424502
  H       0.989376     39.679191     10.852453
  H       5.501701     39.800983      9.851392
  H       5.481385     41.538166     10.152994
  H       5.728053     41.112778     12.595869
  H       7.755366     41.133303     10.717676
  H       9.078338     40.661213     12.684899
  H       7.769338     38.789010     10.307430
  H       9.774552     38.494978     10.967524
  H       7.456373     38.063140     13.205230
  H       4.402978     37.276394     11.536140
  H       5.307856     32.806725     10.007604
  H       6.735625     31.954181      9.602414
  H      10.181992     34.553991     10.945631
  H       8.801124     32.887683     10.176223
163
Coordinates from ORCA-job /data/Seafile/amp/al_surf/protonated_al_surf/frames/frame12/dry/amp_al_frame12_dry E -13417.888573687462
  Si      3.467732     33.806100      7.685758
  Si      3.498472     30.719757      7.835298
  O       2.073477     34.355922      8.298704
  O       2.178388     30.002301      8.469419
  O       3.602537     32.277493      8.296774
  O       3.459180     33.703510      6.043413
  O       3.471301     30.676529      6.193788
  Si      6.164512     26.090770      7.896440
  Si      8.822526     24.530318      7.907475
  O       4.790161     25.450215      8.486545
  O       7.470247     25.277051      8.431484
  O       8.798594     23.010720      8.493159
  O       6.199554     26.090746      6.250292
  O       8.776701     24.570532      6.262966
  Si      6.141342     29.154364      7.776787
  Si      6.163733     35.345766      7.432247
  Si      8.930008     33.766310      7.484352
  Si      8.903165     30.683097      7.669252
  O       4.859771     29.968734      8.364421
  O       4.808754     34.647468      8.067268
  O       7.441613     34.381837      7.768641
  O       7.494842     29.989240      8.135746
  O       6.238713     27.647818      8.382330
  O       8.855409     32.229817      8.181718
  O       5.898403     29.051452      6.157068
  O       5.932716     35.453855      5.813816
  O       9.178715     33.554068      5.883520
  O       9.032706     30.647753      6.041255
  Si      6.527652     38.383851      7.425051
  Si      9.080849     40.070739      7.791134
  O       5.183160     39.147842      7.562650
  O       7.802376     39.150120      8.184437
  O       6.474511     36.818415      8.007693
  O       8.943519     41.565451      8.453234
  O       7.143599     38.267008      5.879715
  O       9.220364     40.122437      6.152955
  Si     11.496549     26.034170      7.794244
  Si     14.161138     24.528171      7.873232
  O      10.145399     25.350965      8.401940
  O      12.849012     25.350943      8.384719
  O      13.950170     23.002250      8.404731
  O      11.425440     25.736111      6.177854
  O      14.192340     24.603374      6.228886
  Si     11.564902     29.210111      7.765854
  Al     11.684437     35.354412      7.725733
  Si     14.296396     33.730271      7.893007
  Si     14.222087     30.698226      7.834744
  O      10.177088     29.888955      8.313683
  O      10.106939     34.616111      8.137899
  O      13.057557     34.534446      8.494819
  O      12.897577     29.895163      8.400192
  O      11.504732     27.621660      8.112800
  O      14.400660     32.173993      8.472697
  O      11.589028     29.445285      6.141907
  O      11.963963     35.020176      6.013859
  O      14.119904     33.548188      6.264404
  O      13.992713     30.847006      6.216014
  Si     11.769606     38.620698      7.812789
  Si     14.465293     40.070527      7.885275
  O      10.441784     39.396779      8.399057
  O      13.119450     39.344976      8.435981
  O      11.714712     37.063057      8.118152
  O      14.641134     41.616176      8.398834
  O      11.863134     38.980546      6.198709
  O      14.472305     39.961506      6.242596
  Si     16.876579     25.984388      7.906351
  O      15.524828     25.227521      8.425976
  O      18.122934     25.092584      8.462557
  O      16.804608     26.006187      6.262198
  Si     16.936506     29.053900      7.825131
  Si     17.061235     35.301372      7.836685
  Si     19.696778     33.725009      7.869882
  Si     19.558235     30.641005      7.871617
  O      15.524300     29.769164      8.153665
  O      15.746164     34.446490      8.212243
  O      18.396757     34.540839      8.418864
  O      18.175064     29.942697      8.397583
  O      16.921312     27.530927      8.427100
  O      19.698714     32.175006      8.407899
  O      17.155612     28.851433      6.205969
  O      17.317135     35.366214      6.210037
  O      19.580515     33.639332      6.229632
  O      19.491107     30.695096      6.227670
  Si     17.035475     38.376682      7.842373
  O      15.810204     39.289605      8.408825
  O      18.506713     38.924521      8.303541
  O      16.968890     36.835918      8.387485
  O      16.895777     38.320715      6.203480
  O      20.745212     29.652303      8.396688
  O      21.122950     34.355589      8.357807
  H       4.074657     24.986772      8.036591
  H       1.410409     29.602015      8.036749
  H       1.410409     35.007985      8.036749
  H       4.074657     39.623228      8.036591
  H       8.948181     22.173255      8.038302
  H       8.948181     42.436745      8.038302
  H      14.277762     22.173204      8.038282
  H      14.277762     42.436796      8.038282
  H      18.960557     24.876228      8.036406
  H      18.960557     39.733772      8.036406
  H      21.624717     29.491420      8.036583
  H      21.624717     35.118580      8.036583
  H      13.320108     34.076954      5.969672
  H      11.196082     34.715647      5.524786
  H       9.022602     32.658299      5.561586
  H       9.872541     30.252819      5.747525
  H      12.391264     29.929901      5.862702
  H      14.032117     31.800867      5.963433
  H      13.606623     39.655463      5.909793
  H      11.033139     39.337096      5.846600
  H       8.546726     39.553058      5.736403
  H       6.748691     37.578563      5.341881
  H       5.185426     34.935559      5.492670
  H       3.363034     32.804162      5.707042
  H       4.193225     30.154123      5.814216
  H       6.066670     28.173483      5.789206
  H       6.956737     25.604105      5.892676
  H       9.606751     24.890018      5.875243
  H      12.270179     25.467917      5.791674
  H      14.989142     25.040296      5.891240
  H      16.956447     26.893825      5.897241
  H      17.802600     29.458636      5.820508
  H      19.502546     31.604955      5.889842
  H      18.871819     34.209101      5.883900
  H      17.099795     36.221721      5.814834
  H      16.115516     38.804326      5.886223
  P       2.875400     39.624803      9.960922
  O       2.904948     38.198780     10.336997
  O       3.150329     40.029584      8.511050
  O       1.457890     40.290000     10.301072
  O       3.833866     40.515575     10.903230
  C       5.211249     40.553593     10.601092
  C       6.022222     40.386271     11.861904
  O       5.832150     39.081618     12.443803
  C       7.508888     40.514871     11.606593
  O       8.148230     41.018741     12.756822
  C       7.934339     39.064150     11.365921
  O       9.280141     38.886171     11.734573
  C       6.958339     38.293437     12.268018
  N       6.527894     37.000598     11.709540
  C       5.231048     36.585928     11.470152
  N       5.158352     35.336009     11.090062
  C       6.453455     34.917315     11.055551
  C       7.015433     33.720824     10.616325
  N       6.332378     32.663994     10.184799
  N       8.374217     33.693159     10.664100
  C       9.141613     34.749426     11.060530
  N       8.668867     35.878731     11.471640
  C       7.325831     35.941041     11.438320
  H       0.959033     39.661655     10.836639
  H       5.479049     39.793311      9.860050
  H       5.447946     41.527918     10.161902
  H       5.697794     41.111865     12.610876
  H       7.727131     41.135456     10.729729
  H       9.050704     40.678199     12.717099
  H       7.763077     38.793945     10.322367
  H       9.766306     38.510215     10.992826
  H       7.442963     38.075797     13.228940
  H       4.390609     37.266898     11.531862
  H       5.350088     32.806814      9.990126
  H       6.793439     31.970298      9.621275
  H      10.210223     34.591828     10.992854
  H       8.846230     32.916074     10.211865
163
Coordinates from ORCA-job /data/Seafile/amp/al_surf/protonated_al_surf/frames/frame12/dry/amp_al_frame12_dry E -13417.888424232560
  Si      3.467312     33.809032      7.687706
  Si      3.498055     30.722678      7.836675
  O       2.073166     34.360485      8.299635
  O       2.177649     30.004221      8.469665
  O       3.602398     32.280381      8.298693
  O       3.457757     33.705856      6.045210
  O       3.470884     30.680374      6.195241
  Si      6.163770     26.092466      7.896882
  Si      8.820941     24.531200      7.908108
  O       4.788751     25.452637      8.486512
  O       7.468943     25.278035      8.432238
  O       8.796269     23.010840      8.492994
  O       6.199180     26.091940      6.250762
  O       8.775503     24.572144      6.263614
  Si      6.140180     29.156269      7.776615
  Si      6.164125     35.347776      7.432728
  Si      8.929755     33.767612      7.481170
  Si      8.902656     30.683728      7.666616
  O       4.859175     29.970654      8.364915
  O       4.809433     34.649696      8.068077
  O       7.442432     34.383843      7.767297
  O       7.494046     29.991065      8.134368
  O       6.238452     27.649558      8.382442
  O       8.854812     32.230785      8.177846
  O       5.896537     29.052949      6.156934
  O       5.931598     35.457126      5.814181
  O       9.176554     33.555668      5.879834
  O       9.032595     30.646705      6.038614
  Si      6.529732     38.385888      7.430264
  Si      9.082036     40.069978      7.793084
  O       5.184517     39.147197      7.568828
  O       7.804524     39.150423      8.187979
  O       6.475154     36.819646      8.010484
  O       8.944602     41.563990      8.454683
  O       7.142762     38.270844      5.885610
  O       9.219587     40.123489      6.154207
  Si     11.495375     26.034406      7.795547
  Si     14.160050     24.528358      7.873600
  O      10.144257     25.350984      8.403056
  O      12.847971     25.351017      8.385585
  O      13.949209     23.002116      8.404369
  O      11.424117     25.737060      6.179057
  O      14.190905     24.604286      6.229300
  Si     11.564180     29.210114      7.765735
  Al     11.684758     35.355142      7.720079
  Si     14.296974     33.730453      7.888307
  Si     14.221953     30.697894      7.833297
  O      10.176414     29.889762      8.312436
  O      10.107733     34.616706      8.133653
  O      13.058183     34.535446      8.489047
  O      12.897120     29.895620      8.399483
  O      11.503496     27.621940      8.113893
  O      14.400819     32.174447      8.469537
  O      11.588769     29.443565      6.141719
  O      11.963887     35.020111      6.008278
  O      14.120964     33.547621      6.259768
  O      13.992946     30.845157      6.214357
  Si     11.770986     38.621506      7.807950
  Si     14.466737     40.070557      7.882440
  O      10.444322     39.396685      8.396858
  O      13.121061     39.344455      8.432060
  O      11.714414     37.063735      8.112113
  O      14.642046     41.615859      8.397218
  O      11.863278     38.983037      6.193892
  O      14.474528     39.962843      6.239838
  Si     16.875678     25.983898      7.906538
  O      15.523898     25.227285      8.426397
  O      18.121958     25.091493      8.462211
  O      16.802975     26.005597      6.262459
  Si     16.936175     29.053243      7.825122
  Si     17.062110     35.301014      7.833534
  Si     19.697306     33.724367      7.868837
  Si     19.557995     30.640287      7.871067
  O      15.523869     29.768775      8.153124
  O      15.746610     34.446418      8.207935
  O      18.397037     34.540258      8.416805
  O      18.174695     29.942272      8.397247
  O      16.921070     27.530397      8.427362
  O      19.698924     32.174373      8.407072
  O      17.155065     28.850445      6.205979
  O      17.319217     35.366083      6.207049
  O      19.582015     33.638082      6.228637
  O      19.490650     30.694303      6.227197
  Si     17.036441     38.376443      7.839985
  O      15.811279     39.289340      8.406107
  O      18.507240     38.923945      8.302093
  O      16.969444     36.835463      8.384531
  O      16.897006     38.320835      6.201148
  O      20.745004     29.651817      8.396026
  O      21.122979     34.355533      8.357418
  H       4.074657     24.986772      8.036591
  H       1.410409     29.602015      8.036749
  H       1.410409     35.007985      8.036749
  H       4.074657     39.623228      8.036591
  H       8.948181     22.173255      8.038302
  H       8.948181     42.436745      8.038302
  H      14.277762     22.173204      8.038282
  H      14.277762     42.436796      8.038282
  H      18.960557     24.876228      8.036406
  H      18.960557     39.733772      8.036406
  H      21.624717     29.491420      8.036583
  H      21.624717     35.118580      8.036583
  H      13.322475     34.078461      5.964510
  H      11.196094     34.715840      5.519866
  H       9.017305     32.659571      5.557162
  H       9.871855     30.250367      5.745739
  H      12.391284     29.927393      5.862278
  H      14.034215     31.798860      5.960736
  H      13.609496     39.656111      5.906586
  H      11.032267     39.337813      5.842094
  H       8.546479     39.548401      5.738003
  H       6.743161     37.580266      5.348206
  H       5.182922     34.940479      5.493322
  H       3.361262     32.806436      5.708967
  H       4.193284     30.158870      5.815225
  H       6.064473     28.174884      5.789303
  H       6.956549     25.605387      5.893347
  H       9.605393     24.892271      5.876061
  H      12.268926     25.469342      5.792518
  H      14.987414     25.041333      5.891425
  H      16.954092     26.893125      5.897077
  H      17.801738     29.457644      5.820168
  H      19.502085     31.603993      5.889091
  H      18.873324     34.207149      5.882080
  H      17.101483     36.221392      5.811779
  H      16.116675     38.804043      5.883802
  P       2.893413     39.636861      9.970453
  O       2.918240     38.211041     10.357259
  O       3.157880     40.031029      8.519159
  O       1.488630     40.314556     10.324524
  O       3.858043     40.524869     10.892910
  C       5.248673     40.550174     10.593764
  C       6.056328     40.383890     11.863429
  O       5.873875     39.088095     12.453796
  C       7.539277     40.504090     11.607536
  O       8.175541     41.010290     12.757808
  C       7.961523     39.055349     11.370026
  O       9.300218     38.879368     11.728920
  C       6.994762     38.294544     12.275391
  N       6.553182     37.006087     11.720370
  C       5.252804     36.601465     11.488535
  N       5.169257     35.351944     11.105630
  C       6.461098     34.923491     11.059902
  C       7.013827     33.726335     10.608662
  N       6.324701     32.677169     10.175754
  N       8.371774     33.689339     10.644258
  C       9.147439     34.738330     11.038589
  N       8.684537     35.869144     11.458466
  C       7.342034     35.940981     11.438133
  H       0.995995     39.692669     10.861621
  H       5.520008     39.790086      9.853244
  H       5.495202     41.520759     10.148794
  H       5.728491     41.114840     12.607491
  H       7.757469     41.118113     10.728786
  H       9.081800     40.658203     12.735220
  H       7.787124     38.779395     10.332304
  H       9.779330     38.504343     10.986778
  H       7.482065     38.074577     13.230055
  H       4.416571     37.291227     11.555159
  H       5.343955     32.826619      9.991409
  H       6.780928     31.987336      9.596967
  H      10.215154     34.572772     10.962541
  H       8.836902     32.912932     10.190493
163
Coordinates from ORCA-job /data/Seafile/amp/al_surf/protonated_al_surf/frames/frame12/dry/amp_al_frame12_dry E -13417.888688677054
  Si      3.468545     33.809486      7.686448
  Si      3.497930     30.723014      7.835238
  O       2.075893     34.361120      8.302010
  O       2.176419     30.007163      8.468786
  O       3.603870     32.280750      8.297089
  O       3.456929     33.707592      6.044049
  O       3.470589     30.680446      6.193752
  Si      6.162864     26.093454      7.895980
  Si      8.819552     24.531504      7.907021
  O       4.786927     25.456005      8.485954
  O       7.467673     25.278482      8.431380
  O       8.793845     23.011130      8.491926
  O       6.197985     26.092594      6.249921
  O       8.774109     24.572526      6.262570
  Si      6.140420     29.157015      7.776058
  Si      6.165549     35.348779      7.430779
  Si      8.931224     33.767647      7.481231
  Si      8.902866     30.684359      7.667077
  O       4.858655     29.970762      8.363806
  O       4.810935     34.650035      8.066291
  O       7.443242     34.384216      7.765411
  O       7.493958     29.992254      8.134523
  O       6.238920     27.650489      8.381683
  O       8.855545     32.231494      8.178683
  O       5.897170     29.054245      6.156330
  O       5.933475     35.458533      5.812447
  O       9.179994     33.555584      5.880352
  O       9.032122     30.647908      6.038988
  Si      6.530914     38.387942      7.429649
  Si      9.084626     40.071060      7.795474
  O       5.185656     39.150360      7.569685
  O       7.805942     39.152062      8.189128
  O       6.476010     36.820810      8.008109
  O       8.950856     41.566253      8.456118
  O       7.145077     38.274584      5.883664
  O       9.222702     40.122949      6.156855
  Si     11.494517     26.034182      7.794081
  Si     14.159355     24.528232      7.872564
  O      10.143275     25.350893      8.401759
  O      12.847062     25.350790      8.384382
  O      13.948710     23.002175      8.403933
  O      11.423221     25.736694      6.177626
  O      14.190312     24.603655      6.228287
  Si     11.564223     29.209900      7.764445
  Al     11.685998     35.354807      7.722440
  Si     14.297300     33.729431      7.889975
  Si     14.222295     30.696972      7.832743
  O      10.176824     29.890013      8.311493
  O      10.108850     34.616571      8.134649
  O      13.058490     34.533810      8.491546
  O      12.897207     29.894906      8.398389
  O      11.502910     27.621749      8.112652
  O      14.401451     32.173126      8.469834
  O      11.588759     29.443717      6.140401
  O      11.965603     35.022190      6.010367
  O      14.120906     33.547443      6.261414
  O      13.993752     30.845124      6.213874
  Si     11.772187     38.620511      7.813501
  Si     14.467178     40.070348      7.885259
  O      10.445515     39.396648      8.401754
  O      13.122343     39.343774      8.436780
  O      11.716383     37.062736      8.117275
  O      14.642199     41.616203      8.398209
  O      11.864552     38.981108      6.199479
  O      14.473767     39.961077      6.242645
  Si     16.875378     25.983111      7.905053
  O      15.522903     25.227945      8.425327
  O      18.120342     25.088701      8.460336
  O      16.802579     26.005250      6.260989
  Si     16.936550     29.052592      7.823941
  Si     17.061914     35.300771      7.834767
  Si     19.697239     33.724161      7.868812
  Si     19.558104     30.640125      7.870622
  O      15.523836     29.767191      8.152393
  O      15.746729     34.445865      8.209756
  O      18.397133     34.540096      8.417355
  O      18.174652     29.942052      8.396363
  O      16.922362     27.529596      8.425921
  O      19.698643     32.174178      8.407088
  O      17.155362     28.850403      6.204719
  O      17.318208     35.365936      6.208175
  O      19.581362     33.638079      6.228613
  O      19.491472     30.694267      6.226742
  Si     17.036559     38.376149      7.841342
  O      15.812274     39.289818      8.408763
  O      18.508017     38.923193      8.302263
  O      16.969293     36.835204      8.386009
  O      16.895994     38.320588      6.202583
  O      20.744792     29.651699      8.396165
  O      21.123032     34.355153      8.357065
  H       4.074657     24.986772      8.036591
  H       1.410409     29.602015      8.036749
  H       1.410409     35.007985      8.036749
  H       4.074657     39.623228      8.036591
  H       8.948181     22.173255      8.038302
  H       8.948181     42.436745      8.038302
  H      14.277762     22.173204      8.038282
  H      14.277762     42.436796      8.038282
  H      18.960557     24.876228      8.036406
  H      18.960557     39.733772      8.036406
  H      21.624717     29.491420      8.036583
  H      21.624717     35.118580      8.036583
  H      13.321803     34.077176      5.966548
  H      11.197770     34.717802      5.521459
  H       9.021572     32.659897      5.557869
  H       9.871623     30.252285      5.745533
  H      12.391268     29.927621      5.860917
  H      14.035308     31.798949      5.960701
  H      13.608539     39.653880      5.910157
  H      11.034452     39.337879      5.847842
  H       8.549873     39.550739      5.740598
  H       6.745170     37.582967      5.346707
  H       5.184499     34.942524      5.491328
  H       3.361503     32.808217      5.707319
  H       4.193055     30.158934      5.813856
  H       6.065432     28.176461      5.788095
  H       6.955747     25.606747      5.892388
  H       9.604001     24.892643      5.874987
  H      12.267944     25.468823      5.791025
  H      14.986892     25.040696      5.890322
  H      16.954074     26.892832      5.895791
  H      17.802224     29.457566      5.819017
  H      19.502746     31.604074      5.888752
  H      18.872687     34.207516      5.882382
  H      17.100718     36.221411      5.812940
  H      16.115601     38.804249      5.885689
  P       2.888873     39.642853      9.969888
  O       2.916354     38.220354     10.358394
  O       3.155745     40.033570      8.515658
  O       1.478989     40.314489     10.314816
  O       3.852090     40.537922     10.896031
  C       5.235151     40.567169     10.598260
  C       6.042576     40.392067     11.863693
  O       5.848653     39.088955     12.445897
  C       7.529789     40.513024     11.612419
  O       8.166384     41.013893     12.763607
  C       7.951465     39.062357     11.373289
  O       9.293339     38.881084     11.741129
  C       6.973488     38.296564     12.273913
  N       6.538526     37.006594     11.716227
  C       5.240663     36.597089     11.481305
  N       5.162286     35.347605     11.101526
  C       6.454933     34.923916     11.060796
  C       7.011349     33.727306     10.613750
  N       6.324637     32.674715     10.182155
  N       8.369232     33.694978     10.651706
  C       9.141083     34.747198     11.046423
  N       8.673976     35.877054     11.463735
  C       7.331628     35.944369     11.439204
  H       0.988629     39.695577     10.859433
  H       5.500781     39.809894      9.855383
  H       5.480716     41.540554     10.161598
  H       5.717655     41.118641     12.611113
  H       7.752575     41.132027     10.735959
  H       9.067402     40.671994     12.726578
  H       7.781155     38.792877     10.330719
  H       9.776970     38.506304     11.000530
  H       7.455080     38.076203     13.235596
  H       4.403362     37.282634     11.544799
  H       5.343213     32.820910      9.995936
  H       6.782319     31.983895      9.603773
  H      10.208844     34.585189     10.972668
  H       8.837336     32.917635     10.196642
163
Coordinates from ORCA-job /data/Seafile/amp/al_surf/protonated_al_surf/frames/frame12/dry/amp_al_frame12_dry E -13417.888634874025
  Si      3.468835     33.809049      7.682919
  Si      3.497362     30.722534      7.831537
  O       2.078553     34.361351      8.301545
  O       2.175767     30.009676      8.467665
  O       3.604992     32.279928      8.292606
  O       3.453624     33.707142      6.040515
  O       3.467220     30.678321      6.190017
  Si      6.162754     26.093351      7.892172
  Si      8.819234     24.530310      7.903597
  O       4.786029     25.459465      8.484047
  O       7.467385     25.277928      8.427178
  O       8.792398     23.011212      8.490253
  O       6.196364     26.089974      6.246049
  O       8.773363     24.569415      6.259035
  Si      6.140194     29.156742      7.768788
  Si      6.164740     35.348285      7.423074
  Si      8.931287     33.767945      7.470405
  Si      8.902835     30.684871      7.657494
  O       4.858529     29.969389      8.358324
  O       4.811550     34.649381      8.060107
  O       7.443570     34.384463      7.754546
  O       7.493821     29.992396      8.124775
  O       6.240641     27.650808      8.375592
  O       8.855758     32.231796      8.168899
  O       5.894228     29.052675      6.149639
  O       5.930031     35.459075      5.805017
  O       9.179957     33.554515      5.869640
  O       9.032518     30.648200      6.029591
  Si      6.528348     38.387048      7.421444
  Si      9.083724     40.071169      7.784150
  O       5.189581     39.153106      7.567118
  O       7.804558     39.151370      8.178127
  O       6.475720     36.820312      7.999832
  O       8.952467     41.564933      8.450227
  O       7.135649     38.274262      5.876202
  O       9.221212     40.125941      6.145819
  Si     11.493949     26.033702      7.788612
  Si     14.159059     24.528041      7.869403
  O      10.142909     25.350419      8.396745
  O      12.846537     25.350872      8.379343
  O      13.948044     23.002719      8.402516
  O      11.422767     25.734226      6.172188
  O      14.190752     24.601611      6.224979
  Si     11.563678     29.209560      7.757046
  Al     11.687027     35.353529      7.711647
  Si     14.298058     33.728237      7.882271
  Si     14.222249     30.695913      7.825346
  O      10.176009     29.890034      8.303309
  O      10.108549     34.617148      8.123279
  O      13.058472     34.532342      8.482440
  O      12.896806     29.894238      8.390632
  O      11.501949     27.621486      8.106040
  O      14.401837     32.171975      8.462182
  O      11.588217     29.442903      6.132910
  O      11.967537     35.018701      6.000190
  O      14.123784     33.545652      6.253379
  O      13.994026     30.843230      6.206296
  Si     11.772207     38.620195      7.801850
  Si     14.467264     40.071017      7.879526
  O      10.443838     39.393862      8.389115
  O      13.121343     39.343943      8.427223
  O      11.718022     37.061809      8.104854
  O      14.642035     41.615339      8.396342
  O      11.866212     38.983612      6.188111
  O      14.476615     39.965577      6.236715
  Si     16.875389     25.982616      7.901530
  O      15.522473     25.228244      8.421551
  O      18.119221     25.087698      8.458089
  O      16.803698     26.003473      6.257300
  Si     16.936771     29.052224      7.818393
  Si     17.062234     35.300762      7.829250
  Si     19.697601     33.724257      7.865806
  Si     19.558128     30.640288      7.867711
  O      15.523612     29.766181      8.146025
  O      15.747105     34.445170      8.203302
  O      18.397097     34.540248      8.412790
  O      18.174169     29.942192      8.391498
  O      16.922732     27.529401      8.420870
  O      19.698535     32.174270      8.403639
  O      17.157371     28.849246      6.199176
  O      17.320469     35.366794      6.202701
  O      19.583951     33.638490      6.225387
  O      19.493339     30.694079      6.223664
  Si     17.036660     38.376149      7.837326
  O      15.811951     39.289820      8.402899
  O      18.507709     38.922407      8.300257
  O      16.968952     36.834979      8.380697
  O      16.898345     38.321361      6.198443
  O      20.743896     29.651346      8.394946
  O      21.122937     34.354536      8.355957
  H       4.074657     24.986772      8.036591
  H       1.410409     29.602015      8.036749
  H       1.410409     35.007985      8.036749
  H       4.074658     39.623228      8.036591
  H       8.948181     22.173255      8.038302
  H       8.948181     42.436745      8.038302
  H      14.277762     22.173204      8.038282
  H      14.277762     42.436796      8.038282
  H      18.960557     24.876228      8.036406
  H      18.960557     39.733772      8.036406
  H      21.624717     29.491420      8.036583
  H      21.624717     35.118580      8.036583
  H      13.325633     34.076113      5.957193
  H      11.199544     34.713943      5.511075
  H       9.023111     32.658717      5.547919
  H       9.872054     30.251906      5.736266
  H      12.391171     29.926477      5.853453
  H      14.036375     31.796716      5.952771
  H      13.611187     39.660624      5.902240
  H      11.035615     39.339560      5.836084
  H       8.545897     39.556662      5.730833
  H       6.740266     37.583511      5.338250
  H       5.181041     34.942277      5.484644
  H       3.357483     32.807397      5.704141
  H       4.189415     30.156894      5.809522
  H       6.061711     28.174181      5.782208
  H       6.953849     25.602782      5.889155
  H       9.603419     24.889460      5.871314
  H      12.267657     25.465073      5.786586
  H      14.988352     25.037749      5.887482
  H      16.955348     26.891177      5.892100
  H      17.805258     29.456159      5.814470
  H      19.505853     31.604225      5.886103
  H      18.875331     34.208066      5.878898
  H      17.103441     36.222946      5.808168
  H      16.118777     38.806537      5.881229
  P       2.878662     39.628095      9.961757
  O       2.912169     38.204211     10.349888
  O       3.148456     40.021638      8.511381
  O       1.461444     40.292452     10.299040
  O       3.835225     40.526786     10.893497
  C       5.216612     40.559357     10.591964
  C       6.025205     40.390638     11.852591
  O       5.837615     39.086932     12.434539
  C       7.509982     40.518014     11.596341
  O       8.147448     41.022581     12.745199
  C       7.935261     39.067254     11.356513
  O       9.279331     38.889792     11.724460
  C       6.961527     38.296937     12.257758
  N       6.529881     37.004220     11.701329
  C       5.232196     36.591040     11.470491
  N       5.155994     35.341773     11.089844
  C       6.449854     34.921259     11.047289
  C       7.007254     33.723412     10.604630
  N       6.320528     32.668502     10.177139
  N       8.365122     33.693632     10.644209
  C       9.135485     34.748382     11.036396
  N       8.667385     35.878400     11.450315
  C       7.324962     35.943405     11.425193
  H       0.965437     39.664809     10.839665
  H       5.488265     39.798786      9.850688
  H       5.456129     41.534833     10.152269
  H       5.699386     41.116661     12.600817
  H       7.727779     41.138095     10.720103
  H       9.052680     40.677587     12.712043
  H       7.764498     38.796480     10.315226
  H       9.766083     38.513090     10.985428
  H       7.446271     38.078241     13.214606
  H       4.393757     37.273544     11.535786
  H       5.338277     32.813570      9.987968
  H       6.776458     31.973544      9.608437
  H      10.202710     34.589145     10.962858
  H       8.833721     32.915012     10.190829
163
Coordinates from ORCA-job /data/Seafile/amp/al_surf/protonated_al_surf/frames/frame12/dry/amp_al_frame12_dry E -13417.888715146384
  Si      3.468791     33.809716      7.685653
  Si      3.497458     30.723274      7.834353
  O       2.077077     34.361832      8.302553
  O       2.175166     30.009639      8.468526
  O       3.604675     32.280921      8.295982
  O       3.455630     33.707921      6.043296
  O       3.469510     30.679938      6.192899
  Si      6.162401     26.094174      7.894702
  Si      8.818528     24.531016      7.905822
  O       4.785149     25.459683      8.484841
  O       7.466613     25.278112      8.430066
  O       8.791407     23.010922      8.490889
  O       6.197429     26.092476      6.248626
  O       8.773318     24.572023      6.261343
  Si      6.140214     29.157522      7.774322
  Si      6.165515     35.349383      7.428847
  Si      8.931462     33.768181      7.477502
  Si      8.902729     30.684883      7.664525
  O       4.858048     29.970321      8.362626
  O       4.811497     34.650024      8.064388
  O       7.443820     34.385032      7.762049
  O       7.493612     29.993168      8.132138
  O       6.240010     27.651163      8.380018
  O       8.855611     32.232169      8.175577
  O       5.896352     29.054575      6.154703
  O       5.932765     35.459938      5.810640
  O       9.179784     33.555519      5.876739
  O       9.032309     30.647766      6.036562
  Si      6.531218     38.388117      7.427694
  Si      9.085489     40.071275      7.792504
  O       5.187777     39.153068      7.568403
  O       7.806890     39.152064      8.186572
  O       6.476066     36.821252      8.006652
  O       8.953643     41.566056      8.454744
  O       7.144884     38.273518      5.881393
  O       9.222049     40.124039      6.153811
  Si     11.493510     26.033884      7.792631
  Si     14.158635     24.528206      7.871274
  O      10.142486     25.350156      8.400409
  O      12.846272     25.350776      8.382794
  O      13.947580     23.002243      8.402760
  O      11.422181     25.736067      6.176147
  O      14.189658     24.603704      6.226994
  Si     11.563452     29.209682      7.762695
  Al     11.687037     35.354250      7.718186
  Si     14.297918     33.728356      7.886912
  Si     14.222010     30.695967      7.830481
  O      10.176267     29.890471      8.309666
  O      10.109229     34.617071      8.130511
  O      13.058871     34.532810      8.487927
  O      12.896857     29.894155      8.396372
  O      11.501426     27.621524      8.111041
  O      14.401846     32.172202      8.467225
  O      11.588025     29.443338      6.138574
  O      11.966781     35.020240      6.006379
  O      14.122150     33.545887      6.258289
  O      13.992942     30.843803      6.211621
  Si     11.773141     38.620320      7.809132
  Si     14.468155     40.070592      7.882658
  O      10.446293     39.395726      8.397772
  O      13.123142     39.343521      8.432984
  O      11.717785     37.062282      8.112291
  O      14.643123     41.616028      8.396838
  O      11.865746     38.982284      6.195215
  O      14.475504     39.962298      6.239994
  Si     16.875043     25.982455      7.903578
  O      15.522354     25.227692      8.423945
  O      18.119341     25.087088      8.458729
  O      16.802144     26.004724      6.259516
  Si     16.936515     29.051963      7.822097
  Si     17.062385     35.300313      7.832621
  Si     19.697659     33.723768      7.867568
  Si     19.557922     30.639778      7.869341
  O      15.523483     29.766075      8.150261
  O      15.747209     34.445026      8.207038
  O      18.397478     34.539785      8.415735
  O      18.174279     29.941818      8.394674
  O      16.922729     27.528977      8.424247
  O      19.699061     32.173756      8.405733
  O      17.155835     28.849552      6.202900
  O      17.319481     35.365789      6.206119
  O      19.582150     33.637730      6.227348
  O      19.491413     30.694079      6.225459
  Si     17.037173     38.375634      7.839402
  O      15.813211     39.290005      8.406197
  O      18.508725     38.922196      8.300674
  O      16.969502     36.834686      8.383989
  O      16.896934     38.319885      6.200632
  O      20.744114     29.650693      8.395093
  O      21.123445     34.354473      8.356198
  H       4.074657     24.986772      8.036591
  H       1.410409     29.602015      8.036749
  H       1.410409     35.007985      8.036749
  H       4.074657     39.623228      8.036591
  H       8.948181     22.173255      8.038302
  H       8.948181     42.436745      8.038302
  H      14.277762     22.173204      8.038282
  H      14.277762     42.436796      8.038282
  H      18.960557     24.876228      8.036406
  H      18.960557     39.733772      8.036406
  H      21.624717     29.491420      8.036583
  H      21.624717     35.118580      8.036583
  H      13.323455     34.076097      5.962899
  H      11.198801     34.716351      5.517255
  H       9.021556     32.659846      5.554472
  H       9.871903     30.251837      5.743450
  H      12.390678     29.927147      5.859119
  H      14.033128     31.797556      5.958471
  H      13.610150     39.655619      5.907061
  H      11.035723     39.339476      5.843748
  H       8.548659     39.552452      5.738492
  H       6.745984     37.582195      5.345057
  H       5.183626     34.944173      5.489544
  H       3.360042     32.808503      5.706625
  H       4.192212     30.158757      5.812999
  H       6.064455     28.176657      5.786599
  H       6.955241     25.606312      5.891471
  H       9.603449     24.892029      5.874035
  H      12.267001     25.468147      5.789751
  H      14.986632     25.040323      5.889228
  H      16.953917     26.892380      5.894519
  H      17.802772     29.456830      5.817444
  H      19.503248     31.604014      5.887718
  H      18.873756     34.207578      5.881101
  H      17.102007     36.221411      5.811120
  H      16.116963     38.804232      5.883617
  P       2.886078     39.637010      9.966202
  O       2.916206     38.213697     10.354783
  O       3.152855     40.029178      8.513376
  O       1.473567     40.306169     10.308872
  O       3.846479     40.534504     10.893026
  C       5.229189     40.564657     10.595800
  C       6.035880     40.392341     11.860956
  O       5.845618     39.089273     12.441834
  C       7.522417     40.517473     11.610080
  O       8.158729     41.017962     12.763137
  C       7.945193     39.067410     11.368605
  O       9.287427     38.888538     11.736003
  C       6.970275     38.299320     12.268345
  N       6.537771     37.007998     11.711342
  C       5.240259     36.595146     11.478493
  N       5.164286     35.345216     11.099352
  C       6.458095     34.924552     11.057822
  C       7.016798     33.728156     10.612228
  N       6.331745     32.673292     10.181624
  N       8.374985     33.698692     10.650751
  C       9.144967     34.753332     11.043812
  N       8.675702     35.883000     11.459179
  C       7.332993     35.947279     11.434971
  H       0.981301     39.684151     10.853041
  H       5.497419     39.806623      9.853759
  H       5.472913     41.538322     10.158430
  H       5.709251     41.117733     12.609134
  H       7.744128     41.138560     10.734814
  H       9.061815     40.674769     12.729089
  H       7.774111     38.797873     10.326936
  H       9.771403     38.511975     10.996414
  H       7.453073     38.080999     13.227656
  H       4.401746     37.278531     11.542900
  H       5.349957     32.817582      9.994617
  H       6.790671     31.982298      9.605722
  H      10.213009     34.593778     10.969898
  H       8.844625     32.921334     10.196471
163
Coordinates from ORCA-job /data/Seafile/amp/al_surf/protonated_al_surf/frames/frame12/dry/amp_al_frame12_dry E -13417.888683254903
  Si      3.469600     33.812031      7.687136
  Si      3.497018     30.725629      7.836013
  O       2.078761     34.365841      8.304211
  O       2.173110     30.013681      8.469140
  O       3.605241     32.283250      8.297467
  O       3.455575     33.710210      6.044659
  O       3.469899     30.682127      6.194498
  Si      6.161340     26.096228      7.895963
  Si      8.816610     24.531993      7.907027
  O       4.782735     25.463450      8.484981
  O       7.464731     25.278896      8.431401
  O       8.788342     23.010971      8.490617
  O       6.196799     26.094876      6.249935
  O       8.772048     24.574367      6.262550
  Si      6.139709     29.159666      7.776934
  Si      6.166984     35.350874      7.429857
  Si      8.932696     33.769239      7.480484
  Si      8.902448     30.686276      7.668499
  O       4.856799     29.971479      8.364771
  O       4.812736     34.652003      8.065379
  O       7.444978     34.386664      7.763634
  O       7.492742     29.995497      8.135606
  O       6.240017     27.652930      8.381927
  O       8.855954     32.233600      8.179481
  O       5.896773     29.057421      6.157111
  O       5.934546     35.462002      5.811520
  O       9.181802     33.555439      5.879691
  O       9.032318     30.649039      6.040460
  Si      6.532959     38.390224      7.431844
  Si      9.087435     40.070841      7.796553
  O       5.189785     39.154095      7.573961
  O       7.808244     39.152830      8.191843
  O       6.476982     36.822535      8.008090
  O       8.957767     41.566191      8.457509
  O       7.144996     38.277737      5.886231
  O       9.223841     40.123133      6.157743
  Si     11.492176     26.034313      7.795519
  Si     14.157378     24.528379      7.872465
  O      10.141001     25.350024      8.402493
  O      12.845017     25.350524      8.384829
  O      13.946615     23.001926      8.402935
  O      11.420855     25.738251      6.178794
  O      14.187880     24.604760      6.228203
  Si     11.562960     29.209876      7.766954
  Al     11.689024     35.353856      7.721185
  Si     14.299343     33.727385      7.890671
  Si     14.222425     30.694969      7.834694
  O      10.175922     29.891207      8.313510
  O      10.110635     34.617980      8.133483
  O      13.060282     34.531859      8.491322
  O      12.896698     29.893915      8.400470
  O      11.500178     27.621659      8.115230
  O      14.403139     32.171224      8.471076
  O      11.587672     29.443421      6.142878
  O      11.968977     35.019924      6.009429
  O      14.123502     33.544498      6.262081
  O      13.993980     30.842621      6.215726
  Si     11.774789     38.619796      7.812787
  Si     14.469104     40.070569      7.884403
  O      10.447819     39.394651      8.401576
  O      13.124732     39.343496      8.435870
  O      11.720468     37.061665      8.115452
  O      14.643868     41.616455      8.397205
  O      11.866426     38.981357      6.198804
  O      14.475719     39.961509      6.241763
  Si     16.874253     25.981654      7.904470
  O      15.521228     25.227652      8.425063
  O      18.117979     25.084287      8.458021
  O      16.800346     26.005074      6.260430
  Si     16.936560     29.051107      7.824876
  Si     17.063037     35.299919      7.835036
  Si     19.698077     33.723152      7.868711
  Si     19.557865     30.639130      7.870618
  O      15.523497     29.764464      8.154451
  O      15.748402     34.444481      8.210443
  O      18.398490     34.539559      8.417480
  O      18.174499     29.941184      8.396710
  O      16.923774     27.527764      8.426121
  O      19.699539     32.173114      8.406937
  O      17.154507     28.849784      6.205427
  O      17.319045     35.365000      6.208385
  O      19.581694     33.636818      6.228520
  O      19.490503     30.693488      6.226763
  Si     17.037723     38.375257      7.840689
  O      15.814550     39.290497      8.407665
  O      18.509689     38.921841      8.300570
  O      16.970123     36.834525      8.385896
  O      16.896532     38.318699      6.202009
  O      20.744322     29.650027      8.395471
  O      21.124133     34.354103      8.356375
  H       4.074657     24.986772      8.036591
  H       1.410409     29.602015      8.036749
  H       1.410409     35.007985      8.036749
  H       4.074657     39.623228      8.036591
  H       8.948181     22.173255      8.038302
  H       8.948181     42.436745      8.038302
  H      14.277762     22.173204      8.038282
  H      14.277762     42.436796      8.038282
  H      18.960557     24.876228      8.036406
  H      18.960557     39.733772      8.036406
  H      21.624717     29.491420      8.036583
  H      21.624717     35.118580      8.036583
  H      13.325098     34.074760      5.966643
  H      11.200971     34.715978      5.520472
  H       9.022910     32.659542      5.557910
  H       9.871511     30.252315      5.747439
  H      12.390646     29.926642      5.863370
  H      14.039161     31.796162      5.961858
  H      13.610060     39.655440      5.909257
  H      11.035298     39.336322      5.847283
  H       8.551330     39.548841      5.742317
  H       6.747830     37.585520      5.349065
  H       5.185269     34.946485      5.490123
  H       3.360351     32.810666      5.707976
  H       4.193163     30.161381      5.814951
  H       6.065029     28.179705      5.788577
  H       6.954998     25.609320      5.892717
  H       9.602076     24.895222      5.875695
  H      12.265595     25.470435      5.792012
  H      14.984649     25.041649      5.890272
  H      16.951703     26.892953      5.895726
  H      17.801260     29.457161      5.819703
  H      19.502003     31.603441      5.888923
  H      18.872811     34.206189      5.882425
  H      17.101210     36.220554      5.813228
  H      16.116567     38.803158      5.885092
  P       2.884281     39.651345      9.968483
  O       2.908864     38.230151     10.364577
  O       3.154839     40.034377      8.513495
  O       1.474492     40.325864     10.306550
  O       3.845582     40.549650     10.892317
  C       5.230828     40.577146     10.596644
  C       6.035529     40.398451     11.862105
  O       5.840313     39.094234     12.442386
  C       7.521942     40.518368     11.610954
  O       8.155082     41.022092     12.759662
  C       7.946752     39.068021     11.373955
  O       9.288486     38.888264     11.745217
  C       6.965865     38.301227     12.272585
  N       6.530948     37.011470     11.713091
  C       5.232400     36.602560     11.479870
  N       5.153172     35.353529     11.098681
  C       6.445787     34.929161     11.056016
  C       7.000748     33.732058     10.609911
  N       6.313011     32.679889     10.180730
  N       8.358460     33.698823     10.646726
  C       9.131322     34.750551     11.039498
  N       8.665792     35.880651     11.456505
  C       7.323443     35.948994     11.433751
  H       0.982214     39.708990     10.852853
  H       5.499240     39.820868      9.852184
  H       5.478636     41.552870     10.161947
  H       5.709801     41.124674     12.609763
  H       7.744274     41.134916     10.734185
  H       9.057028     40.679941     12.724346
  H       7.780612     38.798436     10.330326
  H       9.774681     38.511099     11.006479
  H       7.445151     38.078878     13.235320
  H       4.395065     37.288602     11.544989
  H       5.331039     32.826604      9.994634
  H       6.768829     31.988112      9.606494
  H      10.198525     34.587856     10.964930
  H       8.825159     32.921131     10.193684
163
Coordinates from ORCA-job /data/Seafile/amp/al_surf/protonated_al_surf/frames/frame12/dry/amp_al_frame12_dry E -13417.888726908945
  Si      3.469135     33.811448      7.686047
  Si      3.496737     30.724991      7.833968
  O       2.079602     34.365988      8.305234
  O       2.172979     30.014162      8.468147
  O       3.605636     32.282476      8.295681
  O       3.452712     33.710179      6.043669
  O       3.468293     30.681296      6.192521
  Si      6.161460     26.095697      7.893359
  Si      8.816623     24.530551      7.904573
  O       4.782249     25.465333      8.483544
  O       7.464842     25.278076      8.428732
  O       8.787144     23.010650      8.489451
  O       6.196426     26.092896      6.247331
  O       8.771877     24.571918      6.260103
  Si      6.139538     29.158928      7.772763
  Si      6.166148     35.350384      7.426858
  Si      8.932016     33.768827      7.475315
  Si      8.902329     30.685690      7.662645
  O       4.856913     29.970615      8.361543
  O       4.812796     34.651008      8.062996
  O       7.444686     34.386519      7.759083
  O       7.492769     29.994910      8.130166
  O       6.240930     27.652585      8.378371
  O       8.855365     32.233006      8.173460
  O       5.895227     29.056047      6.153184
  O       5.932896     35.461333      5.808596
  O       9.181058     33.555955      5.874538
  O       9.032282     30.648242      6.034731
  Si      6.531282     38.389271      7.426782
  Si      9.087342     40.071264      7.790362
  O       5.190794     39.155664      7.572022
  O       7.808291     39.152198      8.183427
  O       6.476232     36.822280      8.004718
  O       8.958163     41.565940      8.453450
  O       7.139700     38.276291      5.880416
  O       9.224447     40.125037      6.151767
  Si     11.491864     26.033456      7.791890
  Si     14.157304     24.528153      7.870303
  O      10.140979     25.349071      8.399345
  O      12.844741     25.350367      8.381795
  O      13.946177     23.002169      8.401689
  O      11.420539     25.736239      6.175250
  O      14.188248     24.603771      6.226048
  Si     11.562591     29.209153      7.762004
  Al     11.688084     35.353691      7.717042
  Si     14.298465     33.727176      7.886546
  Si     14.221892     30.694625      7.830193
  O      10.175620     29.890870      8.308294
  O      10.109728     34.617163      8.128811
  O      13.059192     34.531520      8.487210
  O      12.896246     29.893277      8.395729
  O      11.499472     27.621063      8.110834
  O      14.402380     32.170908      8.466734
  O      11.587682     29.442181      6.137842
  O      11.968532     35.020075      6.005346
  O      14.123028     33.544471      6.257919
  O      13.993453     30.842279      6.211227
  Si     11.774426     38.619629      7.808079
  Si     14.468987     40.070641      7.882045
  O      10.447251     39.394478      8.395830
  O      13.124157     39.343155      8.432130
  O      11.719051     37.061614      8.111454
  O      14.643759     41.616073      8.396153
  O      11.867490     38.981229      6.194163
  O      14.476601     39.962513      6.239394
  Si     16.874209     25.981435      7.902346
  O      15.520998     25.227755      8.422937
  O      18.117284     25.083732      8.456528
  O      16.800758     26.004317      6.258321
  Si     16.936352     29.051065      7.821773
  Si     17.062481     35.300024      7.832343
  Si     19.697759     33.723573      7.867255
  Si     19.557372     30.639675      7.869118
  O      15.522877     29.764171      8.150413
  O      15.747522     34.444317      8.206873
  O      18.397730     34.539764      8.415423
  O      18.173729     29.941557      8.394275
  O      16.923660     27.527813      8.423425
  O      19.698951     32.173593      8.405476
  O      17.155204     28.849246      6.202411
  O      17.319404     35.365527      6.205796
  O      19.582266     33.637323      6.227047
  O      19.490785     30.693989      6.225261
  Si     17.037585     38.375343      7.838902
  O      15.814226     39.290423      8.405597
  O      18.509437     38.921574      8.299696
  O      16.969545     36.834453      8.383586
  O      16.897006     38.319200      6.200201
  O      20.743618     29.650223      8.394643
  O      21.123754     34.354033      8.355652
  H       4.074657     24.986772      8.036591
  H       1.410409     29.602015      8.036749
  H       1.410409     35.007985      8.036749
  H       4.074657     39.623228      8.036591
  H       8.948181     22.173255      8.038302
  H       8.948181     42.436745      8.038302
  H      14.277762     22.173204      8.038282
  H      14.277762     42.436796      8.038282
  H      18.960557     24.876228      8.036406
  H      18.960557     39.733772      8.036406
  H      21.624717     29.491420      8.036583
  H      21.624717     35.118580      8.036583
  H      13.324375     34.074467      5.962319
  H      11.200776     34.716087      5.515998
  H       9.022584     32.660321      5.552248
  H       9.871700     30.251754      5.741948
  H      12.390612     29.925549      5.858430
  H      14.036618     31.795890      5.957590
  H      13.611275     39.656015      5.906346
  H      11.037659     39.338512      5.842317
  H       8.550500     39.553668      5.736036
  H       6.742355     37.583204      5.344676
  H       5.183183     34.946425      5.487519
  H       3.357865     32.810756      5.706802
  H       4.191299     30.160635      5.812536
  H       6.063077     28.178143      5.784984
  H       6.954546     25.606857      5.890523
  H       9.602002     24.892350      5.873090
  H      12.265238     25.468138      5.788789
  H      14.985241     25.040324      5.888237
  H      16.952450     26.892033      5.893472
  H      17.802205     29.456381      5.816979
  H      19.502640     31.603892      5.887483
  H      18.873804     34.206948      5.880672
  H      17.102081     36.221205      5.810889
  H      16.117285     38.803937      5.883190
  P       2.880587     39.635958      9.964083
  O       2.913613     38.214816     10.358607
  O       3.148758     40.022744      8.509277
  O       1.465777     40.303219     10.302342
  O       3.839111     40.537999     10.888995
  C       5.222425     40.570234     10.592845
  C       6.029157     40.394264     11.857771
  O       5.837986     39.090108     12.437150
  C       7.515773     40.518708     11.606909
  O       8.150540     41.020553     12.759080
  C       7.940487     39.068876     11.367053
  O       9.282214     38.890880     11.735779
  C       6.964461     38.300680     12.266458
  N       6.533376     37.009091     11.709106
  C       5.236027     36.595309     11.477623
  N       5.160622     35.345517     11.097483
  C       6.454672     34.925876     11.054144
  C       7.013589     33.730188     10.607470
  N       6.328790     32.675514     10.177668
  N       8.371604     33.701676     10.644106
  C       9.141144     34.756539     11.036912
  N       8.671660     35.885596     11.453666
  C       7.329095     35.949082     11.431088
  H       0.976416     39.685017     10.850748
  H       5.491494     39.815428      9.847326
  H       5.465980     41.545814     10.159486
  H       5.702808     41.118999     12.606723
  H       7.737582     41.138474     10.730844
  H       9.053728     40.678461     12.724994
  H       7.771355     38.798953     10.324869
  H       9.767560     38.513679     10.997354
  H       7.445823     38.082404     13.227799
  H       4.396930     37.278384     11.543220
  H       5.346662     32.819297      9.992205
  H       6.787015     31.985234      9.600279
  H      10.209142     34.597807     10.961996
  H       8.841163     32.924583     10.190165
163
Coordinates from ORCA-job /data/Seafile/amp/al_surf/protonated_al_surf/frames/frame12/dry/amp_al_frame12_dry E -13417.888696302805
  Si      3.470101     33.810579      7.685632
  Si      3.496976     30.724407      7.835122
  O       2.078067     34.362198      8.302488
  O       2.172652     30.014107      8.469188
  O       3.606100     32.282074      8.296246
  O       3.457365     33.708807      6.043261
  O       3.469654     30.679915      6.193716
  Si      6.160967     26.096832      7.895221
  Si      8.815863     24.532354      7.906315
  O       4.781448     25.465953      8.483924
  O       7.463756     25.278731      8.430764
  O       8.787230     23.011208      8.490121
  O       6.196726     26.095499      6.249145
  O       8.771478     24.574697      6.261860
  Si      6.140277     29.159781      7.776474
  Si      6.166852     35.351778      7.430009
  Si      8.933052     33.769929      7.477002
  Si      8.902804     30.686682      7.666689
  O       4.856829     29.970731      8.364473
  O       4.812835     34.650983      8.064321
  O       7.445695     34.387081      7.762349
  O       7.493109     29.996303      8.134833
  O       6.241225     27.653322      8.381427
  O       8.857044     32.234392      8.176811
  O       5.897291     29.057465      6.156663
  O       5.933852     35.464684      5.812039
  O       9.180276     33.555549      5.876491
  O       9.032230     30.648390      6.038774
  Si      6.535437     38.390325      7.432895
  Si      9.088193     40.071783      7.798117
  O       5.189563     39.154926      7.569186
  O       7.809749     39.153745      8.195608
  O       6.477628     36.822769      8.010530
  O       8.959595     41.567000      8.459198
  O       7.154288     38.273638      5.886641
  O       9.220897     40.124098      6.158864
  Si     11.491615     26.034287      7.793660
  Si     14.157035     24.528408      7.870831
  O      10.140664     25.350036      8.401488
  O      12.844834     25.351090      8.383005
  O      13.945192     23.002041      8.401205
  O      11.420174     25.737142      6.177101
  O      14.187635     24.605328      6.226623
  Si     11.562562     29.210073      7.764204
  Al     11.690396     35.353815      7.715836
  Si     14.300194     33.726606      7.885734
  Si     14.222193     30.694493      7.830737
  O      10.176097     29.892081      8.311720
  O      10.111564     34.619097      8.128921
  O      13.061140     34.531382      8.486208
  O      12.896896     29.893329      8.397311
  O      11.499119     27.621876      8.112363
  O      14.403458     32.170784      8.466989
  O      11.586935     29.443773      6.139982
  O      11.969567     35.017481      6.004259
  O      14.124650     33.543595      6.257125
  O      13.992165     30.842261      6.211975
  Si     11.775857     38.620408      7.809303
  Si     14.470541     40.070829      7.881712
  O      10.449641     39.395078      8.400987
  O      13.126218     39.343191      8.432609
  O      11.722440     37.061683      8.109325
  O      14.645543     41.616466      8.395660
  O      11.866428     38.985087      6.195585
  O      14.477128     39.962134      6.239020
  Si     16.874245     25.981232      7.902945
  O      15.521344     25.226823      8.423570
  O      18.117976     25.084374      8.457069
  O      16.800525     26.004566      6.258982
  Si     16.936765     29.050530      7.821826
  Si     17.064166     35.299114      7.831911
  Si     19.699014     33.722211      7.866715
  Si     19.558211     30.638050      7.868109
  O      15.523568     29.764193      8.150163
  O      15.749332     34.443372      8.205818
  O      18.399266     34.538650      8.415275
  O      18.174498     29.940666      8.394068
  O      16.923439     27.527525      8.424067
  O      19.700789     32.171963      8.404603
  O      17.156085     28.848316      6.202680
  O      17.321500     35.364941      6.205552
  O      19.582651     33.636291      6.226570
  O      19.490802     30.692941      6.224303
  Si     17.038711     38.374275      7.838200
  O      15.815960     39.290453      8.404794
  O      18.510803     38.920295      8.298385
  O      16.970770     36.833517      8.383509
  O      16.897564     38.317479      6.199478
  O      20.743413     29.647928      8.393224
  O      21.124941     34.352963      8.354993
  H       4.074657     24.986772      8.036591
  H       1.410409     29.602015      8.036749
  H       1.410409     35.007985      8.036749
  H       4.074657     39.623228      8.036591
  H       8.948181     22.173255      8.038302
  H       8.948181     42.436745      8.038302
  H      14.277762     22.173204      8.038282
  H      14.277762     42.436796      8.038282
  H      18.960557     24.876228      8.036406
  H      18.960557     39.733772      8.036406
  H      21.624717     29.491420      8.036583
  H      21.624717     35.118580      8.036583
  H      13.326585     34.074712      5.961334
  H      11.201058     34.715369      5.514779
  H       9.022309     32.659551      5.555205
  H       9.871677     30.251975      5.745769
  H      12.389920     29.927078      5.860426
  H      14.030337     31.796026      5.959058
  H      13.611562     39.655325      5.906616
  H      11.035503     39.341868      5.845544
  H       8.549365     39.549915      5.745076
  H       6.753821     37.584443      5.349400
  H       5.184883     34.948884      5.490485
  H       3.361347     32.809443      5.706522
  H       4.193327     30.159535      5.814430
  H       6.065645     28.179736      5.788183
  H       6.954765     25.609800      5.892009
  H       9.601781     24.895006      5.875189
  H      12.265173     25.469786      5.790537
  H      14.984749     25.041781      5.888907
  H      16.952651     26.892364      5.894382
  H      17.802670     29.456140      5.817217
  H      19.503236     31.603053      5.886830
  H      18.874514     34.206795      5.880613
  H      17.103467     36.220650      5.810737
  H      16.117802     38.802177      5.882372
  P       2.894113     39.647513      9.968537
  O       2.921467     38.223261     10.354383
  O       3.160025     40.040494      8.517723
  O       1.484088     40.318280     10.311653
  O       3.852970     40.544836     10.895191
  C       5.236000     40.574436     10.600594
  C       6.038318     40.400151     11.867052
  O       5.847115     39.095497     12.443205
  C       7.525234     40.527338     11.620836
  O       8.158649     41.024354     12.777122
  C       7.948572     39.078061     11.375361
  O       9.290986     38.899711     11.745520
  C       6.971795     38.306721     12.270365
  N       6.541382     37.015548     11.710434
  C       5.244403     36.600870     11.476922
  N       5.170180     35.350789     11.098875
  C       6.464502     34.931723     11.058633
  C       7.024629     33.735196     10.615412
  N       6.340870     32.678743     10.184806
  N       8.382890     33.706824     10.656465
  C       9.151659     34.763083     11.047988
  N       8.681093     35.893087     11.460455
  C       7.338119     35.955708     11.435466
  H       0.988533     39.692516     10.851683
  H       5.507234     39.816715      9.858754
  H       5.480406     41.549676     10.164937
  H       5.709158     41.123132     12.616527
  H       7.748963     41.151630     10.748623
  H       9.061856     40.681521     12.744070
  H       7.779690     38.811615     10.332546
  H       9.775193     38.519762     11.007492
  H       7.452447     38.087683     13.229254
  H       4.405388     37.283027     11.540317
  H       5.359117     32.822104      9.994973
  H       6.801616     31.986557      9.613609
  H      10.219733     34.604374     10.974644
  H       8.853711     32.929289     10.203301
163
Coordinates from ORCA-job /data/Seafile/amp/al_surf/protonated_al_surf/frames/frame12/dry/amp_al_frame12_dry E -13417.888743839860
  Si      3.469715     33.811953      7.686915
  Si      3.496466     30.725687      7.835024
  O       2.080050     34.366566      8.306001
  O       2.171421     30.016693      8.468622
  O       3.606256     32.283142      8.296674
  O       3.453578     33.710807      6.044546
  O       3.468820     30.681543      6.193605
  Si      6.160701     26.097275      7.893976
  Si      8.815058     24.531077      7.905123
  O       4.779880     25.469311      8.482977
  O       7.463152     25.278231      8.429480
  O       8.784206     23.010597      8.488978
  O       6.196398     26.094926      6.247960
  O       8.770952     24.573633      6.260665
  Si      6.139596     29.160258      7.774933
  Si      6.166860     35.351569      7.428911
  Si      8.932830     33.769846      7.477082
  Si      8.902309     30.686757      7.665398
  O       4.856123     29.970850      8.363422
  O       4.813421     34.651368      8.064047
  O       7.445743     34.387955      7.761288
  O       7.492402     29.996704      8.133033
  O       6.241663     27.653775      8.379865
  O       8.855877     32.234227      8.175885
  O       5.896097     29.057973      6.155177
  O       5.934246     35.463214      5.810655
  O       9.181216     33.556350      5.876385
  O       9.032325     30.648829      6.037520
  Si      6.533361     38.390312      7.429936
  Si      9.088882     40.071311      7.793667
  O       5.191816     39.157692      7.572537
  O       7.810082     39.152699      8.188446
  O       6.476346     36.823223      8.007835
  O       8.961176     41.566430      8.455540
  O       7.145220     38.275557      5.883199
  O       9.224021     40.124182      6.154785
  Si     11.490644     26.033623      7.793233
  Si     14.156265     24.528329      7.870300
  O      10.139886     25.348614      8.400522
  O      12.843835     25.350473      8.382479
  O      13.944608     23.002009      8.400698
  O      11.419206     25.737219      6.176491
  O      14.186829     24.605146      6.226106
  Si     11.561925     29.209305      7.764262
  Al     11.689816     35.353516      7.717659
  Si     14.299559     33.726131      7.887177
  Si     14.221790     30.693729      7.831589
  O      10.175453     29.891805      8.310939
  O      10.111032     34.618070      8.130077
  O      13.060516     34.530804      8.487819
  O      12.896187     29.892639      8.397618
  O      11.497871     27.621130      8.112730
  O      14.403165     32.170047      8.467865
  O      11.586780     29.442537      6.140071
  O      11.969760     35.018820      6.006032
  O      14.123817     33.543089      6.258619
  O      13.992524     30.841412      6.212718
  Si     11.775877     38.619551      7.809258
  Si     14.470320     40.070626      7.881899
  O      10.449170     39.394428      8.398220
  O      13.125898     39.342979      8.432676
  O      11.721172     37.061364      8.111752
  O      14.645366     41.616328      8.395368
  O      11.867920     38.981770      6.195331
  O      14.477244     39.961752      6.239258
  Si     16.873628     25.980736      7.902243
  O      15.520372     25.227145      8.423030
  O      18.116407     25.082007      8.455499
  O      16.799449     26.004536      6.258286
  Si     16.936313     29.050263      7.822355
  Si     17.063358     35.299273      7.832619
  Si     19.698413     33.722692      7.867097
  Si     19.557301     30.638772      7.868808
  O      15.522779     29.763043      8.151331
  O      15.748645     34.443297      8.207111
  O      18.398706     34.539120      8.415699
  O      18.173728     29.940916      8.394571
  O      16.924000     27.526913      8.423867
  O      19.699884     32.172622      8.405259
  O      17.154856     28.848707      6.202975
  O      17.320137     35.364818      6.206118
  O      19.582130     33.636416      6.226952
  O      19.489845     30.693463      6.225012
  Si     17.038392     38.374473      7.838561
  O      15.815805     39.290643      8.405278
  O      18.510659     38.920445      8.298441
  O      16.970254     36.833762      8.383889
  O      16.897031     38.317524      6.199912
  O      20.743134     29.648604      8.393630
  O      21.124635     34.353135      8.354973
  H       4.074657     24.986772      8.036591
  H       1.410409     29.602015      8.036749
  H       1.410409     35.007985      8.036749
  H       4.074657     39.623228      8.036591
  H       8.948181     22.173255      8.038302
  H       8.948181     42.436745      8.038302
  H      14.277762     22.173204      8.038282
  H      14.277762     42.436796      8.038282
  H      18.960557     24.876228      8.036406
  H      18.960557     39.733772      8.036406
  H      21.624717     29.491420      8.036583
  H      21.624717     35.118580      8.036583
  H      13.325572     34.073780      5.962974
  H      11.201625     34.716080      5.516468
  H       9.022592     32.660656      5.554348
  H       9.871702     30.252093      5.744824
  H      12.389703     29.925936      5.860629
  H      14.034679     31.795016      5.959190
  H      13.611667     39.655243      5.906726
  H      11.037763     39.338953      5.844087
  H       8.550781     39.551725      5.739947
  H       6.746999     37.582815      5.347873
  H       5.184558     34.948565      5.489114
  H       3.358783     32.811420      5.707543
  H       4.192471     30.161347      5.814060
  H       6.064203     28.180233      5.786630
  H       6.954815     25.609302      5.891234
  H       9.601276     24.894250      5.874171
  H      12.264019     25.469662      5.789767
  H      14.983859     25.041698      5.888331
  H      16.951424     26.892378      5.893768
  H      17.801485     29.456266      5.817401
  H      19.501878     31.603455      5.887362
  H      18.873829     34.206468      5.880797
  H      17.102414     36.220486      5.811220
  H      16.117455     38.802525      5.882876
  P       2.881180     39.641179      9.964113
  O       2.911574     38.219662     10.359340
  O       3.150447     40.027103      8.509796
  O       1.467146     40.310384     10.300456
  O       3.839069     40.543527     10.888688
  C       5.222912     40.574982     10.594707
  C       6.027409     40.398171     11.860405
  O       5.835917     39.093433     12.437823
  C       7.514192     40.523468     11.611516
  O       8.147703     41.023696     12.764952
  C       7.938985     39.073965     11.369913
  O       9.280902     38.896035     11.739542
  C       6.962367     38.304525     12.267569
  N       6.532030     37.012785     11.709893
  C       5.234763     36.598214     11.478699
  N       5.159968     35.348226     11.099703
  C       6.454246     34.929104     11.056785
  C       7.013648     33.733147     10.611490
  N       6.329325     32.677493     10.182631
  N       8.371781     33.705096     10.648545
  C       9.140984     34.760838     11.039620
  N       8.671071     35.890237     11.454742
  C       7.328311     35.953043     11.432479
  H       0.975662     39.691664     10.848481
  H       5.493303     39.820343      9.849813
  H       5.467258     41.550847     10.161892
  H       5.699758     41.121920     12.609733
  H       7.736881     41.144614     10.736828
  H       9.051090     40.681608     12.731373
  H       7.770467     38.805497     10.327376
  H       9.766260     38.517227     11.001848
  H       7.443037     38.086279     13.228437
  H       4.395488     37.280833     11.543867
  H       5.347106     32.820596      9.996588
  H       6.788147     31.986632      9.607272
  H      10.208977     34.602334     10.964637
  H       8.841705     32.927709     10.195410
163
Coordinates from ORCA-job /data/Seafile/amp/al_surf/protonated_al_surf/frames/frame12/dry/amp_al_frame12_dry E -13417.888749611218
  Si      3.470100     33.813000      7.686317
  Si      3.495836     30.726722      7.834196
  O       2.081632     34.368787      8.306619
  O       2.169789     30.020017      8.468305
  O       3.606992     32.284112      8.295697
  O       3.452188     33.712024      6.043926
  O       3.467532     30.681942      6.192811
  Si      6.159882     26.098513      7.892580
  Si      8.813532     24.530965      7.903913
  O       4.777611     25.473773      8.481622
  O       7.461659     25.278311      8.428113
  O       8.781213     23.010549      8.487833
  O       6.195476     26.095233      6.246575
  O       8.769769     24.573523      6.259470
  Si      6.139126     29.161317      7.773120
  Si      6.167335     35.352517      7.426962
  Si      8.933357     33.770518      7.473882
  Si      8.902096     30.687403      7.662734
  O       4.855311     29.971006      8.362065
  O       4.814401     34.651974      8.062292
  O       7.446602     34.389021      7.758204
  O       7.491845     29.998166      8.130645
  O       6.242485     27.654944      8.378122
  O       8.856212     32.234981      8.172808
  O       5.895179     29.058923      6.153420
  O       5.933892     35.465184      5.808790
  O       9.181731     33.556715      5.873238
  O       9.032129     30.648926      6.034903
  Si      6.533901     38.391065      7.429652
  Si      9.089995     40.071628      7.792606
  O       5.193483     39.158181      7.574408
  O       7.810878     39.153286      8.187351
  O       6.476962     36.823864      8.006801
  O       8.964227     41.566533      8.455238
  O       7.142825     38.277028      5.883357
  O       9.224896     40.125440      6.153733
  Si     11.489425     26.033338      7.791910
  Si     14.155313     24.528249      7.869133
  O      10.138753     25.348051      8.399246
  O      12.842767     25.350368      8.381093
  O      13.943283     23.001966      8.399495
  O      11.418042     25.736894      6.175133
  O      14.185971     24.605137      6.224962
  Si     11.561288     29.208993      7.762360
  Al     11.690938     35.353177      7.715056
  Si     14.300247     33.725278      7.885427
  Si     14.221747     30.692803      7.830000
  O      10.174978     29.892197      8.308714
  O      10.111586     34.618574      8.127056
  O      13.060936     34.529854      8.485652
  O      12.895771     29.892007      8.395790
  O      11.496373     27.620922      8.111329
  O      14.403579     32.169136      8.466179
  O      11.586699     29.441619      6.138092
  O      11.971318     35.018243      6.003554
  O      14.125034     33.542171      6.256822
  O      13.992954     30.840430      6.211078
  Si     11.776819     38.619362      7.807662
  Si     14.471060     40.070853      7.880894
  O      10.449905     39.393552      8.396760
  O      13.126715     39.342873      8.431301
  O      11.722699     37.060934      8.109238
  O      14.646018     41.616455      8.394686
  O      11.868792     38.982343      6.193833
  O      14.478173     39.962375      6.238251
  Si     16.873090     25.979959      7.901026
  O      15.519506     25.226933      8.421881
  O      18.115126     25.079973      8.453890
  O      16.798703     26.004055      6.257105
  Si     16.936278     29.049522      7.821277
  Si     17.063757     35.298998      7.831621
  Si     19.698756     33.722380      7.866358
  Si     19.557057     30.638411      7.867952
  O      15.522432     29.761804      8.150178
  O      15.749167     34.442626      8.205734
  O      18.399126     34.538965      8.414889
  O      18.173393     29.940588      8.393554
  O      16.924445     27.526096      8.422740
  O      19.700136     32.172224      8.404381
  O      17.154948     28.848123      6.201884
  O      17.320761     35.364829      6.205164
  O      19.582535     33.636138      6.226230
  O      19.489552     30.693249      6.224179
  Si     17.038836     38.374168      7.837658
  O      15.816676     39.290964      8.404103
  O      18.511301     38.919843      8.297263
  O      16.970447     36.833463      8.383028
  O      16.897306     38.316877      6.199042
  O      20.742588     29.647747      8.392642
  O      21.125060     34.352626      8.354292
  H       4.074657     24.986772      8.036591
  H       1.410409     29.602015      8.036749
  H       1.410409     35.007985      8.036749
  H       4.074657     39.623228      8.036591
  H       8.948181     22.173255      8.038302
  H       8.948181     42.436745      8.038302
  H      14.277762     22.173204      8.038282
  H      14.277762     42.436796      8.038282
  H      18.960557     24.876228      8.036406
  H      18.960557     39.733772      8.036406
  H      21.624717     29.491420      8.036583
  H      21.624717     35.118580      8.036583
  H      13.326629     34.072483      5.960953
  H      11.203368     34.715794      5.513613
  H       9.023442     32.660905      5.551481
  H       9.871214     30.251615      5.742344
  H      12.390105     29.924281      5.858713
  H      14.036079     31.794058      5.957452
  H      13.612679     39.655819      5.905623
  H      11.038542     39.339407      5.842719
  H       8.552051     39.552373      5.738844
  H       6.745467     37.584358      5.347533
  H       5.183929     34.950915      5.487380
  H       3.357210     32.812683      5.706912
  H       4.191461     30.162282      5.813221
  H       6.062928     28.181160      5.784943
  H       6.953903     25.609517      5.890098
  H       9.600040     24.894376      5.873153
  H      12.262777     25.469110      5.788551
  H      14.983122     25.041454      5.887243
  H      16.950663     26.891891      5.892683
  H      17.801742     29.455507      5.816490
  H      19.501920     31.603233      5.886611
  H      18.874240     34.206124      5.880056
  H      17.103279     36.220600      5.810502
  H      16.117862     38.802000      5.881971
  P       2.882976     39.638943      9.963740
  O       2.917679     38.217928     10.357745
  O       3.150604     40.025295      8.509744
  O       1.468465     40.304602     10.301221
  O       3.838242     40.543568     10.888450
  C       5.221982     40.577616     10.595010
  C       6.025739     40.398590     11.861186
  O       5.834094     39.092513     12.435823
  C       7.512751     40.525173     11.613936
  O       8.144790     41.024923     12.768629
  C       7.939206     39.076397     11.371144
  O       9.280923     38.900042     11.741682
  C       6.962132     38.305231     12.267109
  N       6.534212     37.013376     11.707360
  C       5.237683     36.596725     11.475511
  N       5.165082     35.346719     11.095733
  C       6.460107     34.929990     11.052702
  C       7.021574     33.735344     10.606689
  N       6.338992     32.679255     10.176217
  N       8.379678     33.709365     10.644550
  C       9.146978     34.766060     11.036827
  N       8.675121     35.894468     11.452456
  C       7.332306     35.955072     11.429762
  H       0.978947     39.684554     10.848141
  H       5.494016     39.825156      9.847648
  H       5.465279     41.555571     10.165329
  H       5.697428     41.120715     12.611885
  H       7.735744     41.147141     10.739901
  H       9.048225     40.684381     12.734875
  H       7.772137     38.808622     10.327892
  H       9.766436     38.520202     11.004652
  H       7.441472     38.087157     13.229482
  H       4.397282     37.278079     11.540725
  H       5.356718     32.821375      9.989398
  H       6.799425     31.989364      9.600496
  H      10.215268     34.609392     10.962034
  H       8.851063     32.933051     10.191381
163
Coordinates from ORCA-job /data/Seafile/amp/al_surf/protonated_al_surf/frames/frame12/dry/amp_al_frame12_dry E -13417.888766872964
  Si      3.471193     33.815567      7.687306
  Si      3.494798     30.729414      7.834129
  O       2.085142     34.374029      8.310660
  O       2.165958     30.027678      8.467884
  O       3.608804     32.286561      8.295825
  O       3.449625     33.715597      6.044912
  O       3.466442     30.683871      6.192797
  Si      6.157929     26.102009      7.890871
  Si      8.809637     24.531158      7.902523
  O       4.771760     25.484768      8.478809
  O       7.457781     25.278709      8.426683
  O       8.773083     23.010396      8.485349
  O       6.194212     26.097718      6.244947
  O       8.767109     24.575146      6.258119
  Si      6.138482     29.164360      7.772395
  Si      6.168891     35.355148      7.426302
  Si      8.934987     33.772380      7.472097
  Si      8.901749     30.689469      7.662011
  O       4.853438     29.971792      8.361733
  O       4.816723     34.653459      8.061441
  O       7.448889     34.392441      7.756400
  O       7.490608     30.002132      8.130024
  O       6.244306     27.657982      8.376822
  O       8.856677     32.237230      8.171529
  O       5.894569     29.062523      6.152617
  O       5.935245     35.469003      5.808114
  O       9.183297     33.558058      5.871482
  O       9.032124     30.650189      6.034251
  Si      6.536259     38.393997      7.431486
  Si      9.094083     40.071890      7.793453
  O       5.197927     39.164158      7.579098
  O       7.814761     39.154144      8.188451
  O       6.477319     36.826372      8.007369
  O       8.973021     41.566907      8.456323
  O       7.142919     38.279980      5.884152
  O       9.227549     40.126410      6.154346
  Si     11.486312     26.032984      7.791673
  Si     14.152746     24.528378      7.867593
  O      10.135866     25.346494      8.398594
  O      12.840081     25.350092      8.380115
  O      13.939996     23.001814      8.396984
  O      11.414872     25.737766      6.174658
  O      14.183010     24.606404      6.223522
  Si     11.559755     29.208482      7.762541
  Al     11.693937     35.352453      7.713429
  Si     14.301937     33.722901      7.884521
  Si     14.221532     30.690406      7.829754
  O      10.174202     29.893676      8.308357
  O      10.113754     34.619483      8.125424
  O      13.062736     34.527814      8.484440
  O      12.895077     29.890363      8.395621
  O      11.492574     27.620495      8.111982
  O      14.404791     32.166802      8.465516
  O      11.585510     29.440313      6.138163
  O      11.974587     35.017168      6.002071
  O      14.126833     33.539361      6.255973
  O      13.992611     30.837837      6.210824
  Si     11.779945     38.618489      7.806905
  Si     14.473469     40.070866      7.879602
  O      10.453358     39.392209      8.396642
  O      13.129766     39.342150      8.430305
  O      11.726268     37.059982      8.107909
  O      14.648337     41.616636      8.392958
  O      11.871264     38.981685      6.193033
  O      14.480313     39.962045      6.236971
  Si     16.871546     25.978128      7.898980
  O      15.517291     25.226506      8.420361
  O      18.111831     25.074594      8.450025
  O      16.795899     26.003606      6.255176
  Si     16.936136     29.047704      7.820503
  Si     17.064792     35.297838      7.830777
  Si     19.699576     33.721208      7.865306
  Si     19.556494     30.637297      7.866769
  O      15.521696     29.758593      8.150029
  O      15.750662     34.440676      8.204786
  O      18.400356     34.538190      8.414135
  O      18.172800     29.939608      8.392604
  O      16.925763     27.523965      8.421461
  O      19.700834     32.170982      8.403301
  O      17.154275     28.847092      6.200952
  O      17.321617     35.363902      6.204342
  O      19.582849     33.634778      6.225244
  O      19.488396     30.692471      6.223078
  Si     17.040159     38.372899      7.836320
  O      15.819354     39.291415      8.402742
  O      18.513230     38.917910      8.294767
  O      16.971182     36.832368      8.382258
  O      16.897709     38.314628      6.197824
  O      20.741479     29.645601      8.390825
  O      21.126205     34.351156      8.352757
  H       4.074657     24.986772      8.036591
  H       1.410409     29.602015      8.036749
  H       1.410409     35.007985      8.036749
  H       4.074657     39.623228      8.036591
  H       8.948181     22.173255      8.038302
  H       8.948181     42.436745      8.038302
  H      14.277762     22.173204      8.038282
  H      14.277762     42.436796      8.038282
  H      18.960557     24.876228      8.036406
  H      18.960557     39.733772      8.036406
  H      21.624717     29.491420      8.036583
  H      21.624717     35.118580      8.036583
  H      13.328918     34.070192      5.959806
  H      11.206461     34.716041      5.511548
  H       9.024700     32.662229      5.549859
  H       9.871020     30.252123      5.742029
  H      12.389041     29.922743      5.858712
  H      14.037171     31.791322      5.956837
  H      13.614706     39.655485      5.904591
  H      11.041130     39.339580      5.842317
  H       8.554135     39.553651      5.739709
  H       6.746398     37.585279      5.349915
  H       5.184364     34.956210      5.486415
  H       3.355677     32.816328      5.707369
  H       4.191311     30.165304      5.813391
  H       6.062261     28.184920      5.783661
  H       6.953359     25.612663      5.888973
  H       9.597563     24.896633      5.872602
  H      12.259616     25.470309      5.787775
  H      14.980214     25.042654      5.885739
  H      16.948119     26.891572      5.891112
  H      17.800926     29.454656      5.815521
  H      19.501010     31.602503      5.885542
  H      18.874745     34.205011      5.879029
  H      17.104158     36.219839      5.809854
  H      16.118706     38.800463      5.880665
  P       2.877789     39.641498      9.961740
  O       2.913220     38.222382     10.362631
  O       3.147300     40.021840      8.505911
  O       1.460644     40.306071     10.293042
  O       3.830949     40.551102     10.884127
  C       5.215283     40.587209     10.593740
  C       6.017444     40.403676     11.860194
  O       5.825131     39.096122     12.431058
  C       7.504752     40.530799     11.615083
  O       8.134576     41.029196     12.771256
  C       7.932324     39.082569     11.371270
  O       9.273519     38.906769     11.743341
  C       6.954610     38.310164     12.265182
  N       6.529011     37.017767     11.705391
  C       5.232823     36.599096     11.475631
  N       5.161456     35.348934     11.095987
  C       6.456917     34.933912     11.051534
  C       7.019085     33.739574     10.605464
  N       6.337092     32.682631     10.176196
  N       8.377138     33.715217     10.641861
  C       9.143608     34.773287     11.032390
  N       8.670998     35.901499     11.447888
  C       7.328174     35.960451     11.427074
  H       0.972773     39.690012     10.845299
  H       5.488912     39.838989      9.843088
  H       5.458532     41.567078     10.169406
  H       5.688268     41.123792     12.612338
  H       7.729052     41.153742     10.741907
  H       9.038554     40.689252     12.738642
  H       7.766837     38.816115     10.327599
  H       9.760204     38.524728     11.008208
  H       7.432349     38.092759     13.228398
  H       4.391724     37.279548     11.541598
  H       5.354400     32.823475      9.990411
  H       6.797098     31.992679      9.600435
  H      10.211905     34.617906     10.956267
  H       8.848887     32.938576     10.189259
163
Coordinates from ORCA-job /data/Seafile/amp/al_surf/protonated_al_surf/frames/frame12/dry/amp_al_frame12_dry E -13417.888784099827
  Si      3.472571     33.819541      7.691994
  Si      3.492212     30.733985      7.836339
  O       2.091132     34.384491      8.319572
  O       2.156286     30.044164      8.467371
  O       3.611761     32.290458      8.298954
  O       3.444990     33.721345      6.049685
  O       3.466033     30.686599      6.195205
  Si      6.154005     26.109907      7.887387
  Si      8.800729     24.530002      7.899751
  O       4.756805     25.512348      8.469839
  O       7.448381     25.277529      8.423953
  O       8.751931     23.008556      8.478671
  O       6.194100     26.105041      6.241614
  O       8.762346     24.579309      6.255415
  Si      6.137503     29.170827      7.775345
  Si      6.171377     35.359509      7.431877
  Si      8.938052     33.777477      7.477202
  Si      8.900773     30.694452      7.667222
  O       4.848527     29.971987      8.365113
  O       4.820570     34.654309      8.063363
  O       7.454416     34.401907      7.762962
  O       7.487581     30.011007      8.135068
  O       6.249715     27.663951      8.376711
  O       8.856951     32.242284      8.175893
  O       5.895758     29.071626      6.154959
  O       5.941630     35.473583      5.813023
  O       9.184508     33.563311      5.876379
  O       9.032563     30.653612      6.039845
  Si      6.538904     38.397237      7.436892
  Si      9.100045     40.071726      7.794393
  O       5.205965     39.177039      7.587472
  O       7.821721     39.153790      8.191231
  O       6.473273     36.831159      8.015081
  O       8.984636     41.567999      8.453729
  O       7.142987     38.278042      5.887609
  O       9.230697     40.123254      6.155042
  Si     11.478552     26.031897      7.793756
  Si     14.146502     24.528979      7.864179
  O      10.129306     25.340573      8.399004
  O      12.833964     25.349626      8.379324
  O      13.930301     23.001178      8.388888
  O      11.406954     25.741174      6.175969
  O      14.175404     24.612640      6.220478
  Si     11.555020     29.207230      7.768913
  Al     11.700460     35.351743      7.717655
  Si     14.305461     33.717583      7.887341
  Si     14.219633     30.685091      7.834390
  O      10.171756     29.897262      8.314968
  O      10.118440     34.621721      8.131042
  O      13.067509     34.524156      8.487580
  O      12.892986     29.885550      8.401163
  O      11.481646     27.618982      8.117538
  O      14.406876     32.161616      8.469453
  O      11.581369     29.438693      6.144405
  O      11.980457     35.014625      6.006531
  O      14.128773     33.532872      6.259157
  O      13.988354     30.833003      6.215805
  Si     11.785050     38.617330      7.809158
  Si     14.478392     40.070790      7.877417
  O      10.459044     39.391646      8.397437
  O      13.135466     39.342112      8.430132
  O      11.731895     37.059070      8.111713
  O      14.655661     41.617606      8.387523
  O      11.875715     38.978245      6.194776
  O      14.483271     39.958498      6.234992
  Si     16.867708     25.974126      7.895346
  O      15.512915     25.223453      8.417594
  O      18.105122     25.063319      8.440909
  O      16.788086     26.004601      6.251912
  Si     16.934679     29.043709      7.821817
  Si     17.067354     35.295021      7.831775
  Si     19.701474     33.718356      7.864041
  Si     19.553893     30.634713      7.864974
  O      15.519303     29.751859      8.153173
  O      15.754546     34.435594      8.205633
  O      18.403777     34.536453      8.414972
  O      18.170741     29.937276      8.393080
  O      16.927361     27.518938      8.421096
  O      19.703579     32.167853      8.401866
  O      17.150842     28.845111      6.201885
  O      17.323119     35.361409      6.205393
  O      19.581299     33.631457      6.224313
  O      19.481196     30.691675      6.221630
  Si     17.042732     38.369500      7.834309
  O      15.825392     39.292775      8.400305
  O      18.517968     38.913426      8.287984
  O      16.973343     36.829819      8.383265
  O      16.896347     38.306683      6.196223
  O      20.737698     29.638620      8.384713
  O      21.129885     34.347056      8.348581
  H       4.074657     24.986772      8.036591
  H       1.410409     29.602015      8.036749
  H       1.410409     35.007985      8.036749
  H       4.074657     39.623228      8.036591
  H       8.948181     22.173255      8.038302
  H       8.948181     42.436745      8.038302
  H      14.277762     22.173204      8.038282
  H      14.277762     42.436796      8.038282
  H      18.960557     24.876228      8.036406
  H      18.960557     39.733772      8.036406
  H      21.624717     29.491420      8.036583
  H      21.624717     35.118580      8.036583
  H      13.332195     34.066180      5.963154
  H      11.211661     34.719477      5.513816
  H       9.025885     32.667794      5.554160
  H       9.870558     30.252960      5.748565
  H      12.385042     29.921209      5.865444
  H      14.034064     31.786385      5.961782
  H      13.617012     39.651451      5.904566
  H      11.045995     39.336348      5.843970
  H       8.557316     39.550107      5.741888
  H       6.748165     37.577854      5.359106
  H       5.189264     34.964641      5.489527
  H       3.353017     32.822430      5.711046
  H       4.193731     30.170897      5.817072
  H       6.063698     28.194651      5.784577
  H       6.955315     25.621697      5.887459
  H       9.593804     24.902217      5.872938
  H      12.251849     25.475548      5.788100
  H      14.972865     25.048769      5.883177
  H      16.941513     26.893137      5.889637
  H      17.796168     29.453840      5.816006
  H      19.494404     31.601881      5.884646
  H      18.873783     34.202985      5.878923
  H      17.104790     36.217382      5.811250
  H      16.118311     38.793968      5.878989
  P       2.857595     39.636088      9.950272
  O       2.895246     38.218840     10.360838
  O       3.135801     40.009527      8.494040
  O       1.435569     40.299097     10.266116
  O       3.800785     40.555663     10.872326
  C       5.187794     40.596959     10.592121
  C       5.984764     40.407182     11.861012
  O       5.793502     39.095957     12.423708
  C       7.472820     40.538352     11.619788
  O       8.098752     41.033355     12.778598
  C       7.904221     39.092169     11.371312
  O       9.246480     38.919896     11.742200
  C       6.928016     38.315394     12.263592
  N       6.509491     37.020103     11.706322
  C       5.214641     36.594280     11.479700
  N       5.149289     35.343137     11.102782
  C       6.447253     34.934822     11.056416
  C       7.015108     33.743085     10.610733
  N       6.338312     32.682253     10.184563
  N       8.373657     33.725634     10.644262
  C       9.135353     34.788319     11.030352
  N       8.657489     35.914812     11.444558
  C       7.313915     35.966681     11.427517
  H       0.947171     39.687357     10.824765
  H       5.469235     39.855760      9.837841
  H       5.429940     41.580785     10.176293
  H       5.651483     41.122573     12.616208
  H       7.697923     41.164654     10.749063
  H       9.004022     40.697422     12.744770
  H       7.739371     38.829169     10.326809
  H       9.732357     38.533544     11.009202
  H       7.404487     38.102297     13.228427
  H       4.370186     37.270869     11.546379
  H       5.354645     32.817253     10.001742
  H       6.802038     31.994575      9.609523
  H      10.204360     34.637992     10.952493
  H       8.849009     32.950827     10.193355
163
Coordinates from ORCA-job /data/Seafile/amp/al_surf/protonated_al_surf/frames/frame12/dry/amp_al_frame12_dry E -13417.888786269867
  Si      3.474899     33.823692      7.690637
  Si      3.490459     30.738140      7.834431
  O       2.096273     34.391337      8.321759
  O       2.150787     30.055727      8.466172
  O       3.614491     32.294419      8.296697
  O       3.443078     33.726427      6.048246
  O       3.463086     30.688793      6.193383
  Si      6.150897     26.115119      7.883112
  Si      8.795073     24.531225      7.896533
  O       4.748851     25.527452      8.463942
  O       7.442601     25.278876      8.420123
  O       8.741761     23.009030      8.474562
  O       6.191732     26.108626      6.237429
  O       8.758305     24.581485      6.252264
  Si      6.136271     29.175365      7.771565
  Si      6.174389     35.363761      7.427050
  Si      8.941158     33.779604      7.467905
  Si      8.900488     30.696969      7.661806
  O       4.845918     29.973607      8.362215
  O       4.824612     34.657057      8.059315
  O       7.458116     34.405191      7.754274
  O       7.485689     30.017134      8.130542
  O       6.251917     27.668656      8.372558
  O       8.859631     32.245379      8.168959
  O       5.893717     29.076429      6.151267
  O       5.941367     35.481930      5.808703
  O       9.186968     33.563004      5.867337
  O       9.031808     30.654194      6.034378
  Si      6.544696     38.401835      7.439840
  Si      9.106710     40.072859      7.797515
  O       5.211652     39.180859      7.593121
  O       7.827326     39.156906      8.195798
  O       6.477655     36.834085      8.014197
  O       9.000503     41.568706      8.459339
  O       7.147938     38.284261      5.890203
  O       9.233660     40.127726      6.157533
  Si     11.474527     26.031311      7.791070
  Si     14.143196     24.528935      7.861275
  O      10.125109     25.339547      8.396216
  O      12.830324     25.349279      8.376445
  O      13.926061     23.000984      8.385382
  O      11.403191     25.740740      6.173197
  O      14.171977     24.613106      6.217645
  Si     11.553340     29.206402      7.764699
  Al     11.705696     35.350090      7.708454
  Si     14.308637     33.713990      7.881321
  Si     14.219860     30.681645      7.829765
  O      10.170746     29.898758      8.309807
  O      10.122115     34.623645      8.121278
  O      13.070362     34.520842      8.480255
  O      12.892168     29.883522      8.396455
  O      11.477287     27.618508      8.114737
  O      14.408779     32.158221      8.464121
  O      11.580328     29.436065      6.139909
  O      11.986469     35.011330      5.997730
  O      14.133342     33.528406      6.253071
  O      13.989200     30.828840      6.211063
  Si     11.790272     38.616218      7.804843
  Si     14.482054     40.071198      7.874348
  O      10.464804     39.388360      8.397159
  O      13.140213     39.340835      8.426605
  O      11.739685     37.057005      8.102599
  O      14.658273     41.617825      8.385469
  O      11.878676     38.981260      6.190819
  O      14.487016     39.960133      6.231814
  Si     16.865852     25.971542      7.891581
  O      15.509899     25.223127      8.414486
  O      18.100820     25.056409      8.435456
  O      16.785151     26.003052      6.248273
  Si     16.935042     29.040993      7.818233
  Si     17.069362     35.293340      7.827794
  Si     19.703135     33.716483      7.861101
  Si     19.553820     30.632635      7.861726
  O      15.518720     29.747386      8.149506
  O      15.757206     34.432602      8.200558
  O      18.405810     34.535226      8.411679
  O      18.170311     29.935705      8.389616
  O      16.929268     27.516099      8.417493
  O      19.704682     32.165717      8.398583
  O      17.151735     28.842931      6.198298
  O      17.325869     35.360776      6.201595
  O      19.583271     33.629643      6.221388
  O      19.481330     30.689899      6.218406
  Si     17.044894     38.367756      7.830915
  O      15.829246     39.293203      8.396631
  O      18.520647     38.910545      8.283766
  O      16.974379     36.828077      8.379892
  O      16.898113     38.304471      6.192878
  O      20.736191     29.635311      8.381367
  O      21.131517     34.344907      8.346042
  H       4.074657     24.986772      8.036591
  H       1.410409     29.602015      8.036749
  H       1.410409     35.007985      8.036749
  H       4.074657     39.623228      8.036591
  H       8.948181     22.173255      8.038302
  H       8.948181     42.436745      8.038302
  H      14.277762     22.173204      8.038282
  H      14.277762     42.436796      8.038282
  H      18.960557     24.876228      8.036406
  H      18.960557     39.733772      8.036406
  H      21.624717     29.491420      8.036583
  H      21.624717     35.118580      8.036583
  H      13.336607     34.060759      5.956146
  H      11.217713     34.717428      5.504069
  H       9.028749     32.666640      5.546955
  H       9.869264     30.252363      5.743139
  H      12.384678     29.917305      5.860586
  H      14.036809     31.782089      5.956446
  H      13.620566     39.653768      5.901112
  H      11.048663     39.341536      5.842278
  H       8.560413     39.553001      5.745218
  H       6.752756     37.585391      5.360167
  H       5.188113     34.973759      5.485685
  H       3.350667     32.827644      5.709134
  H       4.192197     30.174936      5.815429
  H       6.061145     28.199586      5.780437
  H       6.953635     25.626007      5.883865
  H       9.590010     24.904735      5.870600
  H      12.248107     25.474899      5.785511
  H      14.969590     25.048966      5.880230
  H      16.939076     26.891588      5.886184
  H      17.797459     29.451616      5.812908
  H      19.495212     31.600187      5.881518
  H      18.876130     34.201516      5.875743
  H      17.108249     36.217347      5.808196
  H      16.120663     38.792621      5.875436
  P       2.859311     39.641462      9.949924
  O       2.898593     38.225089     10.361537
  O       3.138799     40.013691      8.493345
  O       1.434368     40.299396     10.261995
  O       3.798796     40.564400     10.873540
  C       5.185012     40.613968     10.595717
  C       5.979832     40.416567     11.864113
  O       5.787717     39.101788     12.417418
  C       7.467638     40.551276     11.627614
  O       8.089386     41.043714     12.790181
  C       7.901812     39.106639     11.374611
  O       9.243343     38.936624     11.749687
  C       6.923969     38.324790     12.259916
  N       6.509892     37.029766     11.697732
  C       5.215986     36.600394     11.473008
  N       5.153303     35.349098     11.096344
  C       6.451986     34.944206     11.048552
  C       7.021574     33.752939     10.604059
  N       6.346075     32.690700     10.178329
  N       8.379888     33.738146     10.637445
  C       9.139629     34.803383     11.021036
  N       8.660000     35.929615     11.433629
  C       7.316479     35.978392     11.418284
  H       0.946955     39.686618     10.819334
  H       5.469791     39.880851      9.834509
  H       5.424140     41.603254     10.190586
  H       5.645382     41.126791     12.623122
  H       7.694035     41.180740     10.760150
  H       8.995852     40.708322     12.759486
  H       7.740946     38.847128     10.328510
  H       9.731321     38.545436     11.020334
  H       7.396882     38.110904     13.225890
  H       4.370513     37.274879     11.540451
  H       5.362301     32.824182      9.994079
  H       6.810435     32.001320      9.604059
  H      10.208709     34.655402     10.941766
  H       8.856434     32.963106     10.188054
163
Coordinates from ORCA-job /data/Seafile/amp/al_surf/protonated_al_surf/frames/frame12/dry/amp_al_frame12_dry E -13417.888800010494
  Si      3.474950     33.823878      7.690447
  Si      3.490688     30.738229      7.833952
  O       2.096847     34.391588      8.322859
  O       2.151295     30.055256      8.465762
  O       3.614362     32.294520      8.296306
  O       3.442433     33.727092      6.048051
  O       3.463284     30.689296      6.192922
  Si      6.150840     26.115557      7.883186
  Si      8.794867     24.531773      7.896715
  O       4.748713     25.527904      8.463669
  O       7.442488     25.279466      8.420344
  O       8.741122     23.009274      8.474437
  O       6.191791     26.109305      6.237557
  O       8.758268     24.582291      6.252496
  Si      6.136502     29.175706      7.771514
  Si      6.174700     35.363963      7.426779
  Si      8.941549     33.779968      7.469406
  Si      8.900782     30.697234      7.662353
  O       4.846283     29.974230      8.361852
  O       4.824965     34.656987      8.059106
  O       7.458548     34.406173      7.755440
  O       7.485918     30.017417      8.130852
  O       6.251734     27.669081      8.372814
  O       8.859768     32.245595      8.169647
  O       5.894210     29.076983      6.151191
  O       5.942261     35.481004      5.808310
  O       9.187398     33.564185      5.868728
  O       9.032107     30.654930      6.034939
  Si      6.543663     38.402840      7.438192
  Si      9.106353     40.073403      7.796137
  O       5.211092     39.182176      7.594281
  O       7.827162     39.156930      8.192567
  O       6.477004     36.834911      8.012657
  O       8.998446     41.569073      8.457996
  O       7.143980     38.285634      5.887916
  O       9.234960     40.128743      6.156247
  Si     11.474580     26.031469      7.791597
  Si     14.143176     24.529060      7.861481
  O      10.125078     25.339721      8.396638
  O      12.830348     25.349365      8.377008
  O      13.926056     23.001094      8.385418
  O      11.403233     25.741246      6.173679
  O      14.171755     24.613397      6.217890
  Si     11.553652     29.206436      7.765187
  Al     11.705446     35.350865      7.710635
  Si     14.308327     33.714616      7.882722
  Si     14.219860     30.682131      7.830429
  O      10.171093     29.898896      8.310118
  O      10.122564     34.623577      8.123304
  O      13.070497     34.521930      8.482124
  O      12.892317     29.883747      8.397009
  O      11.477491     27.618631      8.115474
  O      14.408300     32.158667      8.465104
  O      11.580777     29.435829      6.140400
  O      11.986285     35.013062      5.999750
  O      14.132693     33.529514      6.254490
  O      13.989401     30.829586      6.211761
  Si     11.789870     38.616586      7.805404
  Si     14.481814     40.071146      7.874643
  O      10.464345     39.389526      8.396532
  O      13.139711     39.341351      8.427075
  O      11.738662     37.057920      8.104975
  O      14.658097     41.617691      8.385578
  O      11.878756     38.979506      6.191146
  O      14.486926     39.960031      6.232138
  Si     16.865746     25.971771      7.891642
  O      15.509891     25.223253      8.414691
  O      18.100851     25.056881      8.435507
  O      16.784887     26.003202      6.248351
  Si     16.934954     29.041248      7.818359
  Si     17.069221     35.293401      7.828283
  Si     19.702979     33.716510      7.861162
  Si     19.553864     30.632637      7.861772
  O      15.518788     29.747911      8.149918
  O      15.757129     34.432808      8.201572
  O      18.405729     34.535296      8.411946
  O      18.170387     29.935683      8.389802
  O      16.928982     27.516352      8.417602
  O      19.704361     32.165764      8.398727
  O      17.151379     28.843357      6.198362
  O      17.325183     35.360638      6.201982
  O      19.583075     33.629667      6.221459
  O      19.481396     30.689835      6.218472
  Si     17.044657     38.367835      7.831371
  O      15.828665     39.292799      8.397278
  O      18.520144     38.910856      8.284415
  O      16.974356     36.828137      8.380345
  O      16.898026     38.304600      6.193363
  O      20.736283     29.635682      8.381535
  O      21.131250     34.345023      8.346134
  H       4.074657     24.986772      8.036591
  H       1.410409     29.602015      8.036749
  H       1.410409     35.007985      8.036749
  H       4.074657     39.623228      8.036591
  H       8.948181     22.173255      8.038302
  H       8.948181     42.436745      8.038302
  H      14.277762     22.173204      8.038282
  H      14.277762     42.436796      8.038282
  H      18.960557     24.876228      8.036406
  H      18.960557     39.733772      8.036406
  H      21.624717     29.491420      8.036583
  H      21.624717     35.118580      8.036583
  H      13.336464     34.062755      5.957712
  H      11.217438     34.719541      5.505905
  H       9.029458     32.667908      5.548022
  H       9.869608     30.253111      5.743643
  H      12.384965     29.917361      5.861073
  H      14.037053     31.782840      5.957274
  H      13.620786     39.653058      5.901306
  H      11.049137     39.340223      5.841982
  H       8.561287     39.556364      5.742517
  H       6.749877     37.584728      5.359590
  H       5.188146     34.973684      5.485638
  H       3.350804     32.828318      5.708654
  H       4.192339     30.175499      5.814758
  H       6.061916     28.200258      5.780121
  H       6.953802     25.626937      5.883869
  H       9.589906     24.905798      5.870861
  H      12.248164     25.475438      5.785820
  H      14.969305     25.049385      5.880355
  H      16.938649     26.891719      5.886112
  H      17.797265     29.451884      5.812876
  H      19.495122     31.600138      5.881483
  H      18.875851     34.201442      5.875756
  H      17.107632     36.217256      5.808430
  H      16.120509     38.792664      5.875844
  P       2.865761     39.647235      9.954659
  O       2.905805     38.231923     10.368751
  O       3.139893     40.015028      8.496849
  O       1.443241     40.307142     10.270841
  O       3.807245     40.571095     10.873495
  C       5.193993     40.615161     10.595454
  C       5.988263     40.417634     11.864888
  O       5.794869     39.103816     12.419864
  C       7.476898     40.549263     11.628504
  O       8.100146     41.039712     12.791356
  C       7.908215     39.103954     11.376057
  O       9.249158     38.931064     11.749446
  C       6.930409     38.324601     12.262808
  N       6.515416     37.029864     11.701710
  C       5.221811     36.601792     11.473383
  N       5.158558     35.350934     11.094735
  C       6.456748     34.944769     11.050216
  C       7.025753     33.753248     10.605032
  N       6.349515     32.692168     10.175550
  N       8.383957     33.737384     10.642155
  C       9.143996     34.801581     11.029794
  N       8.664775     35.927737     11.443314
  C       7.321475     35.977700     11.424137
  H       0.957660     39.695618     10.831237
  H       5.476930     39.880352      9.835942
  H       5.435696     41.602247     10.188102
  H       5.653954     41.128914     12.623168
  H       7.704794     41.179073     10.760673
  H       9.005534     40.704306     12.759171
  H       7.745709     38.844328     10.330806
  H       9.735722     38.540438     11.018921
  H       7.403607     38.110827     13.228752
  H       4.376771     37.277255     11.538188
  H       5.365526     32.827033      9.988518
  H       6.812996     32.002998      9.603665
  H      10.212947     34.653097     10.952236
  H       8.860287     32.962106     10.191232
163
Coordinates from ORCA-job /data/Seafile/amp/al_surf/protonated_al_surf/frames/frame12/dry/amp_al_frame12_dry E -13417.888796948251
  Si      3.474383     33.822667      7.691195
  Si      3.490994     30.737046      7.835115
  O       2.094949     34.389335      8.321472
  O       2.152271     30.052548      8.466503
  O       3.613442     32.293346      8.297516
  O       3.444102     33.725213      6.048794
  O       3.464152     30.688250      6.194061
  Si      6.151782     26.114404      7.884544
  Si      8.796284     24.531165      7.897771
  O       4.750311     25.524914      8.464653
  O       7.443827     25.278782      8.421507
  O       8.743361     23.008854      8.475481
  O       6.193026     26.108912      6.238868
  O       8.759448     24.581712      6.253516
  Si      6.136829     29.174587      7.773366
  Si      6.174002     35.362661      7.429381
  Si      8.940818     33.779446      7.472485
  Si      8.900831     30.696654      7.664742
  O       4.846729     29.973578      8.363507
  O       4.823758     34.656098      8.061026
  O       7.457793     34.405215      7.759174
  O       7.486179     30.016204      8.133081
  O       6.251497     27.667906      8.374581
  O       8.859750     32.244800      8.172446
  O       5.895031     29.075871      6.152985
  O       5.942693     35.478656      5.810726
  O       9.185846     33.563853      5.871667
  O       9.031986     30.654698      6.037287
  Si      6.542500     38.401016      7.438832
  Si      9.104348     40.072769      7.796370
  O       5.209549     39.180107      7.592211
  O       7.825234     39.156303      8.193930
  O       6.476001     36.833822      8.014705
  O       8.993837     41.568698      8.457474
  O       7.145210     38.282808      5.889488
  O       9.233282     40.126444      6.156650
  Si     11.475539     26.031406      7.792763
  Si     14.143930     24.529015      7.862408
  O      10.126087     25.339619      8.397712
  O      12.831272     25.349356      8.378139
  O      13.926660     23.000982      8.385965
  O      11.404166     25.741083      6.174880
  O      14.172465     24.613688      6.218785
  Si     11.553764     29.206449      7.766877
  Al     11.704425     35.351168      7.712567
  Si     14.307760     33.715345      7.883731
  Si     14.219507     30.682868      7.831648
  O      10.170989     29.898117      8.312421
  O      10.121861     34.623325      8.125905
  O      13.070209     34.522837      8.483346
  O      12.892316     29.884078      8.398534
  O      11.478435     27.618509      8.116701
  O      14.407572     32.159446      8.466287
  O      11.580416     29.436366      6.142162
  O      11.984619     35.013109      6.001632
  O      14.131873     33.530215      6.255497
  O      13.988440     30.830253      6.213064
  Si     11.788585     38.616990      7.806587
  Si     14.480916     40.071135      7.875443
  O      10.462850     39.390065      8.397355
  O      13.138498     39.341989      8.428075
  O      11.737357     37.058296      8.106604
  O      14.657687     41.617800      8.385999
  O      11.877735     38.979766      6.192267
  O      14.485895     39.959490      6.232969
  Si     16.866157     25.972387      7.892930
  O      15.510770     25.222847      8.415663
  O      18.102204     25.058981      8.437106
  O      16.785417     26.003631      6.249583
  Si     16.934680     29.041897      7.819528
  Si     17.068954     35.293719      7.829225
  Si     19.702741     33.716849      7.861899
  Si     19.553715     30.632971      7.862570
  O      15.518825     29.749158      8.150896
  O      15.756824     34.433136      8.202423
  O      18.405485     34.535546      8.412786
  O      18.170372     29.936004      8.390917
  O      16.928047     27.517031      8.418841
  O      19.704351     32.166096      8.399425
  O      17.151207     28.843664      6.199593
  O      17.325009     35.360917      6.202924
  O      19.582531     33.630001      6.222196
  O      19.480702     30.690256      6.219241
  Si     17.044120     38.368139      7.832147
  O      15.827784     39.292687      8.397985
  O      18.519595     38.911480      8.284995
  O      16.974200     36.828456      8.381216
  O      16.897423     38.304823      6.194104
  O      20.736339     29.635830      8.381701
  O      21.131120     34.345373      8.346592
  H       4.074657     24.986772      8.036591
  H       1.410409     29.602015      8.036749
  H       1.410409     35.007985      8.036749
  H       4.074657     39.623228      8.036591
  H       8.948181     22.173255      8.038302
  H       8.948181     42.436745      8.038302
  H      14.277762     22.173204      8.038282
  H      14.277762     42.436796      8.038282
  H      18.960557     24.876228      8.036406
  H      18.960557     39.733772      8.036406
  H      21.624717     29.491420      8.036583
  H      21.624717     35.118580      8.036583
  H      13.335753     34.063843      5.958847
  H      11.215714     34.719727      5.507925
  H       9.028345     32.667537      5.551023
  H       9.869464     30.253145      5.745687
  H      12.384295     29.918338      5.862797
  H      14.034423     31.783565      5.958740
  H      13.619731     39.652470      5.902294
  H      11.047727     39.339088      5.842898
  H       8.559778     39.553254      5.743507
  H       6.751142     37.582806      5.360328
  H       5.189301     34.970599      5.487799
  H       3.351779     32.826434      5.709763
  H       4.193056     30.174190      5.816043
  H       6.062850     28.199152      5.782024
  H       6.954851     25.626247      5.885219
  H       9.591230     24.904825      5.871880
  H      12.249128     25.475409      5.787068
  H      14.969989     25.049809      5.881465
  H      16.939266     26.892147      5.887430
  H      17.797004     29.452225      5.814110
  H      19.494421     31.600562      5.882390
  H      18.875318     34.201916      5.876758
  H      17.107269     36.217428      5.809397
  H      16.119714     38.792592      5.876731
  P       2.861517     39.639151      9.951426
  O       2.901312     38.221930     10.359330
  O       3.139074     40.013929      8.495934
  O       1.438096     40.297821     10.267680
  O       3.801561     40.559261     10.875925
  C       5.187871     40.606063     10.596807
  C       5.982914     40.411446     11.865960
  O       5.790857     39.097899     12.422267
  C       7.471214     40.544350     11.628386
  O       8.094934     41.036050     12.790643
  C       7.903532     39.099203     11.375725
  O       9.245441     38.927402     11.747990
  C       6.926491     38.319194     12.263630
  N       6.511068     37.024215     11.702840
  C       5.217234     36.596354     11.475350
  N       5.153999     35.345281     11.097560
  C       6.452357     34.939073     11.051730
  C       7.021826     33.747956     10.606035
  N       6.346282     32.686676     10.178256
  N       8.380129     33.732202     10.641206
  C       9.140080     34.796147     11.028444
  N       8.660584     35.922068     11.442644
  C       7.317125     35.972038     11.424552
  H       0.950451     39.683026     10.822989
  H       5.472301     39.869794      9.838201
  H       5.427441     41.593425     10.187745
  H       5.648403     41.123351     12.623863
  H       7.697836     41.173813     10.760205
  H       9.000706     40.701139     12.757823
  H       7.740440     38.839295     10.330017
  H       9.731259     38.537967     11.016236
  H       7.400857     38.105433     13.229224
  H       4.372080     37.271714     11.541426
  H       5.362864     32.820793      9.993847
  H       6.810933     31.997819      9.605458
  H      10.209231     34.647450     10.950867
  H       8.856799     32.957832     10.189651
163
Coordinates from ORCA-job /data/Seafile/amp/al_surf/protonated_al_surf/frames/frame12/dry/amp_al_frame12_dry E -13417.888810583594
  Si      3.474375     33.822796      7.691542
  Si      3.490620     30.737209      7.835245
  O       2.095260     34.390017      8.321804
  O       2.151403     30.053774      8.466527
  O       3.613321     32.293424      8.297797
  O       3.443910     33.725433      6.049142
  O       3.463697     30.688143      6.194230
  Si      6.151769     26.114859      7.883689
  Si      8.795821     24.530459      7.897018
  O       4.749140     25.527553      8.463074
  O       7.443302     25.278290      8.420628
  O       8.741650     23.008426      8.474697
  O       6.193527     26.109386      6.238030
  O       8.759324     24.581276      6.252775
  Si      6.136640     29.174839      7.773207
  Si      6.174316     35.362030      7.429908
  Si      8.941086     33.779110      7.472571
  Si      8.900758     30.696392      7.664640
  O       4.846319     29.973462      8.363540
  O       4.824053     34.655535      8.061410
  O       7.458237     34.404824      7.759762
  O       7.485752     30.016737      8.133087
  O       6.252057     27.668164      8.374230
  O       8.860332     32.244453      8.172380
  O       5.894922     29.076364      6.152811
  O       5.943085     35.478008      5.811245
  O       9.185625     33.563746      5.871696
  O       9.031702     30.654395      6.037160
  Si      6.542354     38.399889      7.438897
  Si      9.104267     40.072572      7.796580
  O       5.209286     39.178694      7.592641
  O       7.824991     39.156098      8.193707
  O       6.476315     36.833021      8.015534
  O       8.994291     41.568747      8.457807
  O       7.145734     38.281969      5.889656
  O       9.233334     40.125953      6.156909
  Si     11.475099     26.030788      7.792421
  Si     14.143583     24.528940      7.862054
  O      10.125673     25.338729      8.397194
  O      12.830866     25.349022      8.377962
  O      13.925868     23.000884      8.385197
  O      11.403858     25.740419      6.174519
  O      14.172146     24.613993      6.218452
  Si     11.553474     29.205838      7.766757
  Al     11.704565     35.350880      7.713176
  Si     14.307740     33.714951      7.884371
  Si     14.219189     30.682468      7.831945
  O      10.170615     29.897444      8.312281
  O      10.121970     34.622911      8.126221
  O      13.070303     34.522593      8.484053
  O      12.891976     29.883449      8.398594
  O      11.477880     27.617883      8.116491
  O      14.407230     32.158965      8.466830
  O      11.580367     29.435766      6.142037
  O      11.985030     35.012880      6.002253
  O      14.131819     33.529761      6.256144
  O      13.988302     30.830090      6.213391
  Si     11.788395     38.616801      7.807147
  Si     14.480759     40.071089      7.875688
  O      10.462559     39.389691      8.397861
  O      13.138229     39.342203      8.428576
  O      11.737536     37.058031      8.107022
  O      14.657860     41.617871      8.385855
  O      11.877389     38.979557      6.192765
  O      14.485553     39.959112      6.233226
  Si     16.865890     25.972165      7.892692
  O      15.510519     25.222514      8.415398
  O      18.101821     25.058415      8.436515
  O      16.784898     26.003768      6.249351
  Si     16.934458     29.041714      7.819730
  Si     17.068844     35.293659      7.829657
  Si     19.702647     33.716888      7.861941
  Si     19.553237     30.633041      7.862599
  O      15.518521     29.748781      8.151098
  O      15.756950     34.432649      8.202880
  O      18.405578     34.535707      8.413102
  O      18.170032     29.935970      8.391234
  O      16.927887     27.516740      8.418893
  O      19.704246     32.166118      8.399460
  O      17.150995     28.843607      6.199777
  O      17.324693     35.360942      6.203321
  O      19.582055     33.630029      6.222260
  O      19.479656     30.690497      6.219284
  Si     17.043961     38.368023      7.832324
  O      15.827713     39.292684      8.398191
  O      18.519641     38.911404      8.284609
  O      16.974081     36.828408      8.381662
  O      16.896931     38.304335      6.194302
  O      20.735875     29.635373      8.380992
  O      21.131292     34.345164      8.346255
  H       4.074657     24.986772      8.036591
  H       1.410409     29.602015      8.036749
  H       1.410409     35.007985      8.036749
  H       4.074657     39.623228      8.036591
  H       8.948181     22.173255      8.038302
  H       8.948181     42.436745      8.038302
  H      14.277762     22.173204      8.038282
  H      14.277762     42.436796      8.038282
  H      18.960557     24.876228      8.036406
  H      18.960557     39.733772      8.036406
  H      21.624717     29.491420      8.036583
  H      21.624717     35.118580      8.036583
  H      13.335347     34.062840      5.959596
  H      11.216356     34.719804      5.508082
  H       9.028494     32.667257      5.551227
  H       9.868785     30.252235      5.745430
  H      12.384463     29.917486      5.862802
  H      14.035532     31.783451      5.959096
  H      13.619225     39.652312      5.902706
  H      11.047442     39.339206      5.843636
  H       8.559572     39.552856      5.743852
  H       6.751780     37.582159      5.360091
  H       5.189678     34.970123      5.488356
  H       3.351262     32.826766      5.710018
  H       4.192889     30.174534      5.816236
  H       6.062662     28.199708      5.781712
  H       6.955429     25.626592      5.884660
  H       9.591274     24.904238      5.871374
  H      12.248828     25.474746      5.786804
  H      14.969751     25.050077      5.881282
  H      16.938977     26.892306      5.887369
  H      17.796811     29.452172      5.814372
  H      19.493261     31.600805      5.882523
  H      18.874817     34.201985      5.876987
  H      17.107161     36.217525      5.809941
  H      16.119233     38.792132      5.876991
  P       2.855656     39.634784      9.947934
  O       2.894744     38.217151     10.355378
  O       3.136614     40.010937      8.493362
  O       1.431820     40.293455     10.261399
  O       3.794035     40.554638     10.874818
  C       5.180648     40.604200     10.597015
  C       5.975864     40.409199     11.865851
  O       5.784451     39.094908     12.420699
  C       7.463558     40.543677     11.627571
  O       8.087508     41.036283     12.789016
  C       7.896871     39.099008     11.374164
  O       9.239303     38.928507     11.745862
  C       6.920631     38.317679     12.261811
  N       6.505940     37.022494     11.700804
  C       5.212242     36.593859     11.472864
  N       5.149840     35.342678     11.095726
  C       6.448601     34.937222     11.050978
  C       7.018938     33.746214     10.606704
  N       6.343943     32.684457     10.178455
  N       8.377402     33.731315     10.642663
  C       9.136642     34.795965     11.028573
  N       8.656389     35.921766     11.441121
  C       7.312760     35.970817     11.422861
  H       0.942739     39.677629     10.814155
  H       5.466077     39.869414      9.837842
  H       5.419343     41.592705     10.189341
  H       5.641474     41.120151     12.624266
  H       7.688622     41.173284     10.759814
  H       8.993708     40.702152     12.755780
  H       7.733560     38.839254     10.328483
  H       9.724926     38.538738     11.014284
  H       7.395280     38.104322     13.227189
  H       4.366616     37.268691     11.538376
  H       5.359994     32.818270      9.991833
  H       6.809102     31.995528      9.604861
  H      10.205892     34.648035     10.951028
  H       8.854457     32.957238     10.192650
163
Coordinates from ORCA-job /data/Seafile/amp/al_surf/protonated_al_surf/frames/frame12/dry/amp_al_frame12_dry E -13417.888816376437
  Si      3.474868     33.823878      7.691442
  Si      3.490352     30.738189      7.834988
  O       2.096245     34.391473      8.322417
  O       2.150523     30.055736      8.466229
  O       3.613586     32.294369      8.297544
  O       3.443840     33.726708      6.049015
  O       3.463418     30.688819      6.193985
  Si      6.151187     26.116405      7.883034
  Si      8.794564     24.531089      7.896755
  O       4.747308     25.531226      8.461370
  O       7.441993     25.278933      8.420198
  O       8.739155     23.008640      8.473855
  O       6.193613     26.111044      6.237404
  O       8.758635     24.582449      6.252545
  Si      6.136532     29.176127      7.773023
  Si      6.175197     35.362972      7.429474
  Si      8.942017     33.779819      7.472151
  Si      8.900906     30.697163      7.664572
  O       4.845942     29.974291      8.363312
  O       4.824994     34.656164      8.061014
  O       7.459298     34.406016      7.759652
  O       7.485403     30.018473      8.133129
  O       6.252441     27.669513      8.374076
  O       8.861412     32.245267      8.172148
  O       5.894978     29.077807      6.152613
  O       5.943838     35.478876      5.810788
  O       9.185900     33.564249      5.871166
  O       9.031702     30.654923      6.037036
  Si      6.543149     38.401250      7.439065
  Si      9.105428     40.073064      7.796938
  O       5.210107     39.179965      7.593878
  O       7.826019     39.156829      8.193786
  O       6.477014     36.834073      8.015146
  O       8.995661     41.569068      8.458649
  O       7.145865     38.283484      5.889722
  O       9.234631     40.127200      6.157226
  Si     11.474374     26.030741      7.792696
  Si     14.142902     24.529020      7.861916
  O      10.124778     25.338644      8.397280
  O      12.830183     25.348964      8.378249
  O      13.924930     23.000820      8.384519
  O      11.403230     25.740549      6.174766
  O      14.171224     24.614574      6.218338
  Si     11.553219     29.205688      7.766673
  Al     11.705595     35.351131      7.712494
  Si     14.308288     33.714663      7.883590
  Si     14.219117     30.682142      7.831484
  O      10.170441     29.897603      8.312079
  O      10.123187     34.623415      8.125639
  O      13.071300     34.522890      8.483324
  O      12.891823     29.883275      8.398259
  O      11.477251     27.617832      8.116848
  O      14.407173     32.158692      8.466218
  O      11.580103     29.435179      6.141919
  O      11.986004     35.013214      6.001547
  O      14.132233     33.529253      6.255398
  O      13.988155     30.829584      6.212952
  Si     11.789389     38.617032      7.806760
  Si     14.481464     40.071221      7.875329
  O      10.463608     39.389791      8.397893
  O      13.138991     39.342560      8.428377
  O      11.738865     37.058249      8.106417
  O      14.658467     41.617966      8.385488
  O      11.878200     38.979813      6.192333
  O      14.486292     39.959293      6.232866
  Si     16.865468     25.971841      7.892287
  O      15.510025     25.222335      8.415158
  O      18.101246     25.057685      8.435725
  O      16.784060     26.003607      6.248963
  Si     16.934416     29.041371      7.819312
  Si     17.069340     35.293334      7.828944
  Si     19.703008     33.716446      7.861343
  Si     19.553251     30.632514      7.861989
  O      15.518444     29.748422      8.150692
  O      15.757666     34.431999      8.202054
  O      18.406090     34.535475      8.412474
  O      18.170019     29.935597      8.390844
  O      16.927829     27.516387      8.418512
  O      19.704408     32.165615      8.398819
  O      17.151022     28.843322      6.199361
  O      17.325227     35.360833      6.202612
  O      19.582405     33.629523      6.221669
  O      19.479479     30.690015      6.218672
  Si     17.044304     38.367709      7.831850
  O      15.828213     39.292478      8.397818
  O      18.519924     38.911038      8.283995
  O      16.974368     36.828044      8.381109
  O      16.897221     38.304030      6.193836
  O      20.735602     29.634706      8.380161
  O      21.131576     34.344753      8.345720
  H       4.074657     24.986772      8.036591
  H       1.410409     29.602015      8.036749
  H       1.410409     35.007985      8.036749
  H       4.074657     39.623228      8.036591
  H       8.948181     22.173255      8.038302
  H       8.948181     42.436745      8.038302
  H      14.277762     22.173204      8.038282
  H      14.277762     42.436796      8.038282
  H      18.960557     24.876228      8.036406
  H      18.960557     39.733772      8.036406
  H      21.624717     29.491420      8.036583
  H      21.624717     35.118580      8.036583
  H      13.335708     34.062192      5.958866
  H      11.217319     34.720688      5.507090
  H       9.029245     32.667466      5.551181
  H       9.868588     30.252429      5.745233
  H      12.384175     29.916843      5.862543
  H      14.035651     31.782901      5.958505
  H      13.619947     39.652648      5.902233
  H      11.048442     39.340218      5.843495
  H       8.560618     39.554644      5.743809
  H       6.752150     37.583386      5.360370
  H       5.190001     34.971356      5.488155
  H       3.350959     32.828059      5.709789
  H       4.192982     30.175689      5.816024
  H       6.062865     28.201269      5.781295
  H       6.955782     25.628567      5.884226
  H       9.590678     24.905540      5.871468
  H      12.248260     25.474993      5.787044
  H      14.968772     25.050792      5.881174
  H      16.938345     26.892113      5.886975
  H      17.796944     29.451891      5.814043
  H      19.493060     31.600353      5.881927
  H      18.875280     34.201615      5.876364
  H      17.107909     36.217585      5.809410
  H      16.119574     38.791939      5.876539
  P       2.856723     39.635541      9.948766
  O       2.895655     38.217493     10.354728
  O       3.137789     40.012934      8.494359
  O       1.432588     40.293331     10.263073
  O       3.794919     40.554457     10.876943
  C       5.181256     40.605066     10.598715
  C       5.976451     40.409204     11.867504
  O       5.784552     39.094633     12.421555
  C       7.464244     40.543196     11.629416
  O       8.088379     41.034989     12.791132
  C       7.897014     39.098440     11.375380
  O       9.239343     38.927218     11.746527
  C       6.920739     38.317214     12.262832
  N       6.506157     37.022151     11.701638
  C       5.212580     36.593711     11.473177
  N       5.150144     35.342580     11.095824
  C       6.448733     34.937020     11.051002
  C       7.019084     33.746085     10.606191
  N       6.344239     32.684389     10.177936
  N       8.377438     33.731062     10.642317
  C       9.136664     34.795548     11.029179
  N       8.656391     35.921256     11.442404
  C       7.312867     35.970429     11.423769
  H       0.943389     39.676263     10.814624
  H       5.467104     39.871044      9.838851
  H       5.419215     41.594016     10.191879
  H       5.642118     41.119872     12.626306
  H       7.689763     41.173197     10.761819
  H       8.994618     40.700747     12.757745
  H       7.733370     38.839334     10.329707
  H       9.724323     38.537194     11.014756
  H       7.395272     38.103683     13.228305
  H       4.367172     37.268637     11.538461
  H       5.360601     32.817882      9.992144
  H       6.809515     31.995069      9.605374
  H      10.205913     34.647528     10.951910
  H       8.854555     32.957053     10.191613
163
Coordinates from ORCA-job /data/Seafile/amp/al_surf/protonated_al_surf/frames/frame12/dry/amp_al_frame12_dry E -13417.888818791875
  Si      3.475518     33.824911      7.691473
  Si      3.490024     30.739049      7.834621
  O       2.097192     34.392376      8.323109
  O       2.149449     30.058002      8.465911
  O       3.613826     32.295117      8.297337
  O       3.444277     33.728174      6.049004
  O       3.462985     30.689198      6.193679
  Si      6.150819     26.118658      7.881556
  Si      8.792970     24.531376      7.895988
  O       4.744477     25.537644      8.457618
  O       7.440240     25.279340      8.419040
  O       8.735128     23.008593      8.472351
  O       6.194882     26.113902      6.235985
  O       8.758129     24.583613      6.251836
  Si      6.136650     29.177764      7.772840
  Si      6.176582     35.363393      7.429929
  Si      8.943356     33.780465      7.473080
  Si      8.901286     30.697910      7.665237
  O       4.845589     29.975187      8.363041
  O       4.826225     34.656311      8.061190
  O       7.460843     34.407051      7.761585
  O       7.484804     30.021114      8.133746
  O       6.253520     27.671278      8.373960
  O       8.863645     32.245893      8.172919
  O       5.895612     29.079853      6.152409
  O       5.945579     35.478551      5.811132
  O       9.185500     33.565063      5.871772
  O       9.031813     30.655795      6.037619
  Si      6.543705     38.401992      7.439073
  Si      9.106131     40.073557      7.797842
  O       5.210337     39.179860      7.595118
  O       7.826303     39.157789      8.193585
  O       6.478260     36.834674      8.015383
  O       8.995406     41.569475      8.460251
  O       7.146537     38.284858      5.890009
  O       9.236286     40.128498      6.158117
  Si     11.473454     26.030212      7.793261
  Si     14.141944     24.529102      7.861870
  O      10.123543     25.337956      8.397297
  O      12.829242     25.348600      8.379146
  O      13.923298     23.000679      8.383312
  O      11.402634     25.740203      6.175293
  O      14.169868     24.615765      6.218330
  Si     11.552784     29.204999      7.767119
  Al     11.706646     35.351651      7.713301
  Si     14.308746     33.714468      7.883718
  Si     14.218495     30.681865      7.831508
  O      10.169934     29.896844      8.312469
  O      10.124799     34.623750      8.126442
  O      13.072785     34.523946      8.483789
  O      12.891350     29.882770      8.398427
  O      11.476575     27.617226      8.117703
  O      14.406206     32.158381      8.466379
  O      11.579526     29.434146      6.142341
  O      11.986941     35.013957      6.002254
  O      14.132574     33.529137      6.255533
  O      13.987118     30.829332      6.213080
  Si     11.790092     38.617611      7.807306
  Si     14.481979     40.071324      7.875475
  O      10.464126     39.390047      8.398757
  O      13.139216     39.343835      8.429127
  O      11.740444     37.058856      8.106910
  O      14.659360     41.618121      8.385126
  O      11.878541     38.980037      6.192725
  O      14.486685     39.958975      6.233038
  Si     16.864777     25.971572      7.891983
  O      15.509453     25.221756      8.414980
  O      18.100707     25.057422      8.434974
  O      16.782702     26.003561      6.248667
  Si     16.933938     29.041114      7.819065
  Si     17.069819     35.292860      7.828838
  Si     19.703292     33.715951      7.860833
  Si     19.552724     30.631950      7.861343
  O      15.518061     29.748368      8.150443
  O      15.758723     34.430691      8.201959
  O      18.406837     34.535400      8.412294
  O      18.169609     29.935170      8.390821
  O      16.926986     27.516085      8.418320
  O      19.704348     32.165022      8.398194
  O      17.150736     28.843084      6.199138
  O      17.325445     35.360630      6.202454
  O      19.582215     33.628998      6.221181
  O      19.478126     30.689733      6.218024
  Si     17.044382     38.367202      7.831784
  O      15.828319     39.291881      8.398010
  O      18.520013     38.910604      8.283332
  O      16.974550     36.827521      8.381130
  O      16.896997     38.303307      6.193775
  O      20.734724     29.633521      8.378444
  O      21.132014     34.344049      8.344885
  H       4.074657     24.986772      8.036591
  H       1.410409     29.602015      8.036749
  H       1.410409     35.007985      8.036749
  H       4.074657     39.623228      8.036591
  H       8.948181     22.173255      8.038302
  H       8.948181     42.436745      8.038302
  H      14.277762     22.173204      8.038282
  H      14.277762     42.436796      8.038282
  H      18.960557     24.876228      8.036406
  H      18.960557     39.733772      8.036406
  H      21.624717     29.491420      8.036583
  H      21.624717     35.118580      8.036583
  H      13.337019     34.063739      5.958911
  H      11.218154     34.723039      5.506953
  H       9.030471     32.667652      5.552679
  H       9.868624     30.253123      5.745605
  H      12.383059     29.916621      5.862836
  H      14.033311     31.782655      5.958812
  H      13.620302     39.652395      5.902436
  H      11.048710     39.341044      5.844389
  H       8.561688     39.557282      5.744047
  H       6.753396     37.584713      5.360264
  H       5.191245     34.971358      5.488912
  H       3.350760     32.829684      5.709476
  H       4.193201     30.176979      5.815678
  H       6.064025     28.203537      5.780643
  H       6.957497     25.631673      5.883312
  H       9.590603     24.906511      5.871395
  H      12.247951     25.475115      5.787631
  H      14.967422     25.052228      5.881324
  H      16.937399     26.892042      5.886701
  H      17.796836     29.451738      5.814025
  H      19.491639     31.600182      5.881442
  H      18.875253     34.201472      5.876060
  H      17.108056     36.217651      5.809544
  H      16.119193     38.791131      5.876618
  P       2.854054     39.633092      9.947341
  O       2.890860     38.213979     10.348724
  O       3.138568     40.014273      8.494890
  O       1.429624     40.291113     10.261376
  O       3.790869     40.547906     10.879849
  C       5.176768     40.602234     10.600774
  C       5.972306     40.406422     11.869353
  O       5.780633     39.091878     12.423258
  C       7.460148     40.539786     11.630574
  O       8.085473     41.030509     12.792568
  C       7.892099     39.095105     11.375502
  O       9.234785     38.923201     11.744908
  C       6.916508     38.313865     12.263618
  N       6.501353     37.018994     11.702579
  C       5.207875     36.591420     11.472979
  N       5.144964     35.340495     11.094631
  C       6.443243     34.934084     11.050374
  C       7.013320     33.743133     10.604665
  N       6.338433     32.681966     10.175551
  N       8.371579     33.727543     10.641280
  C       9.131039     34.791355     11.030026
  N       8.651064     35.916925     11.444567
  C       7.307629     35.966795     11.424837
  H       0.937421     39.670538     10.806095
  H       5.464308     39.869870      9.839912
  H       5.412170     41.591909     10.195222
  H       5.638049     41.116983     12.628464
  H       7.685686     41.170447     10.762833
  H       8.991697     40.697060     12.757901
  H       7.727411     38.836670     10.329632
  H       9.718445     38.532760     11.012045
  H       7.391747     38.099849     13.228671
  H       4.362808     37.266798     11.538039
  H       5.355060     32.815455      9.989677
  H       6.803627     31.991794      9.604753
  H      10.200282     34.643001     10.953159
  H       8.848555     32.954023     10.188265
163
Coordinates from ORCA-job /data/Seafile/amp/al_surf/protonated_al_surf/frames/frame12/dry/amp_al_frame12_dry E -13417.888817322664
  Si      3.475541     33.825779      7.691809
  Si      3.489847     30.739649      7.834532
  O       2.097383     34.393245      8.323704
  O       2.149310     30.058295      8.465577
  O       3.613389     32.295667      8.297529
  O       3.444517     33.729130      6.049321
  O       3.462905     30.690026      6.193582
  Si      6.150739     26.119846      7.880897
  Si      8.792361     24.531694      7.895835
  O       4.743218     25.540617      8.455520
  O       7.439538     25.279777      8.418669
  O       8.733293     23.008628      8.471636
  O       6.195921     26.115647      6.235354
  O       8.758106     24.584477      6.251702
  Si      6.136681     29.178631      7.772984
  Si      6.177152     35.363535      7.430760
  Si      8.943879     33.781012      7.475175
  Si      8.901448     30.698449      7.666346
  O       4.845454     29.975964      8.362983
  O       4.826506     34.656662      8.061767
  O       7.461410     34.407906      7.764300
  O       7.484394     30.022588      8.134617
  O       6.253830     27.672230      8.374218
  O       8.864780     32.246263      8.174398
  O       5.896164     29.080952      6.152532
  O       5.947125     35.477417      5.811780
  O       9.184952     33.566295      5.873567
  O       9.031791     30.656775      6.038641
  Si      6.543007     38.402687      7.438951
  Si      9.105682     40.074047      7.798208
  O       5.209629     39.180514      7.596465
  O       7.825901     39.158092      8.193364
  O       6.478005     36.835354      8.015059
  O       8.992479     41.570067      8.460310
  O       7.145347     38.286244      5.889752
  O       9.237024     40.128405      6.158589
  Si     11.473304     26.030057      7.794090
  Si     14.141719     24.529186      7.862288
  O      10.123089     25.337786      8.397626
  O      12.829021     25.348426      8.380243
  O      13.922816     23.000571      8.382983
  O      11.402730     25.740258      6.176112
  O      14.169394     24.616509      6.218753
  Si     11.552667     29.204757      7.767931
  Al     11.706495     35.352780      7.715539
  Si     14.308393     33.715205      7.885149
  Si     14.218072     30.682395      7.832452
  O      10.169545     29.896220      8.313204
  O      10.125477     34.623983      8.128635
  O      13.073227     34.525602      8.485549
  O      12.891014     29.882922      8.399228
  O      11.476679     27.617018      8.118852
  O      14.404981     32.158906      8.467541
  O      11.579478     29.433762      6.143180
  O      11.986814     35.016080      6.004326
  O      14.131899     33.530003      6.256964
  O      13.986768     30.829978      6.214069
  Si     11.789849     38.618548      7.808775
  Si     14.481870     40.071473      7.876265
  O      10.463804     39.391488      8.399761
  O      13.138780     39.345133      8.430542
  O      11.740060     37.060029      8.109474
  O      14.659570     41.618376      8.385215
  O      11.878365     38.979772      6.193950
  O      14.486536     39.958442      6.233868
  Si     16.864590     25.971831      7.892306
  O      15.509433     25.221573      8.415287
  O      18.100987     25.058215      8.435095
  O      16.782148     26.003879      6.248958
  Si     16.933566     29.041487      7.819660
  Si     17.069713     35.292929      7.829682
  Si     19.703182     33.715985      7.861052
  Si     19.552523     30.631912      7.861501
  O      15.517899     29.749178      8.151216
  O      15.758914     34.430469      8.203181
  O      18.406944     34.535577      8.412791
  O      18.169514     29.935161      8.391476
  O      16.926209     27.516353      8.418738
  O      19.704117     32.165006      8.398391
  O      17.150243     28.843566      6.199723
  O      17.324867     35.360618      6.203192
  O      19.581724     33.628937      6.221394
  O      19.477359     30.689820      6.218165
  Si     17.044161     38.367339      7.832474
  O      15.827858     39.291538      8.399034
  O      18.519691     38.911053      8.283688
  O      16.974520     36.827618      8.381852
  O      16.896630     38.303463      6.194474
  O      20.734589     29.633365      8.377872
  O      21.131948     34.344130      8.344798
  H       4.074657     24.986772      8.036591
  H       1.410409     29.602015      8.036749
  H       1.410409     35.007985      8.036749
  H       4.074657     39.623228      8.036591
  H       8.948181     22.173255      8.038302
  H       8.948181     42.436745      8.038302
  H      14.277762     22.173204      8.038282
  H      14.277762     42.436796      8.038282
  H      18.960557     24.876228      8.036406
  H      18.960557     39.733772      8.036406
  H      21.624717     29.491420      8.036583
  H      21.624717     35.118580      8.036583
  H      13.336417     34.064706      5.960561
  H      11.218187     34.725568      5.508628
  H       9.030870     32.668641      5.554753
  H       9.868151     30.253571      5.746341
  H      12.383000     29.916200      5.863645
  H      14.033245     31.783336      5.959824
  H      13.620265     39.651627      5.903307
  H      11.048722     39.341046      5.845612
  H       8.561901     39.558182      5.744014
  H       6.753317     37.585137      5.360421
  H       5.192336     34.970805      5.489779
  H       3.350636     32.830717      5.709828
  H       4.193208     30.178141      5.815445
  H       6.064776     28.204824      5.780547
  H       6.958719     25.633526      5.883045
  H       9.590718     24.907376      5.871636
  H      12.248086     25.475289      5.788521
  H      14.966881     25.053202      5.881929
  H      16.936964     26.892329      5.887040
  H      17.796561     29.452038      5.814749
  H      19.490625     31.600314      5.881735
  H      18.874703     34.201431      5.876490
  H      17.107982     36.217743      5.810433
  H      16.118587     38.791026      5.877547
  P       2.852903     39.628553      9.947812
  O       2.889997     38.208014     10.345164
  O       3.138054     40.013984      8.496427
  O       1.428175     40.284908     10.263856
  O       3.789561     40.540785     10.884206
  C       5.175314     40.596175     10.603950
  C       5.972062     40.400572     11.871850
  O       5.779971     39.085851     12.425719
  C       7.459543     40.533272     11.631205
  O       8.086789     41.024050     12.791877
  C       7.890161     39.088179     11.375569
  O       9.233281     38.914906     11.742026
  C       6.915663     38.307676     12.265187
  N       6.500172     37.012790     11.704728
  C       5.206988     36.586081     11.472398
  N       5.144222     35.335332     11.093649
  C       6.442258     34.928324     11.051751
  C       7.012812     33.737629     10.606120
  N       6.338420     32.677073     10.174768
  N       8.370974     33.721533     10.645218
  C       9.130035     34.784617     11.036345
  N       8.649636     35.909914     11.450763
  C       7.306388     35.960344     11.428336
  H       0.935681     39.661589     10.805133
  H       5.462686     39.863155      9.843330
  H       5.410023     41.586076     10.197516
  H       5.638956     41.111361     12.631172
  H       7.684031     41.163620     10.763288
  H       8.993092     40.690582     12.755727
  H       7.723183     38.829909     10.330263
  H       9.714676     38.525628     11.007480
  H       7.391954     38.094051     13.229766
  H       4.362130     37.261858     11.535790
  H       5.355299     32.810622      9.987369
  H       6.804278     31.986720      9.604663
  H      10.199336     34.635974     10.961453
  H       8.848370     32.948648     10.192111
163
Coordinates from ORCA-job /data/Seafile/amp/al_surf/protonated_al_surf/frames/frame12/dry/amp_al_frame12_dry E -13417.888827493705
  Si      3.475682     33.825793      7.691742
  Si      3.489730     30.739640      7.834440
  O       2.097593     34.393229      8.323710
  O       2.148972     30.058910      8.465587
  O       3.613703     32.295637      8.297431
  O       3.444416     33.729186      6.049268
  O       3.462641     30.689787      6.193518
  Si      6.150830     26.120053      7.880232
  Si      8.792212     24.531258      7.895356
  O       4.742638     25.542139      8.454490
  O       7.439270     25.279351      8.418052
  O       8.732722     23.008423      8.471283
  O       6.196516     26.115941      6.234692
  O       8.758158     24.584062      6.251214
  Si      6.136665     29.178652      7.772749
  Si      6.177442     35.362978      7.430256
  Si      8.943989     33.780485      7.474446
  Si      8.901509     30.698045      7.665960
  O       4.845307     29.975764      8.362831
  O       4.826779     34.656454      8.061514
  O       7.461378     34.406817      7.763464
  O       7.484212     30.022879      8.134392
  O       6.254347     27.672288      8.373916
  O       8.865322     32.245870      8.173911
  O       5.896094     29.080963      6.152330
  O       5.947044     35.476953      5.811365
  O       9.184996     33.565670      5.872851
  O       9.031930     30.656114      6.038261
  Si      6.543273     38.401686      7.437919
  Si      9.106090     40.074130      7.797947
  O       5.209592     39.178706      7.595688
  O       7.825967     39.158182      8.191794
  O       6.479332     36.834508      8.014544
  O       8.993566     41.570029      8.460908
  O       7.145812     38.285640      5.888810
  O       9.237838     40.129504      6.158372
  Si     11.473152     26.029670      7.793868
  Si     14.141566     24.529127      7.862288
  O      10.122831     25.337472      8.397277
  O      12.828762     25.348087      8.380336
  O      13.922776     23.000512      8.383025
  O      11.402712     25.739608      6.175922
  O      14.169236     24.616550      6.218739
  Si     11.552602     29.204413      7.767761
  Al     11.706464     35.352494      7.715375
  Si     14.308318     33.714923      7.885069
  Si     14.217954     30.682142      7.832417
  O      10.169303     29.895565      8.312955
  O      10.125356     34.623653      8.127940
  O      13.073182     34.525298      8.485587
  O      12.890863     29.882676      8.399165
  O      11.476767     27.616639      8.118587
  O      14.404928     32.158632      8.467542
  O      11.579551     29.433579      6.143012
  O      11.987120     35.015885      6.004158
  O      14.131589     33.529452      6.256937
  O      13.986741     30.829792      6.214011
  Si     11.790005     38.618348      7.808820
  Si     14.481920     40.071463      7.876314
  O      10.463776     39.390933      8.399727
  O      13.138757     39.345233      8.430754
  O      11.740637     37.059761      8.109097
  O      14.659764     41.618400      8.385190
  O      11.878529     38.979900      6.194086
  O      14.486458     39.958310      6.233919
  Si     16.864503     25.971687      7.892200
  O      15.509263     25.221597      8.415232
  O      18.100738     25.057764      8.434911
  O      16.782006     26.003843      6.248853
  Si     16.933494     29.041343      7.819632
  Si     17.069587     35.292860      7.829428
  Si     19.703092     33.716027      7.860903
  Si     19.552247     30.632026      7.861471
  O      15.517744     29.748876      8.151124
  O      15.758943     34.430142      8.203004
  O      18.406926     34.535728      8.412615
  O      18.169324     29.935159      8.391514
  O      16.926285     27.516189      8.418694
  O      19.703930     32.165099      8.398343
  O      17.150215     28.843390      6.199705
  O      17.324746     35.360546      6.202925
  O      19.581569     33.628894      6.221253
  O      19.476900     30.689953      6.218140
  Si     17.044154     38.367288      7.832299
  O      15.827933     39.291530      8.399053
  O      18.519798     38.910840      8.283532
  O      16.974345     36.827541      8.381563
  O      16.896519     38.303576      6.194297
  O      20.734424     29.633381      8.377693
  O      21.131984     34.343978      8.344562
  H       4.074657     24.986772      8.036591
  H       1.410409     29.602015      8.036749
  H       1.410409     35.007985      8.036749
  H       4.074657     39.623228      8.036591
  H       8.948181     22.173255      8.038302
  H       8.948181     42.436745      8.038302
  H      14.277762     22.173204      8.038282
  H      14.277762     42.436796      8.038282
  H      18.960557     24.876228      8.036406
  H      18.960557     39.733772      8.036406
  H      21.624717     29.491420      8.036583
  H      21.624717     35.118580      8.036583
  H      13.335470     34.063128      5.960734
  H      11.218706     34.725232      5.508258
  H       9.031104     32.667802      5.554296
  H       9.868247     30.252624      5.746191
  H      12.383348     29.915700      5.863625
  H      14.034816     31.783173      5.959671
  H      13.619908     39.651948      5.903492
  H      11.049046     39.341836      5.845996
  H       8.562771     39.559350      5.743630
  H       6.753121     37.585371      5.358951
  H       5.192434     34.970079      5.489446
  H       3.350035     32.830847      5.709701
  H       4.193102     30.178102      5.815380
  H       6.064905     28.204857      5.780308
  H       6.959388     25.633668      5.882644
  H       9.590915     24.906815      5.871298
  H      12.248178     25.474813      5.788437
  H      14.966827     25.053152      5.881992
  H      16.936849     26.892339      5.887020
  H      17.796379     29.452073      5.814738
  H      19.490057     31.600473      5.881766
  H      18.874490     34.201342      5.876384
  H      17.107800     36.217684      5.810208
  H      16.118463     38.791276      5.877521
  P       2.849920     39.626945      9.945182
  O       2.886010     38.206231     10.342051
  O       3.137192     40.012848      8.494334
  O       1.425546     40.284097     10.259852
  O       3.785782     40.539081     10.882173
  C       5.171622     40.595514     10.602317
  C       5.968493     40.400526     11.870340
  O       5.777045     39.085944     12.424606
  C       7.455900     40.533729     11.629258
  O       8.083201     41.025420     12.789490
  C       7.887129     39.088789     11.374174
  O       9.230400     38.916395     11.740912
  C       6.912840     38.308033     12.264001
  N       6.497258     37.013009     11.703753
  C       5.203897     36.586025     11.472170
  N       5.141026     35.335147     11.093921
  C       6.439213     34.928293     11.051276
  C       7.009749     33.737501     10.605744
  N       6.335390     32.676441     10.175354
  N       8.368073     33.721700     10.644011
  C       9.127263     34.785086     11.034095
  N       8.646936     35.910485     11.448367
  C       7.303527     35.960624     11.426892
  H       0.931195     39.659439     10.798141
  H       5.459529     39.863124      9.841714
  H       5.405628     41.585427     10.196011
  H       5.635246     41.111363     12.629595
  H       7.679843     41.163612     10.760896
  H       8.989660     40.692426     12.753195
  H       7.720404     38.830068     10.328917
  H       9.712148     38.526548     11.006801
  H       7.389235     38.094486     13.228592
  H       4.358986     37.261657     11.535960
  H       5.352097     32.809664      9.988271
  H       6.801343     31.986293      9.604837
  H      10.196584     34.636628     10.958550
  H       8.845301     32.948818     10.191005
163
Coordinates from ORCA-job /data/Seafile/amp/al_surf/protonated_al_surf/frames/frame12/dry/amp_al_frame12_dry E -13417.888827038132
  Si      3.475612     33.825975      7.691530
  Si      3.489646     30.739784      7.834211
  O       2.097536     34.393275      8.323565
  O       2.148916     30.059132      8.465442
  O       3.613964     32.295801      8.297199
  O       3.444211     33.729317      6.049076
  O       3.462439     30.690047      6.193295
  Si      6.150757     26.120219      7.879734
  Si      8.792048     24.531233      7.895026
  O       4.742300     25.542901      8.453999
  O       7.439007     25.279191      8.417671
  O       8.732640     23.008454      8.471079
  O       6.196655     26.116086      6.234197
  O       8.758032     24.583949      6.250860
  Si      6.136622     29.178759      7.772348
  Si      6.177337     35.363020      7.429733
  Si      8.943797     33.780571      7.473959
  Si      8.901441     30.698087      7.665558
  O       4.845134     29.975634      8.362487
  O       4.826610     34.656867      8.061009
  O       7.461008     34.406442      7.762834
  O       7.484040     30.023196      8.133958
  O       6.254668     27.672391      8.373450
  O       8.865294     32.245960      8.173525
  O       5.895993     29.081004      6.151958
  O       5.946897     35.477271      5.810887
  O       9.184968     33.565732      5.872385
  O       9.032120     30.656192      6.037914
  Si      6.543471     38.401720      7.437848
  Si      9.106025     40.074222      7.798050
  O       5.209751     39.178702      7.595410
  O       7.825964     39.158236      8.192041
  O       6.479741     36.834427      8.014004
  O       8.993476     41.570055      8.460982
  O       7.146114     38.286093      5.888726
  O       9.237446     40.129660      6.158396
  Si     11.473048     26.029687      7.793601
  Si     14.141512     24.529126      7.862157
  O      10.122646     25.337550      8.396918
  O      12.828621     25.347995      8.380158
  O      13.922940     23.000521      8.383162
  O      11.402678     25.739601      6.175669
  O      14.169166     24.616480      6.218593
  Si     11.552469     29.204475      7.767651
  Al     11.706324     35.352691      7.715148
  Si     14.308260     33.715003      7.885171
  Si     14.217840     30.682171      7.832422
  O      10.169075     29.895443      8.312753
  O      10.125040     34.623929      8.127423
  O      13.072979     34.525314      8.485519
  O      12.890759     29.882689      8.399146
  O      11.476777     27.616645      8.118372
  O      14.404889     32.158654      8.467567
  O      11.579447     29.433899      6.142911
  O      11.987175     35.015965      6.003957
  O      14.131814     33.529709      6.256986
  O      13.986503     30.829893      6.213992
  Si     11.790064     38.618597      7.808681
  Si     14.482107     40.071551      7.876150
  O      10.463750     39.390992      8.399633
  O      13.138848     39.345445      8.430594
  O      11.740826     37.059969      8.108774
  O      14.660126     41.618501      8.384996
  O      11.878441     38.980483      6.194016
  O      14.486639     39.958257      6.233766
  Si     16.864536     25.971675      7.891982
  O      15.509210     25.221727      8.415014
  O      18.100703     25.057682      8.434846
  O      16.782167     26.003767      6.248638
  Si     16.933408     29.041374      7.819423
  Si     17.069531     35.292844      7.829554
  Si     19.703076     33.716046      7.860902
  Si     19.552177     30.632094      7.861337
  O      15.517644     29.748859      8.151028
  O      15.758917     34.430115      8.203299
  O      18.406943     34.535768      8.412678
  O      18.169226     29.935216      8.391282
  O      16.926376     27.516196      8.418420
  O      19.703987     32.165118      8.398310
  O      17.150029     28.843460      6.199493
  O      17.324574     35.360350      6.203033
  O      19.581468     33.628937      6.221246
  O      19.476856     30.690107      6.218025
  Si     17.044272     38.367318      7.832212
  O      15.828136     39.291701      8.398980
  O      18.520005     38.910752      8.283542
  O      16.974320     36.827578      8.381486
  O      16.896602     38.303605      6.194229
  O      20.734378     29.633379      8.377678
  O      21.132055     34.343902      8.344498
  H       4.074657     24.986772      8.036591
  H       1.410409     29.602015      8.036749
  H       1.410409     35.007985      8.036749
  H       4.074657     39.623228      8.036591
  H       8.948181     22.173255      8.038302
  H       8.948181     42.436745      8.038302
  H      14.277762     22.173204      8.038282
  H      14.277762     42.436796      8.038282
  H      18.960557     24.876228      8.036406
  H      18.960557     39.733772      8.036406
  H      21.624717     29.491420      8.036583
  H      21.624717     35.118580      8.036583
  H      13.336360     34.064445      5.960550
  H      11.218721     34.725314      5.508090
  H       9.031158     32.667890      5.553769
  H       9.868597     30.252793      5.746096
  H      12.383182     29.916201      5.863631
  H      14.033570     31.783275      5.959819
  H      13.619942     39.652131      5.903432
  H      11.048820     39.342259      5.846004
  H       8.562692     39.558935      5.743912
  H       6.753219     37.586218      5.358492
  H       5.192464     34.970267      5.488794
  H       3.349621     32.830982      5.709545
  H       4.192839     30.178324      5.815084
  H       6.064839     28.204866      5.780017
  H       6.959539     25.633707      5.882302
  H       9.590804     24.906725      5.870994
  H      12.248182     25.474877      5.788228
  H      14.966832     25.052945      5.881859
  H      16.936840     26.892298      5.886816
  H      17.796118     29.452187      5.814509
  H      19.490152     31.600668      5.881750
  H      18.874333     34.201367      5.876437
  H      17.107370     36.217393      5.810216
  H      16.118423     38.791163      5.877534
  P       2.849233     39.627461      9.945040
  O       2.884605     38.206914     10.342305
  O       3.137562     40.012842      8.494300
  O       1.424685     40.285427     10.258590
  O       3.784943     40.539348     10.881888
  C       5.170754     40.596303     10.601734
  C       5.968115     40.400837     11.869214
  O       5.776621     39.086276     12.423532
  C       7.455430     40.533937     11.627557
  O       8.083171     41.025787     12.787513
  C       7.886472     39.088946     11.372714
  O       9.229837     38.916650     11.739462
  C       6.912216     38.308297     12.262746
  N       6.496364     37.013258     11.702644
  C       5.202958     36.586307     11.471216
  N       5.140023     35.335458     11.092912
  C       6.438262     34.928537     11.050341
  C       7.008738     33.737744     10.604959
  N       6.334407     32.676796     10.174170
  N       8.367083     33.721899     10.643344
  C       9.126297     34.785211     11.033232
  N       8.646042     35.910666     11.447186
  C       7.302616     35.960852     11.425675
  H       0.928929     39.660619     10.795250
  H       5.458349     39.864617      9.840573
  H       5.404672     41.586564     10.196103
  H       5.635540     41.111550     12.628635
  H       7.679102     41.163568     10.758970
  H       8.989587     40.692872     12.750934
  H       7.719667     38.829907     10.327481
  H       9.711649     38.526401     11.005449
  H       7.388647     38.094736     13.227252
  H       4.357992     37.261909     11.535285
  H       5.350978     32.810111      9.986253
  H       6.800373     31.986747      9.603268
  H      10.195618     34.636728     10.957695
  H       8.844266     32.949102     10.190268
163
Coordinates from ORCA-job /data/Seafile/amp/al_surf/protonated_al_surf/frames/frame12/dry/amp_al_frame12_dry E -13417.888827926485
  Si      3.475565     33.826058      7.691439
  Si      3.489601     30.739824      7.833775
  O       2.097521     34.393039      8.323875
  O       2.148866     30.059427      8.465102
  O       3.614576     32.295787      8.296909
  O       3.443790     33.729452      6.049020
  O       3.462165     30.690403      6.192853
  Si      6.150713     26.120487      7.878701
  Si      8.791785     24.531060      7.894348
  O       4.741526     25.544714      8.452786
  O       7.438527     25.278766      8.416875
  O       8.732303     23.008454      8.470601
  O       6.197138     26.116299      6.233185
  O       8.757916     24.583667      6.250145
  Si      6.136706     29.178833      7.771528
  Si      6.177185     35.362953      7.429215
  Si      8.943444     33.780676      7.473637
  Si      8.901386     30.698204      7.664889
  O       4.844932     29.975189      8.361779
  O       4.826331     34.657390      8.060485
  O       7.460301     34.405696      7.762307
  O       7.483786     30.023818      8.133196
  O       6.255508     27.672525      8.372553
  O       8.865383     32.246038      8.173135
  O       5.896029     29.080981      6.151186
  O       5.946873     35.477382      5.810416
  O       9.184851     33.566064      5.872067
  O       9.032421     30.656510      6.037317
  Si      6.543575     38.401687      7.437740
  Si      9.105961     40.074410      7.798285
  O       5.209763     39.178575      7.595354
  O       7.825942     39.158302      8.192233
  O       6.480262     36.834264      8.013133
  O       8.993210     41.570234      8.461050
  O       7.146212     38.286910      5.888333
  O       9.237166     40.129761      6.158542
  Si     11.472884     26.029642      7.793127
  Si     14.141408     24.529109      7.862021
  O      10.122302     25.337603      8.396215
  O      12.828341     25.347766      8.379939
  O      13.923232     23.000520      8.383444
  O      11.402683     25.739482      6.175226
  O      14.169067     24.616332      6.218431
  Si     11.552302     29.204503      7.767370
  Al     11.705916     35.353115      7.715422
  Si     14.307947     33.715186      7.885666
  Si     14.217649     30.682270      7.832574
  O      10.168691     29.895133      8.312236
  O      10.124481     34.624291      8.127103
  O      13.072535     34.525385      8.485918
  O      12.890531     29.882722      8.399097
  O      11.476882     27.616594      8.118004
  O      14.404627     32.158712      8.467823
  O      11.579425     29.434293      6.142653
  O      11.987125     35.016670      6.004202
  O      14.131665     33.530108      6.257436
  O      13.986367     30.830161      6.214084
  Si     11.790130     38.618979      7.809141
  Si     14.482336     40.071629      7.876346
  O      10.463691     39.391317      8.399906
  O      13.138945     39.345801      8.431019
  O      11.740992     37.060363      8.109201
  O      14.660710     41.618706      8.384816
  O      11.878437     38.981090      6.194567
  O      14.486734     39.957746      6.233994
  Si     16.864561     25.971679      7.891746
  O      15.509056     25.222007      8.414745
  O      18.100608     25.057494      8.434723
  O      16.782364     26.003750      6.248406
  Si     16.933230     29.041469      7.819330
  Si     17.069262     35.292817      7.829969
  Si     19.702933     33.716134      7.861077
  Si     19.552012     30.632273      7.861345
  O      15.517439     29.748871      8.151118
  O      15.758732     34.430043      8.204088
  O      18.406837     34.535863      8.412941
  O      18.169046     29.935336      8.391156
  O      16.926505     27.516213      8.418132
  O      19.703947     32.165223      8.398490
  O      17.149634     28.843661      6.199382
  O      17.324052     35.359989      6.203399
  O      19.581117     33.629012      6.221421
  O      19.476706     30.690416      6.218060
  Si     17.044385     38.367402      7.832325
  O      15.828401     39.291928      8.399325
  O      18.520291     38.910666      8.283739
  O      16.974162     36.827651      8.381543
  O      16.896601     38.303872      6.194372
  O      20.734344     29.633499      8.377778
  O      21.132071     34.343864      8.344459
  H       4.074657     24.986772      8.036591
  H       1.410409     29.602015      8.036749
  H       1.410409     35.007985      8.036749
  H       4.074657     39.623228      8.036591
  H       8.948181     22.173255      8.038302
  H       8.948181     42.436745      8.038302
  H      14.277762     22.173204      8.038282
  H      14.277762     42.436796      8.038282
  H      18.960557     24.876228      8.036406
  H      18.960557     39.733772      8.036406
  H      21.624717     29.491420      8.036583
  H      21.624717     35.118580      8.036583
  H      13.336678     34.065509      5.960877
  H      11.218671     34.725877      5.508354
  H       9.031357     32.668295      5.553288
  H       9.869226     30.253415      5.745796
  H      12.383174     29.916725      5.863560
  H      14.032774     31.783570      5.960098
  H      13.619996     39.651495      5.903926
  H      11.048790     39.342911      5.846632
  H       8.562683     39.558598      5.744252
  H       6.753043     37.587439      5.357771
  H       5.192727     34.970174      5.488008
  H       3.349007     32.831174      5.709482
  H       4.192396     30.178593      5.814447
  H       6.065025     28.204829      5.779285
  H       6.960086     25.633734      5.881609
  H       9.590801     24.906348      5.870391
  H      12.248268     25.474916      5.787844
  H      14.966903     25.052520      5.881717
  H      16.936876     26.892339      5.886642
  H      17.795570     29.452481      5.814339
  H      19.490156     31.601038      5.881929
  H      18.873878     34.201408      5.876735
  H      17.106720     36.216905      5.810432
  H      16.118214     38.791260      5.877878
  P       2.848182     39.625000      9.944188
  O       2.883595     38.203944     10.339643
  O       3.137159     40.012068      8.494085
  O       1.423518     40.282141     10.257948
  O       3.783598     40.536403     10.882085
  C       5.169351     40.594311     10.601379
  C       5.967311     40.398888     11.868454
  O       5.776165     39.084420     12.423022
  C       7.454495     40.532025     11.625912
  O       8.082596     41.024244     12.785474
  C       7.885541     39.087033     11.371240
  O       9.229026     38.914839     11.737458
  C       6.911642     38.306456     12.261855
  N       6.495540     37.011274     11.701990
  C       5.202148     36.584496     11.470423
  N       5.139052     35.333701     11.091872
  C       6.437221     34.926527     11.049696
  C       7.007549     33.735691     10.604342
  N       6.333221     32.674902     10.172948
  N       8.365877     33.719557     10.643188
  C       9.125164     34.782690     11.033344
  N       8.645034     35.908300     11.447114
  C       7.301667     35.958748     11.425184
  H       0.926712     39.655615     10.791136
  H       5.457137     39.863013      9.839497
  H       5.402615     41.584857     10.196107
  H       5.635274     41.109689     12.628201
  H       7.677738     41.161156     10.756939
  H       8.989062     40.691417     12.748485
  H       7.718359     38.827653     10.326035
  H       9.710515     38.524285     11.003338
  H       7.388358     38.092971     13.226198
  H       4.357215     37.260163     11.534506
  H       5.349850     32.808386      9.984204
  H       6.799338     31.984909      9.602104
  H      10.194467     34.633957     10.958173
  H       8.843074     32.946821     10.189841
163
Coordinates from ORCA-job /data/Seafile/amp/al_surf/protonated_al_surf/frames/frame12/dry/amp_al_frame12_dry E -13417.888829453426
  Si      3.475615     33.826842      7.691299
  Si      3.489388     30.740500      7.833594
  O       2.097857     34.393841      8.324281
  O       2.148387     30.060526      8.464732
  O       3.615210     32.296481      8.296723
  O       3.443272     33.729953      6.048908
  O       3.461937     30.691360      6.192644
  Si      6.150382     26.121430      7.877929
  Si      8.791009     24.531328      7.894135
  O       4.739924     25.547823      8.451112
  O       7.437384     25.278512      8.416530
  O       8.731435     23.008566      8.470099
  O       6.197830     26.117463      6.232455
  O       8.757473     24.584251      6.249883
  Si      6.136598     29.179482      7.771383
  Si      6.177449     35.363042      7.428023
  Si      8.943432     33.780765      7.473134
  Si      8.901431     30.698335      7.664898
  O       4.844373     29.975175      8.361547
  O       4.826298     34.658568      8.059537
  O       7.459689     34.404615      7.761138
  O       7.483308     30.025117      8.133205
  O       6.256379     27.673212      8.372256
  O       8.866110     32.246298      8.173070
  O       5.896099     29.081644      6.151060
  O       5.947039     35.477566      5.809289
  O       9.185211     33.565936      5.871611
  O       9.032865     30.656407      6.037395
  Si      6.544136     38.402104      7.436913
  Si      9.106487     40.074911      7.798004
  O       5.210150     39.178622      7.595278
  O       7.826461     39.158616      8.191413
  O       6.481864     36.834332      8.011068
  O       8.993782     41.570417      8.461286
  O       7.146022     38.288470      5.887081
  O       9.237607     40.131084      6.158207
  Si     11.472525     26.029589      7.793502
  Si     14.141156     24.529089      7.862440
  O      10.121531     25.337892      8.396185
  O      12.827791     25.347250      8.380529
  O      13.923849     23.000415      8.384277
  O      11.402499     25.739514      6.175636
  O      14.168531     24.616350      6.218814
  Si     11.552155     29.204478      7.767918
  Al     11.705738     35.353708      7.715278
  Si     14.307768     33.715364      7.886049
  Si     14.217554     30.682291      7.833136
  O      10.168219     29.894589      8.312543
  O      10.124196     34.625036      8.126275
  O      13.072269     34.525591      8.486077
  O      12.890373     29.882823      8.399705
  O      11.477184     27.616509      8.118576
  O      14.404556     32.158815      8.468185
  O      11.579399     29.434572      6.143223
  O      11.987396     35.017406      6.004053
  O      14.131548     33.530208      6.257813
  O      13.986294     30.830084      6.214559
  Si     11.790717     38.619470      7.808826
  Si     14.482969     40.071878      7.876081
  O      10.464088     39.391570      8.399456
  O      13.139377     39.346377      8.430831
  O      11.741835     37.060957      8.109042
  O      14.661625     41.618998      8.384381
  O      11.878906     38.981748      6.194355
  O      14.487453     39.957538      6.233775
  Si     16.864524     25.971591      7.891687
  O      15.508763     25.222461      8.414841
  O      18.100406     25.056968      8.434558
  O      16.782303     26.003615      6.248352
  Si     16.933154     29.041482      7.819422
  Si     17.069092     35.292735      7.829994
  Si     19.702919     33.716118      7.861027
  Si     19.552045     30.632331      7.861312
  O      15.517335     29.748781      8.151582
  O      15.758714     34.429927      8.204745
  O      18.406846     34.535944      8.412828
  O      18.169068     29.935338      8.391048
  O      16.926897     27.516147      8.417992
  O      19.704001     32.165256      8.398579
  O      17.149107     28.843816      6.199426
  O      17.323531     35.359406      6.203335
  O      19.581020     33.628820      6.221367
  O      19.476749     30.690479      6.218061
  Si     17.044733     38.367531      7.832116
  O      15.828911     39.292195      8.399362
  O      18.520674     38.910579      8.283998
  O      16.974100     36.827703      8.381089
  O      16.897075     38.304395      6.194215
  O      20.734570     29.633793      8.378084
  O      21.132122     34.343806      8.344304
  H       4.074657     24.986772      8.036591
  H       1.410409     29.602015      8.036749
  H       1.410409     35.007985      8.036749
  H       4.074657     39.623228      8.036591
  H       8.948181     22.173255      8.038302
  H       8.948181     42.436745      8.038302
  H      14.277762     22.173204      8.038282
  H      14.277762     42.436796      8.038282
  H      18.960557     24.876228      8.036406
  H      18.960557     39.733772      8.036406
  H      21.624717     29.491420      8.036583
  H      21.624717     35.118580      8.036583
  H      13.336585     34.065497      5.961164
  H      11.219020     34.726071      5.508447
  H       9.031820     32.668084      5.552895
  H       9.869679     30.253038      5.746366
  H      12.383410     29.916684      5.864289
  H      14.033123     31.783488      5.960497
  H      13.620629     39.651397      5.903823
  H      11.049317     39.343752      5.846469
  H       8.563635     39.559329      5.743939
  H       6.752412     37.589435      5.356322
  H       5.193147     34.970166      5.486702
  H       3.348131     32.831672      5.709564
  H       4.192050     30.179513      5.814125
  H       6.065362     28.205591      5.779117
  H       6.961003     25.634955      5.881341
  H       9.590445     24.907001      5.870436
  H      12.248108     25.475089      5.788270
  H      14.966442     25.052301      5.882053
  H      16.936378     26.892274      5.886634
  H      17.794864     29.452666      5.814225
  H      19.490271     31.601142      5.882052
  H      18.873525     34.200907      5.876738
  H      17.106294     36.216157      5.810131
  H      16.118499     38.791635      5.877935
  P       2.849006     39.625430      9.944838
  O       2.884366     38.204175     10.339705
  O       3.138163     40.012611      8.494794
  O       1.424333     40.282807     10.258746
  O       3.784315     40.536668     10.882907
  C       5.169929     40.594362     10.601111
  C       5.969024     40.398495     11.867342
  O       5.777515     39.084140     12.422332
  C       7.456251     40.530781     11.623363
  O       8.085753     41.023190     12.782071
  C       7.886249     39.085252     11.369298
  O       9.229904     38.912408     11.734464
  C       6.912715     38.305692     12.261004
  N       6.496280     37.010373     11.701822
  C       5.202895     36.583735     11.470038
  N       5.139799     35.333009     11.091434
  C       6.437996     34.925808     11.049229
  C       7.008465     33.735250     10.603427
  N       6.334495     32.674642     10.171410
  N       8.366800     33.719031     10.642654
  C       9.125991     34.781813     11.033552
  N       8.645758     35.907301     11.447455
  C       7.302408     35.957855     11.425117
  H       0.925163     39.654125     10.787295
  H       5.457001     39.863174      9.838917
  H       5.402948     41.584970     10.195783
  H       5.638331     41.109554     12.627396
  H       7.679144     41.159357     10.753784
  H       8.992062     40.690223     12.744082
  H       7.717964     38.825273     10.324667
  H       9.710636     38.520997     11.000268
  H       7.389793     38.092596     13.225098
  H       4.357949     37.259437     11.534007
  H       5.351231     32.808032      9.982404
  H       6.801150     31.985358      9.600178
  H      10.195335     34.632918     10.959019
  H       8.844121     32.946654     10.189075
163
Coordinates from ORCA-job /data/Seafile/amp/al_surf/protonated_al_surf/frames/frame12/dry/amp_al_frame12_dry E -13417.888834655338
  Si      3.475582     33.827122      7.690905
  Si      3.489275     30.740870      7.833315
  O       2.098157     34.394320      8.324447
  O       2.148100     30.061338      8.464456
  O       3.615601     32.296833      8.296446
  O       3.442624     33.729956      6.048550
  O       3.461674     30.691873      6.192344
  Si      6.150127     26.122040      7.877305
  Si      8.790428     24.531521      7.893831
  O       4.738797     25.550050      8.449953
  O       7.436562     25.278340      8.416179
  O       8.730836     23.008728      8.469726
  O       6.198047     26.117929      6.231880
  O       8.756996     24.584600      6.249569
  Si      6.136551     29.179912      7.770780
  Si      6.177586     35.363007      7.426882
  Si      8.943517     33.780894      7.472211
  Si      8.901510     30.698472      7.663874
  O       4.844125     29.975187      8.361101
  O       4.826260     34.659056      8.058519
  O       7.459352     34.403912      7.759921
  O       7.483104     30.025937      8.132424
  O       6.257039     27.673743      8.371685
  O       8.866630     32.246435      8.172163
  O       5.895943     29.082032      6.150482
  O       5.947038     35.477650      5.808180
  O       9.185746     33.566177      5.870751
  O       9.032940     30.656353      6.036393
  Si      6.544381     38.402275      7.436427
  Si      9.106607     40.075082      7.797531
  O       5.210247     39.178376      7.595179
  O       7.826753     39.158549      8.190997
  O       6.482478     36.834261      8.009722
  O       8.993800     41.570429      8.460889
  O       7.145762     38.289169      5.886306
  O       9.237550     40.131362      6.157705
  Si     11.472225     26.029508      7.793139
  Si     14.140968     24.529057      7.862375
  O      10.121012     25.338101      8.395789
  O      12.827396     25.347007      8.380309
  O      13.924091     23.000424      8.384584
  O      11.402235     25.739255      6.175314
  O      14.168260     24.616166      6.218749
  Si     11.552145     29.204420      7.767207
  Al     11.705760     35.354100      7.714818
  Si     14.307719     33.715382      7.885749
  Si     14.217567     30.682260      7.832676
  O      10.168081     29.894462      8.311573
  O      10.124046     34.625580      8.125321
  O      13.072128     34.525509      8.485708
  O      12.890323     29.882787      8.399085
  O      11.477230     27.616484      8.118030
  O      14.404584     32.158775      8.467728
  O      11.579529     29.434470      6.142506
  O      11.987667     35.018059      6.003551
  O      14.131529     33.530331      6.257506
  O      13.986448     30.830096      6.214057
  Si     11.790991     38.619717      7.808511
  Si     14.483309     40.071956      7.875821
  O      10.464299     39.391873      8.398956
  O      13.139625     39.346574      8.430576
  O      11.742211     37.061261      8.108890
  O      14.662307     41.619112      8.383940
  O      11.879295     38.981950      6.194077
  O      14.487744     39.957343      6.233544
  Si     16.864450     25.971485      7.891426
  O      15.508515     25.222704      8.414642
  O      18.100202     25.056654      8.434280
  O      16.782280     26.003396      6.248111
  Si     16.933164     29.041416      7.819023
  Si     17.069056     35.292608      7.829745
  Si     19.702971     33.715999      7.860846
  Si     19.552168     30.632235      7.861073
  O      15.517288     29.748660      8.151200
  O      15.758706     34.429814      8.204717
  O      18.406848     34.535831      8.412553
  O      18.169097     29.935274      8.390607
  O      16.927094     27.516080      8.417569
  O      19.704130     32.165141      8.398452
  O      17.149010     28.843752      6.199006
  O      17.323367     35.359073      6.203050
  O      19.581089     33.628665      6.221201
  O      19.477076     30.690409      6.217853
  Si     17.044920     38.367532      7.831880
  O      15.829189     39.292271      8.399233
  O      18.520834     38.910491      8.284081
  O      16.974105     36.827642      8.380681
  O      16.897413     38.304703      6.194014
  O      20.734644     29.633824      8.378192
  O      21.132153     34.343696      8.344133
  H       4.074657     24.986772      8.036591
  H       1.410409     29.602015      8.036749
  H       1.410409     35.007985      8.036749
  H       4.074657     39.623228      8.036591
  H       8.948181     22.173255      8.038302
  H       8.948181     42.436745      8.038302
  H      14.277762     22.173204      8.038282
  H      14.277762     42.436796      8.038282
  H      18.960557     24.876228      8.036406
  H      18.960557     39.733772      8.036406
  H      21.624717     29.491420      8.036583
  H      21.624717     35.118580      8.036583
  H      13.336557     34.065515      5.960822
  H      11.219262     34.726603      5.508019
  H       9.032253     32.668425      5.551788
  H       9.869826     30.253021      5.745448
  H      12.383672     29.916414      5.863620
  H      14.033332     31.783487      5.960009
  H      13.620751     39.651564      5.903603
  H      11.049877     39.344166      5.846058
  H       8.563936     39.559184      5.743468
  H       6.752019     37.590332      5.355477
  H       5.193185     34.970199      5.485473
  H       3.347225     32.831596      5.709322
  H       4.191794     30.180107      5.813684
  H       6.065315     28.206010      5.778466
  H       6.961408     25.635525      5.880983
  H       9.590060     24.907246      5.870212
  H      12.247851     25.474853      5.787919
  H      14.966240     25.051902      5.881859
  H      16.936222     26.892058      5.886337
  H      17.794648     29.452643      5.813660
  H      19.490747     31.601087      5.881844
  H      18.873516     34.200649      5.876542
  H      17.106121     36.215753      5.809665
  H      16.118824     38.791972      5.877746
  P       2.849745     39.625030      9.945070
  O       2.884889     38.203270     10.338106
  O       3.138889     40.013732      8.495168
  O       1.425297     40.281948     10.260095
  O       3.785220     40.535394     10.883793
  C       5.170781     40.592997     10.601762
  C       5.970031     40.396326     11.867905
  O       5.778321     39.081964     12.422606
  C       7.457114     40.528283     11.623475
  O       8.086856     41.020456     12.782182
  C       7.886769     39.082911     11.369003
  O       9.230454     38.909765     11.733562
  C       6.913263     38.303375     12.260959
  N       6.496259     37.008182     11.701800
  C       5.202818     36.582029     11.469475
  N       5.139330     35.331273     11.090855
  C       6.437338     34.923579     11.048921
  C       7.007481     33.732875     10.602783
  N       6.333304     32.672479     10.170258
  N       8.365789     33.716224     10.642330
  C       9.125258     34.778712     11.033995
  N       8.645303     35.904339     11.448192
  C       7.302006     35.955353     11.425361
  H       0.924939     39.651388     10.785519
  H       5.457571     39.862339      9.838980
  H       5.403966     41.583831     10.196967
  H       5.639895     41.107236     12.628373
  H       7.679876     41.156794     10.753958
  H       8.993213     40.687202     12.744106
  H       7.718116     38.823316     10.324100
  H       9.710455     38.517833     10.999276
  H       7.390527     38.089936     13.225161
  H       4.358166     37.257953     11.533261
  H       5.350273     32.806120      9.981266
  H       6.800011     31.983202      9.599164
  H      10.194561     34.629394     10.959736
  H       8.843013     32.943824     10.188193
163
Coordinates from ORCA-job /data/Seafile/amp/al_surf/protonated_al_surf/frames/frame12/dry/amp_al_frame12_dry E -13417.888833560275
  Si      3.475690     33.827215      7.690868
  Si      3.489115     30.741207      7.833436
  O       2.098739     34.395027      8.325072
  O       2.147196     30.062988      8.464342
  O       3.616072     32.297109      8.296527
  O       3.441884     33.729715      6.048546
  O       3.461569     30.692063      6.192426
  Si      6.149759     26.122669      7.877046
  Si      8.789640     24.531595      7.893851
  O       4.737220     25.552768      8.448822
  O       7.435443     25.277893      8.416163
  O       8.729924     23.008710      8.469400
  O       6.198100     26.118330      6.231689
  O       8.756412     24.585170      6.249595
  Si      6.136479     29.180387      7.770872
  Si      6.177954     35.362696      7.426061
  Si      8.943849     33.780613      7.471373
  Si      8.901683     30.698355      7.663787
  O       4.843665     29.974979      8.361250
  O       4.826418     34.659278      8.057892
  O       7.459210     34.402712      7.758501
  O       7.482876     30.026691      8.132529
  O       6.257745     27.674228      8.371581
  O       8.867546     32.246391      8.171907
  O       5.896018     29.082785      6.150510
  O       5.946956     35.477706      5.807405
  O       9.186709     33.565389      5.870082
  O       9.032923     30.655703      6.036308
  Si      6.545071     38.402085      7.436209
  Si      9.107260     40.074991      7.796770
  O       5.210678     39.177557      7.595468
  O       7.827493     39.158327      8.190477
  O       6.483659     36.833827      8.008906
  O       8.995945     41.570186      8.460653
  O       7.145822     38.289406      5.885710
  O       9.237563     40.131767      6.156936
  Si     11.471733     26.029190      7.793337
  Si     14.140676     24.528932      7.862611
  O      10.120288     25.338077      8.395895
  O      12.826809     25.346462      8.380411
  O      13.924409     23.000336      8.385135
  O      11.401692     25.739022      6.175509
  O      14.167743     24.615867      6.219001
  Si     11.552182     29.204042      7.767227
  Al     11.706117     35.353878      7.713667
  Si     14.307929     33.714878      7.885288
  Si     14.217717     30.681752      7.832566
  O      10.168126     29.894175      8.311496
  O      10.124025     34.626165      8.124048
  O      13.072037     34.524767      8.484920
  O      12.890402     29.882401      8.399017
  O      11.477146     27.616173      8.118174
  O      14.405012     32.158331      8.467364
  O      11.579554     29.433879      6.142509
  O      11.988099     35.017344      6.002469
  O      14.132019     33.529730      6.257045
  O      13.986668     30.829366      6.213923
  Si     11.791640     38.619450      7.807187
  Si     14.483816     40.072006      7.875119
  O      10.464914     39.391292      8.397794
  O      13.140122     39.346362      8.429471
  O      11.743198     37.061008      8.107579
  O      14.662940     41.619139      8.383334
  O      11.879968     38.981824      6.192794
  O      14.488466     39.957491      6.232856
  Si     16.864258     25.971170      7.891265
  O      15.508097     25.222975      8.414704
  O      18.099661     25.055597      8.433667
  O      16.781901     26.003139      6.247982
  Si     16.933327     29.041111      7.818912
  Si     17.069074     35.292362      7.829409
  Si     19.703099     33.715813      7.860673
  Si     19.552378     30.632068      7.861008
  O      15.517310     29.748019      8.151253
  O      15.758739     34.429591      8.204591
  O      18.406898     34.535645      8.412230
  O      18.169228     29.935111      8.390329
  O      16.927679     27.515748      8.417377
  O      19.704319     32.164984      8.398420
  O      17.148884     28.843570      6.198818
  O      17.323253     35.358605      6.202680
  O      19.581298     33.628405      6.221055
  O      19.477541     30.690163      6.217819
  Si     17.045214     38.367408      7.831482
  O      15.829622     39.292362      8.398698
  O      18.521029     38.910347      8.284042
  O      16.974180     36.827487      8.380196
  O      16.898038     38.304726      6.193649
  O      20.734794     29.633846      8.378516
  O      21.132258     34.343549      8.343932
  H       4.074657     24.986772      8.036591
  H       1.410409     29.602015      8.036749
  H       1.410409     35.007985      8.036749
  H       4.074657     39.623228      8.036591
  H       8.948181     22.173255      8.038302
  H       8.948181     42.436745      8.038302
  H      14.277762     22.173204      8.038282
  H      14.277762     42.436796      8.038282
  H      18.960557     24.876228      8.036406
  H      18.960557     39.733772      8.036406
  H      21.624717     29.491420      8.036583
  H      21.624717     35.118580      8.036583
  H      13.337016     34.064744      5.960115
  H      11.219620     34.725427      5.507323
  H       9.032728     32.667738      5.551071
  H       9.869873     30.252484      5.745363
  H      12.383623     29.915870      5.863532
  H      14.033537     31.782684      5.959727
  H      13.621579     39.651727      5.902670
  H      11.050743     39.344345      5.844664
  H       8.563977     39.559413      5.742718
  H       6.751702     37.590839      5.354858
  H       5.193201     34.970133      5.484668
  H       3.346847     32.831268      5.709446
  H       4.191900     30.180525      5.813815
  H       6.065536     28.206910      5.778219
  H       6.961747     25.636240      5.880943
  H       9.589639     24.907606      5.870395
  H      12.247228     25.474560      5.787975
  H      14.965702     25.051397      5.881811
  H      16.935781     26.891787      5.886149
  H      17.794437     29.452378      5.813232
  H      19.491339     31.600784      5.881664
  H      18.873661     34.200234      5.876274
  H      17.106250     36.215232      5.809072
  H      16.119603     38.792092      5.877155
  P       2.850633     39.625443      9.945228
  O       2.886012     38.203541     10.337978
  O       3.139337     40.014343      8.495148
  O       1.426269     40.281899     10.260467
  O       3.785920     40.536165     10.883970
  C       5.171429     40.594456     10.602228
  C       5.970563     40.396864     11.868387
  O       5.778831     39.082104     12.422076
  C       7.457789     40.528858     11.624015
  O       8.087672     41.020423     12.782907
  C       7.887372     39.083522     11.368766
  O       9.231135     38.910232     11.732737
  C       6.914107     38.303779     12.260585
  N       6.497485     37.008580     11.701313
  C       5.204105     36.582263     11.469101
  N       5.140725     35.331491     11.090509
  C       6.438732     34.923992     11.048347
  C       7.008878     33.733267     10.602255
  N       6.334612     32.672773     10.170336
  N       8.367154     33.716757     10.641482
  C       9.126604     34.779415     11.032956
  N       8.646603     35.905018     11.447254
  C       7.303307     35.955873     11.424739
  H       0.924742     39.649716     10.782758
  H       5.458788     39.864702      9.838573
  H       5.404123     41.585791     10.198632
  H       5.640355     41.107366     12.629397
  H       7.680682     41.158074     10.754893
  H       8.993967     40.687197     12.744491
  H       7.718323     38.824462     10.324013
  H       9.710624     38.516652     10.999063
  H       7.391477     38.090453     13.224698
  H       4.359449     37.258101     11.532830
  H       5.351698     32.806447      9.981968
  H       6.801292     31.983402      9.599551
  H      10.195898     34.630103     10.958598
  H       8.844392     32.944195     10.187541
163
Coordinates from ORCA-job /data/Seafile/amp/al_surf/protonated_al_surf/frames/frame12/dry/amp_al_frame12_dry E -13417.888849852101
  Si      3.475558     33.826858      7.690594
  Si      3.489061     30.741215      7.833636
  O       2.098985     34.395368      8.325206
  O       2.146688     30.063785      8.464354
  O       3.616042     32.297066      8.296683
  O       3.441147     33.728683      6.048332
  O       3.461538     30.691885      6.192574
  Si      6.149591     26.122943      7.877138
  Si      8.789212     24.531655      7.894180
  O       4.736172     25.554498      8.448105
  O       7.434660     25.277385      8.416482
  O       8.729888     23.008707      8.469475
  O       6.198080     26.118198      6.231853
  O       8.755987     24.585716      6.249952
  Si      6.136472     29.180607      7.770924
  Si      6.178250     35.361833      7.425362
  Si      8.944306     33.780225      7.470996
  Si      8.902007     30.698040      7.663499
  O       4.843526     29.974848      8.361467
  O       4.826355     34.658924      8.057229
  O       7.459057     34.401151      7.757552
  O       7.482879     30.026958      8.132482
  O       6.258198     27.674489      8.371613
  O       8.868638     32.246023      8.171600
  O       5.896044     29.083322      6.150497
  O       5.947017     35.476864      5.806664
  O       9.188210     33.564914      5.869897
  O       9.032766     30.654811      6.036013
  Si      6.545318     38.401396      7.435811
  Si      9.107211     40.074519      7.795758
  O       5.210460     39.175921      7.595277
  O       7.827711     39.157597      8.189900
  O       6.484403     36.832917      8.008250
  O       8.996356     41.569651      8.459652
  O       7.145787     38.288888      5.884980
  O       9.237232     40.131106      6.156048
  Si     11.471503     26.028824      7.793561
  Si     14.140654     24.528758      7.863049
  O      10.119826     25.338199      8.396186
  O      12.826461     25.345927      8.380475
  O      13.925019     23.000271      8.385931
  O      11.401291     25.738543      6.175741
  O      14.167597     24.615331      6.219461
  Si     11.552492     29.203619      7.767029
  Al     11.706350     35.353758      7.713375
  Si     14.308001     33.714539      7.885264
  Si     14.217977     30.681473      7.832538
  O      10.168405     29.893857      8.311196
  O      10.123852     34.626742      8.123553
  O      13.071837     34.524068      8.484746
  O      12.890602     29.882079      8.398831
  O      11.477323     27.615848      8.118073
  O      14.405404     32.158028      8.467284
  O      11.579957     29.433099      6.142301
  O      11.988365     35.017011      6.002199
  O      14.132164     33.529398      6.257048
  O      13.987207     30.829016      6.213903
  Si     11.791807     38.619160      7.806279
  Si     14.483953     40.071965      7.874662
  O      10.465058     39.390939      8.396649
  O      13.140171     39.346263      8.428560
  O      11.743534     37.060815      8.107353
  O      14.663410     41.619107      8.382762
  O      11.880348     38.980982      6.191769
  O      14.488843     39.957498      6.232410
  Si     16.864135     25.971045      7.891479
  O      15.507890     25.223160      8.415055
  O      18.099476     25.055229      8.433484
  O      16.781609     26.002978      6.248206
  Si     16.933547     29.040950      7.819096
  Si     17.069012     35.292205      7.829415
  Si     19.703137     33.715698      7.860787
  Si     19.552734     30.631949      7.861308
  O      15.517472     29.747699      8.151438
  O      15.758591     34.429631      8.204769
  O      18.406800     34.535428      8.412193
  O      18.169497     29.934955      8.390348
  O      16.927982     27.515606      8.417560
  O      19.704468     32.164912      8.398711
  O      17.148913     28.843418      6.198922
  O      17.323089     35.358274      6.202644
  O      19.581426     33.628230      6.221202
  O      19.478277     30.689938      6.218137
  Si     17.045277     38.367353      7.831509
  O      15.829594     39.292261      8.398451
  O      18.520829     38.910543      8.284476
  O      16.974298     36.827402      8.380144
  O      16.898553     38.304776      6.193674
  O      20.735113     29.634074      8.379224
  O      21.132217     34.343592      8.343982
  H       4.074657     24.986772      8.036591
  H       1.410409     29.602015      8.036749
  H       1.410409     35.007985      8.036749
  H       4.074657     39.623228      8.036591
  H       8.948181     22.173255      8.038302
  H       8.948181     42.436745      8.038302
  H      14.277762     22.173204      8.038282
  H      14.277762     42.436796      8.038282
  H      18.960557     24.876228      8.036406
  H      18.960557     39.733772      8.036406
  H      21.624717     29.491420      8.036583
  H      21.624717     35.118580      8.036583
  H      13.336690     34.063599      5.960138
  H      11.219821     34.724564      5.507436
  H       9.033079     32.667630      5.550357
  H       9.869670     30.251752      5.744796
  H      12.383978     29.915099      5.863246
  H      14.035111     31.782306      5.959514
  H      13.622336     39.651246      5.901876
  H      11.051121     39.342899      5.843120
  H       8.563648     39.558839      5.741823
  H       6.751642     37.590126      5.354334
  H       5.193065     34.969484      5.484066
  H       3.346844     32.830032      5.709551
  H       4.192014     30.180547      5.813989
  H       6.065538     28.207594      5.777910
  H       6.962011     25.636517      5.881143
  H       9.589389     24.907764      5.870782
  H      12.246727     25.473947      5.788054
  H      14.965503     25.050673      5.881905
  H      16.935489     26.891577      5.886258
  H      17.794411     29.452094      5.813064
  H      19.492121     31.600469      5.881751
  H      18.873667     34.199819      5.876291
  H      17.106495     36.214864      5.808817
  H      16.120395     38.792347      5.876816
  P       2.852265     39.626059      9.945787
  O       2.887010     38.203952     10.337538
  O       3.140470     40.015569      8.495699
  O       1.428235     40.283286     10.261717
  O       3.787865     40.535640     10.884914
  C       5.173304     40.593723     10.603579
  C       5.972178     40.395019     11.869722
  O       5.780087     39.079972     12.422419
  C       7.459374     40.526600     11.625235
  O       8.089798     41.016867     12.784560
  C       7.888228     39.081438     11.368474
  O       9.232233     38.907468     11.731265
  C       6.915220     38.301476     12.260389
  N       6.498158     37.006572     11.700995
  C       5.204686     36.580901     11.468117
  N       5.140962     35.330156     11.089343
  C       6.438794     34.922090     11.047653
  C       7.008633     33.731238     10.601370
  N       6.333921     32.671288     10.168984
  N       8.366852     33.714257     10.640840
  C       9.126596     34.776519     11.032948
  N       8.646886     35.902095     11.447572
  C       7.303598     35.953515     11.424620
  H       0.924526     39.649415     10.779886
  H       5.460862     39.864480      9.839512
  H       5.406155     41.585285     10.200852
  H       5.642144     41.105147     12.631171
  H       7.682365     41.156858     10.756784
  H       8.995932     40.683300     12.745767
  H       7.718334     38.823576     10.323433
  H       9.710556     38.512178     10.997712
  H       7.393200     38.087827     13.224198
  H       4.360260     37.257106     11.531579
  H       5.351154     32.805764      9.980401
  H       6.800327     31.981868      9.598078
  H      10.195838     34.626773     10.958774
  H       8.843900     32.941682     10.186585
163
Coordinates from ORCA-job /data/Seafile/amp/al_surf/protonated_al_surf/frames/frame12/dry/amp_al_frame12_dry E -13417.888836901127
  Si      3.475437     33.826514      7.690562
  Si      3.489011     30.741135      7.833949
  O       2.099115     34.395723      8.325288
  O       2.146242     30.064369      8.464491
  O       3.615747     32.296952      8.297059
  O       3.440649     33.727801      6.048385
  O       3.461625     30.691570      6.192860
  Si      6.149617     26.122896      7.877232
  Si      8.789144     24.531459      7.894362
  O       4.735732     25.555273      8.447742
  O       7.434360     25.276913      8.416643
  O       8.730328     23.008610      8.469676
  O       6.198021     26.117817      6.231995
  O       8.755784     24.585800      6.250178
  Si      6.136470     29.180620      7.771193
  Si      6.178633     35.360754      7.425323
  Si      8.944775     33.779608      7.471254
  Si      8.902264     30.697570      7.663831
  O       4.843480     29.974774      8.361823
  O       4.826371     34.658334      8.057214
  O       7.459035     34.399532      7.757308
  O       7.482880     30.026894      8.132882
  O       6.258312     27.674452      8.371753
  O       8.869683     32.245462      8.171946
  O       5.896126     29.083782      6.150701
  O       5.947318     35.475685      5.806574
  O       9.189548     33.564189      5.870322
  O       9.032274     30.653923      6.036296
  Si      6.545397     38.400183      7.435411
  Si      9.107055     40.073915      7.794649
  O       5.210084     39.173643      7.595075
  O       7.827690     39.156799      8.189153
  O       6.485188     36.831698      8.008308
  O       8.996784     41.569078      8.458690
  O       7.145645     38.287848      5.884535
  O       9.236827     40.130128      6.155106
  Si     11.471460     26.028371      7.793648
  Si     14.140786     24.528549      7.863403
  O      10.119615     25.338195      8.396345
  O      12.826294     25.345413      8.380435
  O      13.925678     23.000220      8.386671
  O      11.401062     25.737940      6.175826
  O      14.167716     24.614600      6.219826
  Si     11.552769     29.203110      7.766960
  Al     11.706427     35.353410      7.713362
  Si     14.307966     33.714218      7.885454
  Si     14.218100     30.681219      7.832522
  O      10.168708     29.893353      8.311270
  O      10.123605     34.627071      8.123668
  O      13.071523     34.523383      8.484824
  O      12.890747     29.881711      8.398730
  O      11.477562     27.615395      8.117929
  O      14.405561     32.157715      8.467342
  O      11.580160     29.432381      6.142231
  O      11.988249     35.016298      6.002226
  O      14.132527     33.529319      6.257197
  O      13.987331     30.828794      6.213957
  Si     11.791737     38.618731      7.805470
  Si     14.483845     40.071893      7.874268
  O      10.464971     39.390417      8.395588
  O      13.139972     39.346171      8.427683
  O      11.743616     37.060435      8.107259
  O      14.663460     41.618977      8.382380
  O      11.880497     38.979844      6.190787
  O      14.489041     39.957787      6.231990
  Si     16.864060     25.971050      7.891586
  O      15.507783     25.223388      8.415335
  O      18.099348     25.055102      8.433322
  O      16.781352     26.002908      6.248300
  Si     16.933711     29.040936      7.819175
  Si     17.068802     35.292145      7.829686
  Si     19.703021     33.715775      7.861031
  Si     19.552976     30.632029      7.861699
  O      15.517588     29.747500      8.151550
  O      15.758268     34.429781      8.205180
  O      18.406562     34.535342      8.412374
  O      18.169635     29.934955      8.390390
  O      16.928143     27.515603      8.417654
  O      19.704318     32.165043      8.399087
  O      17.148996     28.843442      6.198939
  O      17.322732     35.358117      6.202882
  O      19.581423     33.628347      6.221455
  O      19.479053     30.689898      6.218516
  Si     17.045188     38.367300      7.831699
  O      15.829278     39.292047      8.398285
  O      18.520488     38.910802      8.284938
  O      16.974309     36.827374      8.380399
  O      16.898865     38.304623      6.193819
  O      20.735370     29.634437      8.379952
  O      21.132031     34.343787      8.344184
  H       4.074657     24.986772      8.036591
  H       1.410409     29.602015      8.036749
  H       1.410409     35.007985      8.036749
  H       4.074658     39.623228      8.036591
  H       8.948181     22.173255      8.038302
  H       8.948181     42.436745      8.038302
  H      14.277762     22.173204      8.038282
  H      14.277762     42.436796      8.038282
  H      18.960557     24.876228      8.036406
  H      18.960557     39.733772      8.036406
  H      21.624717     29.491420      8.036583
  H      21.624717     35.118580      8.036583
  H      13.337397     34.064139      5.960092
  H      11.219607     34.723218      5.507946
  H       9.032641     32.667389      5.550255
  H       9.869087     30.251148      5.744600
  H      12.383890     29.914697      5.863025
  H      14.034290     31.782052      5.959641
  H      13.622690     39.651575      5.900991
  H      11.051240     39.341209      5.841713
  H       8.562893     39.558057      5.740995
  H       6.751804     37.588860      5.354005
  H       5.192993     34.968753      5.484231
  H       3.347082     32.828917      5.709924
  H       4.192374     30.180541      5.814379
  H       6.065604     28.208217      5.777773
  H       6.962229     25.636600      5.881243
  H       9.589308     24.907418      5.870912
  H      12.246432     25.473283      5.788047
  H      14.965439     25.050016      5.881959
  H      16.935215     26.891442      5.886215
  H      17.794587     29.451912      5.812974
  H      19.492800     31.600334      5.881914
  H      18.873587     34.199781      5.876466
  H      17.106148     36.214703      5.808917
  H      16.120976     38.792346      5.876591
  P       2.851991     39.626459      9.945586
  O       2.885811     38.204402     10.337734
  O       3.140365     40.015442      8.495156
  O       1.428771     40.285226     10.261410
  O       3.787949     40.535734     10.884415
  C       5.173522     40.593455     10.603683
  C       5.972228     40.394136     11.869857
  O       5.779833     39.078805     12.421874
  C       7.459341     40.525575     11.625057
  O       8.090477     41.015307     12.784225
  C       7.887673     39.080440     11.367309
  O       9.231981     38.906161     11.729061
  C       6.915009     38.300338     12.259482
  N       6.497756     37.005553     11.700374
  C       5.204254     36.580114     11.467164
  N       5.140478     35.329320     11.088560
  C       6.438265     34.921106     11.047156
  C       7.008096     33.730126     10.601009
  N       6.333121     32.670271     10.168727
  N       8.366336     33.713169     10.640467
  C       9.126137     34.775376     11.032723
  N       8.646433     35.900861     11.447457
  C       7.303111     35.952353     11.424309
  H       0.922829     39.650357     10.776077
  H       5.460995     39.864360      9.839778
  H       5.406892     41.585105     10.201261
  H       5.642243     41.104005     12.631397
  H       7.681948     41.156423     10.756994
  H       8.996570     40.681851     12.744840
  H       7.716978     38.823269     10.322285
  H       9.709269     38.508849     10.995871
  H       7.393598     38.086797     13.223010
  H       4.359955     37.256458     11.530343
  H       5.350312     32.805041      9.980163
  H       6.799193     31.980498      9.597915
  H      10.195387     34.625649     10.958542
  H       8.843286     32.940590     10.186254
163
Coordinates from ORCA-job /data/Seafile/amp/al_surf/protonated_al_surf/frames/frame12/dry/amp_al_frame12_dry E -13417.888837953486
  Si      3.475506     33.826421      7.690375
  Si      3.489018     30.741139      7.833832
  O       2.099385     34.396030      8.325358
  O       2.145935     30.064912      8.464388
  O       3.615629     32.296903      8.297080
  O       3.440195     33.727446      6.048283
  O       3.461697     30.691281      6.192746
  Si      6.149580     26.123010      7.876833
  Si      8.789053     24.531517      7.894297
  O       4.735371     25.556098      8.447160
  O       7.434068     25.276812      8.416381
  O       8.730608     23.008667      8.469717
  O       6.197910     26.117541      6.231605
  O       8.755738     24.585973      6.250153
  Si      6.136599     29.180822      7.770910
  Si      6.179131     35.360264      7.425128
  Si      8.945525     33.779576      7.471329
  Si      8.902566     30.697555      7.663796
  O       4.843592     29.974878      8.361632
  O       4.826695     34.657949      8.056951
  O       7.459372     34.398792      7.756950
  O       7.482955     30.027137      8.132793
  O       6.258428     27.674584      8.371363
  O       8.870682     32.245354      8.171865
  O       5.896216     29.084292      6.150394
  O       5.947838     35.475166      5.806312
  O       9.191310     33.564237      5.870494
  O       9.032012     30.653457      6.036236
  Si      6.545792     38.399613      7.435225
  Si      9.107249     40.073530      7.794136
  O       5.210136     39.172351      7.594967
  O       7.828010     39.156371      8.188996
  O       6.485974     36.831008      8.008433
  O       8.996905     41.568822      8.457801
  O       7.146010     38.287283      5.884302
  O       9.237006     40.129147      6.154736
  Si     11.471387     26.028206      7.793686
  Si     14.140868     24.528451      7.863616
  O      10.119390     25.338373      8.396390
  O      12.826150     25.345177      8.380304
  O      13.926051     23.000192      8.387089
  O      11.400863     25.737620      6.175845
  O      14.167918     24.614130      6.220031
  Si     11.553022     29.202924      7.766892
  Al     11.706854     35.353332      7.713804
  Si     14.308081     33.714035      7.885893
  Si     14.218305     30.681125      7.832720
  O      10.168964     29.893254      8.311204
  O      10.123631     34.627628      8.124021
  O      13.071488     34.522916      8.485278
  O      12.890857     29.881597      8.398749
  O      11.477599     27.615220      8.117767
  O      14.405798     32.157526      8.467696
  O      11.580549     29.432063      6.142174
  O      11.988650     35.016212      6.002696
  O      14.132804     33.529213      6.257617
  O      13.987609     30.828836      6.214217
  Si     11.791921     38.618550      7.805521
  Si     14.483921     40.071886      7.874239
  O      10.465157     39.390217      8.395245
  O      13.140051     39.346354      8.427476
  O      11.743879     37.060249      8.107921
  O      14.663602     41.618981      8.382125
  O      11.880916     38.978932      6.190629
  O      14.489343     39.957962      6.231910
  Si     16.863976     25.971123      7.891664
  O      15.507694     25.223557      8.415537
  O      18.099230     25.054997      8.433061
  O      16.780972     26.003105      6.248345
  Si     16.933892     29.040943      7.819447
  Si     17.068774     35.292168      7.830156
  Si     19.702952     33.715831      7.861359
  Si     19.553233     30.632076      7.862130
  O      15.517757     29.747384      8.151870
  O      15.758116     34.430051      8.205670
  O      18.406463     34.535263      8.412735
  O      18.169826     29.934925      8.390588
  O      16.928259     27.515592      8.417884
  O      19.704185     32.165136      8.399468
  O      17.149172     28.843515      6.199179
  O      17.322690     35.358224      6.203352
  O      19.581395     33.628423      6.221767
  O      19.479728     30.689867      6.218904
  Si     17.045218     38.367245      7.832122
  O      15.829162     39.291890      8.398419
  O      18.520349     38.911062      8.285342
  O      16.974523     36.827379      8.380939
  O      16.898997     38.304255      6.194158
  O      20.735671     29.634703      8.380551
  O      21.131905     34.343988      8.344434
  H       4.074657     24.986772      8.036591
  H       1.410409     29.602015      8.036749
  H       1.410409     35.007985      8.036749
  H       4.074657     39.623228      8.036591
  H       8.948181     22.173255      8.038302
  H       8.948181     42.436745      8.038302
  H      14.277762     22.173204      8.038282
  H      14.277762     42.436796      8.038282
  H      18.960557     24.876228      8.036406
  H      18.960557     39.733772      8.036406
  H      21.624717     29.491420      8.036583
  H      21.624717     35.118580      8.036583
  H      13.337670     34.064096      5.960581
  H      11.220051     34.722549      5.508673
  H       9.032541     32.668103      5.549780
  H       9.868905     30.251122      5.744219
  H      12.384150     29.914574      5.862984
  H      14.034992     31.782107      5.959897
  H      13.623295     39.651308      5.900641
  H      11.051631     39.339814      5.841225
  H       8.562736     39.557449      5.740672
  H       6.752622     37.587772      5.354078
  H       5.192757     34.969152      5.484319
  H       3.347546     32.828354      5.710108
  H       4.192804     30.180658      5.814381
  H       6.065734     28.208849      5.777221
  H       6.962376     25.636705      5.880913
  H       9.589378     24.907277      5.870865
  H      12.246234     25.472969      5.788107
  H      14.965503     25.049717      5.882057
  H      16.934954     26.891611      5.886247
  H      17.794905     29.451862      5.813282
  H      19.493215     31.600267      5.882202
  H      18.873495     34.199786      5.876787
  H      17.106253     36.214898      5.809512
  H      16.121370     38.792233      5.876714
  P       2.852469     39.626301      9.945540
  O       2.884991     38.204059     10.337040
  O       3.140890     40.015733      8.495161
  O       1.429617     40.286206     10.261864
  O       3.788959     40.534400     10.884649
  C       5.174488     40.592227     10.604215
  C       5.972839     40.392321     11.870509
  O       5.780057     39.076871     12.421903
  C       7.459982     40.523379     11.625725
  O       8.091567     41.012108     12.785153
  C       7.887620     39.078332     11.366779
  O       9.232105     38.903559     11.727615
  C       6.915029     38.298104     12.259042
  N       6.497160     37.003584     11.699865
  C       5.203509     36.578852     11.466229
  N       5.139277     35.328157     11.087334
  C       6.436873     34.919288     11.046463
  C       7.006368     33.728111     10.600620
  N       6.330963     32.668716     10.167950
  N       8.364584     33.710588     10.640439
  C       9.124726     34.772401     11.032631
  N       8.645393     35.897980     11.447087
  C       7.302100     35.950057     11.423675
  H       0.921561     39.650328     10.773100
  H       5.462174     39.863465      9.839978
  H       5.408082     41.584027     10.202469
  H       5.642672     41.101952     12.632205
  H       7.682620     41.154628     10.757916
  H       8.997639     40.678930     12.745164
  H       7.716319     38.821997     10.321586
  H       9.708199     38.504221     10.994751
  H       7.394084     38.084357     13.222332
  H       4.359459     37.255665     11.529463
  H       5.348087     32.804127      9.978579
  H       6.796542     31.978415      9.597070
  H      10.193933     34.622366     10.958519
  H       8.841209     32.937999     10.186393
163
Coordinates from ORCA-job /data/Seafile/amp/al_surf/protonated_al_surf/frames/frame12/dry/amp_al_frame12_dry E -13417.888842536426
  Si      3.475783     33.826865      7.690334
  Si      3.488896     30.741472      7.833515
  O       2.099973     34.396894      8.325679
  O       2.145366     30.066012      8.464104
  O       3.615735     32.297184      8.297025
  O       3.439808     33.727964      6.048341
  O       3.461661     30.691410      6.192484
  Si      6.149448     26.123279      7.875836
  Si      8.788839     24.531499      7.893663
  O       4.734910     25.557261      8.446232
  O       7.433720     25.276827      8.415478
  O       8.730639     23.008716      8.469446
  O       6.197810     26.117562      6.230592
  O       8.755626     24.585810      6.249549
  Si      6.136626     29.181182      7.770373
  Si      6.179867     35.360193      7.425007
  Si      8.946389     33.779729      7.471212
  Si      8.902695     30.697719      7.663585
  O       4.843511     29.975074      8.361172
  O       4.827360     34.657934      8.056778
  O       7.459898     34.398310      7.756346
  O       7.482826     30.027704      8.132523
  O       6.258595     27.674815      8.370535
  O       8.871618     32.245457      8.171579
  O       5.896108     29.084941      6.149874
  O       5.948592     35.475286      5.806169
  O       9.193167     33.564554      5.870478
  O       9.031537     30.653167      6.036013
  Si      6.546650     38.399276      7.435168
  Si      9.108131     40.073431      7.794056
  O       5.210562     39.171303      7.595088
  O       7.828745     39.156474      8.189006
  O       6.487414     36.830538      8.008756
  O       8.998271     41.568853      8.457505
  O       7.146895     38.287036      5.884193
  O       9.237871     40.128732      6.154744
  Si     11.471151     26.028107      7.793239
  Si     14.140813     24.528364      7.863413
  O      10.119031     25.338517      8.395917
  O      12.825877     25.345029      8.379771
  O      13.926227     23.000177      8.387241
  O      11.400570     25.737316      6.175381
  O      14.168092     24.613626      6.219795
  Si     11.552993     29.202862      7.766583
  Al     11.707431     35.353215      7.714211
  Si     14.308219     33.713752      7.886207
  Si     14.218381     30.680919      7.832695
  O      10.168931     29.893165      8.310986
  O      10.123758     34.628229      8.124292
  O      13.071490     34.522325      8.485721
  O      12.890757     29.881516      8.398567
  O      11.477379     27.615093      8.117239
  O      14.406017     32.157206      8.467903
  O      11.580647     29.432144      6.141892
  O      11.989202     35.016233      6.003123
  O      14.133125     33.529038      6.257891
  O      13.987680     30.828866      6.214249
  Si     11.792492     38.618313      7.805925
  Si     14.484277     40.071914      7.874274
  O      10.465755     39.389901      8.395333
  O      13.140521     39.346515      8.427552
  O      11.744553     37.059980      8.108689
  O      14.663836     41.619039      8.381931
  O      11.881579     38.978111      6.190843
  O      14.489858     39.958047      6.231877
  Si     16.863851     25.971116      7.891299
  O      15.507446     25.223840      8.415332
  O      18.098833     25.054472      8.432402
  O      16.780529     26.003317      6.247952
  Si     16.933984     29.040884      7.819369
  Si     17.068741     35.292159      7.830512
  Si     19.702866     33.715915      7.861560
  Si     19.553315     30.632172      7.862330
  O      15.517762     29.747054      8.151920
  O      15.757964     34.430268      8.206033
  O      18.406367     34.535197      8.413015
  O      18.169808     29.934957      8.390494
  O      16.928505     27.515480      8.417729
  O      19.703877     32.165257      8.399652
  O      17.149299     28.843602      6.199099
  O      17.322674     35.358346      6.203730
  O      19.581369     33.628553      6.221925
  O      19.480305     30.689890      6.219041
  Si     17.045433     38.367093      7.832400
  O      15.829404     39.291835      8.398564
  O      18.520583     38.910975      8.285447
  O      16.974726     36.827320      8.381373
  O      16.899031     38.303671      6.194340
  O      20.735811     29.634912      8.380974
  O      21.131774     34.344151      8.344642
  H       4.074657     24.986772      8.036591
  H       1.410409     29.602015      8.036749
  H       1.410409     35.007985      8.036749
  H       4.074658     39.623228      8.036591
  H       8.948181     22.173255      8.038302
  H       8.948181     42.436745      8.038302
  H      14.277762     22.173204      8.038282
  H      14.277762     42.436796      8.038282
  H      18.960557     24.876228      8.036406
  H      18.960557     39.733772      8.036406
  H      21.624717     29.491420      8.036583
  H      21.624717     35.118580      8.036583
  H      13.338118     34.064233      5.960962
  H      11.220695     34.721894      5.509328
  H       9.031808     32.669217      5.548951
  H       9.868534     30.251325      5.743746
  H      12.384210     29.914768      5.862808
  H      14.035084     31.782198      5.960042
  H      13.624123     39.650661      5.900591
  H      11.052171     39.338580      5.841342
  H       8.563385     39.557290      5.740749
  H       6.753928     37.586956      5.354290
  H       5.192666     34.970417      5.484492
  H       3.347949     32.828726      5.710372
  H       4.193062     30.181150      5.814244
  H       6.065683     28.209634      5.776465
  H       6.962483     25.636932      5.880085
  H       9.589368     24.906854      5.870257
  H      12.246021     25.472798      5.787783
  H      14.965571     25.049470      5.881886
  H      16.934641     26.891821      5.885929
  H      17.795225     29.451878      5.813440
  H      19.493496     31.600295      5.882364
  H      18.873457     34.199949      5.877025
  H      17.106302     36.215148      5.810174
  H      16.121613     38.791958      5.876873
  P       2.852893     39.628165      9.945410
  O       2.884044     38.206348     10.337977
  O       3.141455     40.015955      8.494580
  O       1.430685     40.290063     10.261264
  O       3.790023     40.536537     10.883464
  C       5.175709     40.593629     10.603450
  C       5.973759     40.392659     11.869666
  O       5.779877     39.076994     12.420511
  C       7.460790     40.523103     11.624947
  O       8.092647     41.011559     12.784080
  C       7.887618     39.077793     11.365774
  O       9.232141     38.902529     11.726383
  C       6.914656     38.297931     12.257971
  N       6.496543     37.003442     11.699046
  C       5.202818     36.578761     11.465418
  N       5.138556     35.328085     11.086453
  C       6.436168     34.919158     11.045639
  C       7.005802     33.727998     10.599805
  N       6.330610     32.668472     10.167060
  N       8.364048     33.710525     10.639668
  C       9.124176     34.772281     11.031952
  N       8.644778     35.897870     11.446454
  C       7.301472     35.949892     11.422900
  H       0.920209     39.653920     10.769338
  H       5.462897     39.864896      9.839152
  H       5.410274     41.585602     10.202127
  H       5.643912     41.102148     12.631343
  H       7.683433     41.153926     10.757027
  H       8.998838     40.678449     12.743830
  H       7.716111     38.821740     10.320549
  H       9.707145     38.500321     10.994377
  H       7.393620     38.084463     13.221334
  H       4.358829     37.255679     11.528778
  H       5.347678     32.803542      9.977506
  H       6.796164     31.977905      9.596608
  H      10.193411     34.622398     10.957766
  H       8.840681     32.938036     10.185034
163
Coordinates from ORCA-job /data/Seafile/amp/al_surf/protonated_al_surf/frames/frame12/dry/amp_al_frame12_dry E -13417.888849394785
  Si      3.476430     33.828237      7.690639
  Si      3.488677     30.742455      7.833239
  O       2.101201     34.398949      8.326464
  O       2.144433     30.067957      8.463625
  O       3.616031     32.298127      8.297120
  O       3.439357     33.729727      6.048738
  O       3.461896     30.692244      6.192300
  Si      6.149195     26.123827      7.874762
  Si      8.788568     24.531744      7.892981
  O       4.734458     25.558372      8.445408
  O       7.433382     25.277244      8.414447
  O       8.730889     23.008919      8.469222
  O       6.197715     26.118138      6.229476
  O       8.755486     24.585700      6.248891
  Si      6.136568     29.181898      7.770180
  Si      6.181122     35.360794      7.424996
  Si      8.947690     33.780224      7.471297
  Si      8.902662     30.698185      7.663881
  O       4.843217     29.975663      8.360809
  O       4.828649     34.658587      8.056784
  O       7.460741     34.398124      7.755388
  O       7.482471     30.028785      8.132770
  O       6.258563     27.675274      8.369791
  O       8.872627     32.245964      8.171617
  O       5.895905     29.085889      6.149727
  O       5.949823     35.476442      5.806170
  O       9.196169     33.565084      5.870712
  O       9.030664     30.652906      6.036273
  Si      6.548333     38.399431      7.435603
  Si      9.110052     40.073569      7.794440
  O       5.211976     39.170720      7.595993
  O       7.830258     39.157163      8.189552
  O       6.489924     36.830427      8.009380
  O       9.001401     41.569206      8.457605
  O       7.148192     38.287563      5.884658
  O       9.239498     40.128528      6.155063
  Si     11.470834     26.028283      7.792902
  Si     14.140698     24.528330      7.863187
  O      10.118569     25.338950      8.395521
  O      12.825560     25.345024      8.379245
  O      13.926476     23.000156      8.387529
  O      11.400203     25.737283      6.175007
  O      14.168305     24.612997      6.219492
  Si     11.552818     29.203122      7.766704
  Al     11.708436     35.353032      7.715092
  Si     14.308516     33.713348      7.886999
  Si     14.218558     30.680628      7.833097
  O      10.168744     29.893274      8.311241
  O      10.124081     34.629183      8.125043
  O      13.071583     34.521443      8.486743
  O      12.890585     29.881643      8.398842
  O      11.477046     27.615196      8.116986
  O      14.406493     32.156762      8.468593
  O      11.580599     29.432825      6.142059
  O      11.990134     35.016327      6.004027
  O      14.133662     33.528689      6.258607
  O      13.987807     30.828905      6.214693
  Si     11.793773     38.617879      7.806949
  Si     14.485071     40.072010      7.874479
  O      10.467086     39.389492      8.395866
  O      13.141653     39.346639      8.428048
  O      11.745980     37.059574      8.110183
  O      14.664139     41.619174      8.381853
  O      11.882903     38.976794      6.191609
  O      14.490710     39.958233      6.231966
  Si     16.863713     25.971116      7.890740
  O      15.507041     25.224447      8.415068
  O      18.098148     25.053395      8.431322
  O      16.779883     26.003735      6.247364
  Si     16.934163     29.040808      7.819353
  Si     17.068746     35.292143      7.831110
  Si     19.702776     33.716041      7.861914
  Si     19.553490     30.632309      7.862618
  O      15.517803     29.746467      8.152371
  O      15.757792     34.430697      8.206807
  O      18.406293     34.535097      8.413499
  O      18.169832     29.935058      8.390374
  O      16.929160     27.515284      8.417508
  O      19.703373     32.165425      8.399904
  O      17.149408     28.843896      6.199080
  O      17.322629     35.358471      6.204365
  O      19.581436     33.628777      6.222179
  O      19.481313     30.689809      6.219215
  Si     17.045969     38.366843      7.832756
  O      15.830125     39.291883      8.398845
  O      18.521280     38.910636      8.285442
  O      16.975070     36.827247      8.381993
  O      16.899189     38.302822      6.194561
  O      20.736158     29.635291      8.381708
  O      21.131588     34.344438      8.345090
  H       4.074657     24.986772      8.036591
  H       1.410409     29.602015      8.036749
  H       1.410409     35.007985      8.036749
  H       4.074657     39.623228      8.036591
  H       8.948181     22.173255      8.038302
  H       8.948181     42.436745      8.038302
  H      14.277762     22.173204      8.038282
  H      14.277762     42.436796      8.038282
  H      18.960557     24.876228      8.036406
  H      18.960557     39.733772      8.036406
  H      21.624717     29.491420      8.036583
  H      21.624717     35.118580      8.036583
  H      13.339044     34.064667      5.961800
  H      11.221698     34.720880      5.510671
  H       9.030487     32.671109      5.547946
  H       9.868033     30.252049      5.743798
  H      12.384285     29.915359      5.863157
  H      14.035027     31.782308      5.960700
  H      13.624983     39.650425      5.900950
  H      11.053522     39.337488      5.842245
  H       8.564825     39.557138      5.741371
  H       6.756145     37.586570      5.355286
  H       5.192574     34.973358      5.484870
  H       3.348280     32.830291      5.710971
  H       4.193620     30.182226      5.814384
  H       6.065792     28.210782      5.776038
  H       6.962522     25.637519      5.879273
  H       9.589297     24.906579      5.869601
  H      12.245810     25.473006      5.787627
  H      14.965588     25.049416      5.881824
  H      16.934074     26.892293      5.885529
  H      17.795700     29.452100      5.813895
  H      19.494018     31.600279      5.882676
  H      18.873500     34.200264      5.877451
  H      17.105938     36.215498      5.811294
  H      16.121969     38.791549      5.877266
  P       2.854177     39.631669      9.945674
  O       2.883551     38.210435     10.340487
  O       3.142003     40.016351      8.493598
  O       1.433489     40.296039     10.262231
  O       3.792956     40.541312     10.880825
  C       5.178786     40.596042     10.600712
  C       5.975982     40.394649     11.867429
  O       5.780673     39.079371     12.418453
  C       7.463417     40.523859     11.623743
  O       8.094940     41.011736     12.783321
  C       7.889096     39.078153     11.364964
  O       9.233295     38.902266     11.726269
  C       6.914934     38.299330     12.256874
  N       6.496232     37.004914     11.698250
  C       5.202404     36.580341     11.465360
  N       5.137839     35.329677     11.086651
  C       6.435318     34.920607     11.045136
  C       7.004759     33.729284     10.599737
  N       6.329616     32.669488     10.167492
  N       8.363025     33.711577     10.639538
  C       9.123331     34.773329     11.030999
  N       8.644150     35.899241     11.444947
  C       7.300924     35.951330     11.421815
  H       0.919975     39.659207     10.766526
  H       5.465062     39.866453      9.836700
  H       5.414744     41.587336     10.199009
  H       5.645876     41.104488     12.628816
  H       7.687179     41.153820     10.755258
  H       9.001371     40.679573     12.742644
  H       7.718056     38.821969     10.319614
  H       9.707139     38.494978     10.996141
  H       7.393122     38.086054     13.220675
  H       4.358604     37.257435     11.529409
  H       5.346525     32.803999      9.977828
  H       6.794892     31.977875      9.597830
  H      10.192522     34.623500     10.956655
  H       8.839410     32.939004     10.185278
163
Coordinates from ORCA-job /data/Seafile/amp/al_surf/protonated_al_surf/frames/frame12/dry/amp_al_frame12_dry E -13417.888852487029
  Si      3.477034     33.829205      7.690874
  Si      3.488573     30.743102      7.833027
  O       2.102317     34.400179      8.327304
  O       2.143722     30.069492      8.463233
  O       3.616594     32.298749      8.297060
  O       3.439100     33.731279      6.048981
  O       3.462159     30.692833      6.192185
  Si      6.149053     26.124150      7.874380
  Si      8.788456     24.531888      7.892664
  O       4.734286     25.558714      8.445212
  O       7.433312     25.277542      8.413981
  O       8.731034     23.009035      8.469203
  O       6.197833     26.118837      6.229057
  O       8.755414     24.585462      6.248570
  Si      6.136465     29.182253      7.770334
  Si      6.181979     35.361450      7.424595
  Si      8.948545     33.780386      7.470513
  Si      8.902513     30.698288      7.663735
  O       4.842898     29.975894      8.360758
  O       4.829715     34.659151      8.056580
  O       7.461384     34.398033      7.753780
  O       7.482216     30.029380      8.133043
  O       6.258558     27.675517      8.369621
  O       8.873114     32.246244      8.171032
  O       5.895735     29.086184      6.149903
  O       5.950272     35.477747      5.805857
  O       9.198203     33.565163      5.870075
  O       9.029918     30.652253      6.036119
  Si      6.549861     38.399718      7.435571
  Si      9.111932     40.074028      7.794589
  O       5.213235     39.170500      7.596287
  O       7.831535     39.158299      8.189393
  O       6.492309     36.830540      8.009508
  O       9.004999     41.569710      8.458031
  O       7.149581     38.287753      5.884584
  O       9.241306     40.129512      6.155110
  Si     11.470630     26.028457      7.792536
  Si     14.140549     24.528313      7.862818
  O      10.118380     25.339214      8.395327
  O      12.825424     25.345146      8.378824
  O      13.926413     23.000140      8.387511
  O      11.399956     25.737172      6.174646
  O      14.168276     24.612755      6.219072
  Si     11.552594     29.203406      7.766460
  Al     11.709260     35.352704      7.714806
  Si     14.308900     33.712946      7.886635
  Si     14.218737     30.680279      7.832789
  O      10.168490     29.893260      8.311232
  O      10.124472     34.629568      8.124696
  O      13.071803     34.520685      8.486627
  O      12.890499     29.881786      8.398634
  O      11.476835     27.615377      8.116570
  O      14.407105     32.156398      8.468342
  O      11.580351     29.433521      6.141862
  O      11.990858     35.016159      6.003745
  O      14.134033     33.528179      6.258217
  O      13.987937     30.828641      6.214381
  Si     11.795002     38.617379      7.807232
  Si     14.485817     40.072133      7.874481
  O      10.468290     39.388877      8.395967
  O      13.142728     39.346379      8.428292
  O      11.747293     37.059076      8.110354
  O      14.664309     41.619295      8.381956
  O      11.884268     38.976209      6.191829
  O      14.491489     39.958338      6.231916
  Si     16.863625     25.970940      7.890142
  O      15.506742     25.224795      8.414717
  O      18.097487     25.052200      8.430355
  O      16.779414     26.003836      6.246792
  Si     16.934355     29.040580      7.818914
  Si     17.068943     35.292150      7.830838
  Si     19.702867     33.716070      7.861795
  Si     19.553573     30.632323      7.862400
  O      15.517802     29.745835      8.152142
  O      15.757831     34.430922      8.206414
  O      18.406348     34.535006      8.413390
  O      18.169807     29.935119      8.389913
  O      16.929855     27.515018      8.417069
  O      19.703157     32.165444      8.399648
  O      17.149614     28.843838      6.198666
  O      17.323029     35.358661      6.204156
  O      19.581764     33.628842      6.221997
  O      19.481824     30.689602      6.218929
  Si     17.046518     38.366679      7.832548
  O      15.831028     39.292155      8.398737
  O      18.522074     38.910116      8.284983
  O      16.975335     36.827172      8.381882
  O      16.899352     38.302326      6.194325
  O      20.736297     29.635421      8.381923
  O      21.131565     34.344521      8.345274
  H       4.074657     24.986772      8.036591
  H       1.410409     29.602015      8.036749
  H       1.410409     35.007985      8.036749
  H       4.074657     39.623228      8.036591
  H       8.948181     22.173255      8.038302
  H       8.948181     42.436745      8.038302
  H      14.277762     22.173204      8.038282
  H      14.277762     42.436796      8.038282
  H      18.960557     24.876228      8.036406
  H      18.960557     39.733772      8.036406
  H      21.624717     29.491420      8.036583
  H      21.624717     35.118580      8.036583
  H      13.339346     34.064158      5.961556
  H      11.222532     34.720043      5.510639
  H       9.029859     32.672116      5.546441
  H       9.867664     30.252155      5.743680
  H      12.384295     29.915760      5.863124
  H      14.035117     31.782104      5.960491
  H      13.625656     39.650199      5.901327
  H      11.055208     39.337873      5.842735
  H       8.566643     39.558081      5.741350
  H       6.757850     37.586356      5.355533
  H       5.192348     34.975595      5.484667
  H       3.348425     32.831880      5.711085
  H       4.194003     30.182767      5.814493
  H       6.066180     28.211234      5.776067
  H       6.962512     25.637846      5.879099
  H       9.589167     24.906500      5.869311
  H      12.245612     25.472889      5.787421
  H      14.965486     25.049546      5.881693
  H      16.933542     26.892455      5.885104
  H      17.796216     29.451936      5.813817
  H      19.494343     31.600137      5.882540
  H      18.873825     34.200369      5.877348
  H      17.106347     36.215885      5.811485
  H      16.122165     38.791313      5.877310
  P       2.856230     39.635586      9.946214
  O       2.884881     38.215055     10.343290
  O       3.143163     40.017243      8.493135
  O       1.436150     40.301387     10.262775
  O       3.795919     40.546976     10.878595
  C       5.181840     40.600181     10.598569
  C       5.978333     40.397716     11.865597
  O       5.781462     39.082456     12.416396
  C       7.466067     40.525928     11.623204
  O       8.096620     41.013915     12.783064
  C       7.891227     39.079833     11.365403
  O       9.234992     38.903756     11.728018
  C       6.915554     38.301833     12.256392
  N       6.496896     37.007396     11.697508
  C       5.202961     36.582319     11.465766
  N       5.138450     35.331655     11.087000
  C       6.436117     34.922953     11.044425
  C       7.005687     33.731609     10.599212
  N       6.331022     32.670997     10.168249
  N       8.364073     33.714264     10.638346
  C       9.124335     34.776472     11.028611
  N       8.645040     35.902604     11.442243
  C       7.301743     35.954152     11.420231
  H       0.920907     39.664503     10.765081
  H       5.467132     39.870480      9.834222
  H       5.418962     41.591516     10.197315
  H       5.648403     41.107767     12.626852
  H       7.690954     41.155046     10.754536
  H       9.003376     40.682254     12.742707
  H       7.721174     38.823320     10.320094
  H       9.708122     38.492265     11.000038
  H       7.392312     38.088643     13.221002
  H       4.359049     37.259219     11.530622
  H       5.347798     32.804265      9.979448
  H       6.796625     31.979103      9.599404
  H      10.193560     34.626965     10.953682
  H       8.840506     32.941499     10.184160
163
Coordinates from ORCA-job /data/Seafile/amp/al_surf/protonated_al_surf/frames/frame12/dry/amp_al_frame12_dry E -13417.888860892850
  Si      3.477751     33.830979      7.692061
  Si      3.488207     30.744505      7.833591
  O       2.104045     34.403157      8.328880
  O       2.142327     30.072116      8.462899
  O       3.616973     32.300105      8.297826
  O       3.439023     33.733805      6.050064
  O       3.462753     30.694392      6.192852
  Si      6.148861     26.124789      7.874787
  Si      8.788183     24.531917      7.892744
  O       4.733958     25.559050      8.445308
  O       7.433216     25.277892      8.414065
  O       8.730754     23.008991      8.469286
  O       6.198297     26.120556      6.229446
  O       8.755209     24.585233      6.248626
  Si      6.135905     29.182905      7.771840
  Si      6.183140     35.362409      7.425332
  Si      8.949497     33.780486      7.470901
  Si      8.901911     30.698260      7.664582
  O       4.841953     29.976391      8.361874
  O       4.831068     34.660083      8.057290
  O       7.462288     34.398179      7.753169
  O       7.481472     30.030198      8.134790
  O       6.258255     27.675979      8.370554
  O       8.873309     32.246440      8.171441
  O       5.895393     29.086832      6.151372
  O       5.951172     35.479615      5.806663
  O       9.200649     33.565382      5.870654
  O       9.028425     30.651327      6.036957
  Si      6.551637     38.400107      7.436862
  Si      9.114217     40.074488      7.795467
  O       5.214802     39.170335      7.598017
  O       7.832850     39.160028      8.190386
  O       6.495059     36.830884      8.010980
  O       9.010130     41.570450      8.458915
  O       7.151161     38.287922      5.885920
  O       9.243303     40.130158      6.155730
  Si     11.470217     26.028637      7.792549
  Si     14.140125     24.528284      7.862429
  O      10.118135     25.339172      8.395590
  O      12.825213     25.345342      8.378665
  O      13.925778     23.000033      8.387167
  O      11.399509     25.737315      6.174645
  O      14.167818     24.612791      6.218650
  Si     11.551994     29.203732      7.766942
  Al     11.710378     35.352047      7.715583
  Si     14.309484     33.712155      7.886975
  Si     14.218839     30.679558      7.833239
  O      10.167836     29.893071      8.312120
  O      10.125106     34.629701      8.125712
  O      13.072295     34.519508      8.487443
  O      12.890222     29.881757      8.399178
  O      11.476275     27.615550      8.116743
  O      14.407963     32.155675      8.468832
  O      11.579604     29.434559      6.142436
  O      11.991587     35.015681      6.004472
  O      14.134226     33.527205      6.258571
  O      13.988159     30.827963      6.214785
  Si     11.796582     38.616378      7.808171
  Si     14.486765     40.072194      7.874704
  O      10.469804     39.387955      8.396580
  O      13.144171     39.345744      8.429106
  O      11.749008     37.058266      8.111643
  O      14.664658     41.619475      8.382106
  O      11.885828     38.974725      6.192612
  O      14.492091     39.957808      6.232135
  Si     16.863362     25.970492      7.889617
  O      15.506270     25.224898      8.414448
  O      18.096509     25.050290      8.429015
  O      16.778555     26.004001      6.246358
  Si     16.934447     29.040100      7.818911
  Si     17.069269     35.291983      7.830858
  Si     19.703112     33.715952      7.861800
  Si     19.553486     30.632141      7.862250
  O      15.517635     29.744720      8.152644
  O      15.758057     34.430910      8.206426
  O      18.406592     34.534752      8.413576
  O      18.169673     29.935092      8.389779
  O      16.930786     27.514410      8.416911
  O      19.703144     32.165240      8.399398
  O      17.149386     28.843806      6.198634
  O      17.323362     35.358575      6.204222
  O      19.582128     33.628807      6.221951
  O      19.481786     30.689091      6.218723
  Si     17.047234     38.366315      7.832299
  O      15.832446     39.292659      8.398655
  O      18.523307     38.909199      8.284010
  O      16.975668     36.826986      8.382028
  O      16.899385     38.301419      6.194149
  O      20.736292     29.635180      8.381965
  O      21.131762     34.344458      8.345514
  H       4.074657     24.986772      8.036591
  H       1.410409     29.602015      8.036749
  H       1.410409     35.007985      8.036749
  H       4.074657     39.623228      8.036591
  H       8.948181     22.173255      8.038302
  H       8.948181     42.436745      8.038302
  H      14.277762     22.173204      8.038282
  H      14.277762     42.436796      8.038282
  H      18.960557     24.876228      8.036406
  H      18.960557     39.733772      8.036406
  H      21.624717     29.491420      8.036583
  H      21.624717     35.118580      8.036583
  H      13.339178     34.062767      5.962215
  H      11.223255     34.719163      5.511630
  H       9.028717     32.673620      5.545547
  H       9.866594     30.252182      5.744448
  H      12.383945     29.916303      5.863898
  H      14.035790     31.781502      5.960964
  H      13.626082     39.648898      5.902543
  H      11.057029     39.337443      5.843885
  H       8.568740     39.558624      5.742068
  H       6.760396     37.585572      5.357347
  H       5.192714     34.978424      5.485220
  H       3.348519     32.834539      5.711788
  H       4.194531     30.183890      5.815546
  H       6.066636     28.212141      5.777290
  H       6.962578     25.638722      5.879735
  H       9.588928     24.906574      5.869494
  H      12.245138     25.472851      5.787462
  H      14.965029     25.049951      5.881674
  H      16.932754     26.892726      5.884932
  H      17.796339     29.451774      5.814071
  H      19.494264     31.599692      5.882492
  H      18.874227     34.200475      5.877427
  H      17.106862     36.216043      5.811965
  H      16.122034     38.790454      5.877541
  P       2.857311     39.640223      9.946068
  O       2.884891     38.220504     10.346001
  O       3.143693     40.018145      8.491806
  O       1.438188     40.307560     10.262444
  O       3.798158     40.553813     10.875254
  C       5.184321     40.605079     10.595544
  C       5.979454     40.401694     11.863244
  O       5.780589     39.086723     12.413871
  C       7.467772     40.528551     11.623330
  O       8.096351     41.016319     12.784353
  C       7.892298     39.082086     11.366926
  O       9.235488     38.905842     11.731624
  C       6.914379     38.305320     12.256426
  N       6.495960     37.010837     11.697224
  C       5.201995     36.584934     11.467266
  N       5.137672     35.334207     11.088861
  C       6.435547     34.926159     11.044572
  C       7.005227     33.734757     10.599653
  N       6.331197     32.673083     10.170313
  N       8.363700     33.717915     10.637844
  C       9.123834     34.780855     11.026493
  N       8.644391     35.907295     11.439677
  C       7.301035     35.958079     11.419215
  H       0.920460     39.670036     10.761352
  H       5.468791     39.875142      9.830888
  H       5.422545     41.596257     10.194679
  H       5.649472     41.112180     12.624230
  H       7.695039     41.157159     10.754846
  H       9.003631     40.685868     12.744525
  H       7.723804     38.825184     10.321540
  H       9.707819     38.487380     11.007023
  H       7.388793     38.092181     13.222047
  H       4.357860     37.261404     11.533101
  H       5.347775     32.804459      9.982814
  H       6.797329     31.980297      9.603285
  H      10.193035     34.631684     10.950656
  H       8.840287     32.944806     10.183610
163
Coordinates from ORCA-job /data/Seafile/amp/al_surf/protonated_al_surf/frames/frame12/dry/amp_al_frame12_dry E -13417.888858440960
  Si      3.478847     33.833143      7.693533
  Si      3.487792     30.746314      7.834060
  O       2.106993     34.407245      8.331944
  O       2.140241     30.076203      8.462062
  O       3.617851     32.301804      8.298511
  O       3.438329     33.737138      6.051348
  O       3.463605     30.696447      6.193396
  Si      6.148547     26.125658      7.875702
  Si      8.787595     24.531850      7.893206
  O       4.733266     25.559785      8.445458
  O       7.432864     25.278195      8.414597
  O       8.729688     23.008806      8.469392
  O       6.198951     26.122810      6.230379
  O       8.754733     24.585107      6.249057
  Si      6.135054     29.183708      7.773857
  Si      6.184944     35.363508      7.425908
  Si      8.950973     33.780118      7.471140
  Si      8.901090     30.697788      7.665615
  O       4.840492     29.976791      8.363309
  O       4.833100     34.661116      8.057840
  O       7.463680     34.398043      7.751753
  O       7.480373     30.031161      8.137322
  O       6.257815     27.676642      8.372019
  O       8.873599     32.246341      8.171797
  O       5.895048     29.087766      6.153272
  O       5.952354     35.482123      5.807364
  O       9.204447     33.565155      5.871256
  O       9.026296     30.649507      6.038007
  Si      6.554219     38.400719      7.438316
  Si      9.117723     40.074997      7.796293
  O       5.217255     39.170228      7.600945
  O       7.834860     39.162465      8.191045
  O       6.498928     36.831332      8.012412
  O       9.018824     41.571400      8.459888
  O       7.153263     38.288291      5.887138
  O       9.246334     40.131129      6.156212
  Si     11.469544     26.028576      7.792803
  Si     14.139355     24.528149      7.862045
  O      10.117716     25.338792      8.396272
  O      12.824784     25.345380      8.378750
  O      13.924694     22.999819      8.386650
  O      11.398770     25.737305      6.174895
  O      14.166726     24.612837      6.218269
  Si     11.551238     29.203780      7.767436
  Al     11.712095     35.350809      7.716137
  Si     14.310508     33.710656      7.886895
  Si     14.219059     30.678137      7.833362
  O      10.167027     29.892491      8.313157
  O      10.126351     34.629319      8.126747
  O      13.073205     34.517492      8.488029
  O      12.889991     29.881303      8.399573
  O      11.475541     27.615521      8.117087
  O      14.409401     32.154282      8.468860
  O      11.578517     29.435258      6.143044
  O      11.992593     35.014741      6.004893
  O      14.134735     33.525673      6.258530
  O      13.988504     30.826448      6.214856
  Si     11.799037     38.614573      7.808886
  Si     14.488189     40.072210      7.874705
  O      10.472223     39.386379      8.396845
  O      13.146385     39.344408      8.429864
  O      11.751528     37.056802      8.113173
  O      14.665215     41.619633      8.382123
  O      11.888289     38.972086      6.193057
  O      14.492920     39.957007      6.232198
  Si     16.862836     25.969541      7.888734
  O      15.505487     25.224875      8.414137
  O      18.094817     25.047016      8.426715
  O      16.777018     26.003846      6.245640
  Si     16.934707     29.039127      7.818518
  Si     17.069860     35.291559      7.830467
  Si     19.703650     33.715594      7.861531
  Si     19.553449     30.631658      7.861798
  O      15.517409     29.742707      8.152851
  O      15.758574     34.430497      8.205939
  O      18.407078     34.534239      8.413493
  O      18.169541     29.934857      8.389305
  O      16.932353     27.513298      8.416382
  O      19.703437     32.164720      8.398815
  O      17.149182     28.843454      6.198140
  O      17.323936     35.358228      6.203853
  O      19.582883     33.628546      6.221665
  O      19.481763     30.688175      6.218230
  Si     17.048239     38.365714      7.831605
  O      15.834642     39.293467      8.398218
  O      18.525016     38.907714      8.282301
  O      16.976098     36.826575      8.381871
  O      16.899551     38.300296      6.193667
  O      20.736189     29.634628      8.381850
  O      21.132182     34.344187      8.345627
  H       4.074657     24.986772      8.036591
  H       1.410409     29.602015      8.036749
  H       1.410409     35.007985      8.036749
  H       4.074657     39.623228      8.036591
  H       8.948181     22.173255      8.038302
  H       8.948181     42.436745      8.038302
  H      14.277762     22.173204      8.038282
  H      14.277762     42.436796      8.038282
  H      18.960557     24.876228      8.036406
  H      18.960557     39.733772      8.036406
  H      21.624717     29.491420      8.036583
  H      21.624717     35.118580      8.036583
  H      13.339642     34.061358      5.962326
  H      11.224091     34.718001      5.512430
  H       9.027596     32.675253      5.543916
  H       9.865107     30.251790      5.745352
  H      12.383343     29.916241      5.864551
  H      14.035837     31.780043      5.961162
  H      13.626506     39.647443      5.903898
  H      11.060184     39.336842      5.844759
  H       8.571758     39.559462      5.742760
  H       6.764325     37.583921      5.359815
  H       5.193108     34.982377      5.485499
  H       3.348525     32.838150      5.712259
  H       4.195160     30.185224      5.816562
  H       6.067516     28.213503      5.778753
  H       6.962623     25.639800      5.880906
  H       9.588391     24.906964      5.870171
  H      12.244264     25.472420      5.787603
  H      14.963870     25.050436      5.881623
  H      16.931156     26.892674      5.884443
  H      17.796635     29.451088      5.813786
  H      19.494474     31.598817      5.882095
  H      18.874986     34.200243      5.877182
  H      17.107641     36.215984      5.811902
  H      16.121926     38.789298      5.877550
  P       2.859776     39.648659      9.946880
  O       2.886950     38.230603     10.352710
  O       3.144239     40.019119      8.490122
  O       1.441798     40.318552     10.262825
  O       3.801760     40.566636     10.870424
  C       5.188403     40.613525     10.591727
  C       5.981251     40.407258     11.860539
  O       5.778586     39.092163     12.409696
  C       7.470372     40.531565     11.624784
  O       8.095586     41.018631     12.788061
  C       7.893817     39.084730     11.370077
  O       9.235948     38.908110     11.737996
  C       6.912110     38.309495     12.256661
  N       6.494491     37.015120     11.696043
  C       5.200646     36.587792     11.467923
  N       5.136999     35.336895     11.089868
  C       6.435295     34.930101     11.043660
  C       7.005504     33.738707     10.599493
  N       6.332449     32.675635     10.172417
  N       8.364115     33.723028     10.636695
  C       9.123701     34.787337     11.022837
  N       8.643663     35.913954     11.435225
  C       7.300177     35.963266     11.416833
  H       0.920768     39.680405     10.757746
  H       5.471000     39.883360      9.826547
  H       5.429345     41.604440     10.191887
  H       5.651629     41.118062     12.621539
  H       7.701640     41.159996     10.757291
  H       9.003671     40.689840     12.749551
  H       7.727820     38.827976     10.324123
  H       9.706626     38.478431     11.019118
  H       7.382517     38.096033     13.224429
  H       4.356053     37.263560     11.534600
  H       5.348683     32.804544      9.986464
  H       6.799457     31.981933      9.607102
  H      10.192929     34.638932     10.946041
  H       8.841110     32.949507     10.183939
163
Coordinates from ORCA-job /data/Seafile/amp/al_surf/protonated_al_surf/frames/frame12/dry/amp_al_frame12_dry E -13417.888865934125
  Si      3.479758     33.835539      7.695611
  Si      3.487197     30.748487      7.835361
  O       2.110244     34.412960      8.335184
  O       2.137719     30.080791      8.461422
  O       3.618010     32.303902      8.299934
  O       3.437743     33.740279      6.053175
  O       3.464877     30.698836      6.194708
  Si      6.148448     26.126345      7.877899
  Si      8.787305     24.531456      7.894602
  O       4.733269     25.559012      8.446541
  O       7.432888     25.278372      8.416158
  O       8.728926     23.008313      8.470067
  O       6.199889     26.125427      6.232603
  O       8.754503     24.584935      6.250404
  Si      6.133691     29.184485      7.777474
  Si      6.187002     35.363986      7.427454
  Si      8.952533     33.778957      7.472901
  Si      8.899927     30.696589      7.668272
  O       4.838506     29.977328      8.366207
  O       4.835092     34.661935      8.059089
  O       7.465194     34.397212      7.751529
  O       7.478923     30.031588      8.142000
  O       6.256508     27.677155      8.374980
  O       8.873788     32.245525      8.173692
  O       5.894796     29.089068      6.156637
  O       5.953948     35.484205      5.809013
  O       9.208963     33.564165      5.873477
  O       9.023490     30.646608      6.040705
  Si      6.556530     38.400470      7.440710
  Si      9.120629     40.075190      7.797105
  O       5.218860     39.168079      7.604666
  O       7.835909     39.165305      8.192437
  O       6.503165     36.831139      8.015117
  O       9.027685     41.572406      8.460244
  O       7.155184     38.287555      5.889622
  O       9.248705     40.131016      6.156747
  Si     11.469066     26.028292      7.794087
  Si     14.138577     24.527920      7.862336
  O      10.117582     25.338014      8.397962
  O      12.824536     25.345278      8.379821
  O      13.923332     22.999428      8.386197
  O      11.398248     25.737460      6.176175
  O      14.165371     24.613196      6.218605
  Si     11.550418     29.203593      7.769299
  Al     11.713864     35.349106      7.717904
  Si     14.311738     33.708852      7.888006
  Si     14.219217     30.676486      7.834957
  O      10.165984     29.891256      8.315760
  O      10.127634     34.628317      8.129427
  O      13.074317     34.515189      8.489800
  O      12.889680     29.880635      8.401418
  O      11.474992     27.615236      8.118547
  O      14.411092     32.152691      8.470247
  O      11.577303     29.436028      6.145106
  O      11.993366     35.012964      6.006505
  O      14.135133     33.523671      6.259759
  O      13.988872     30.824629      6.216407
  Si     11.801152     38.612343      7.809850
  Si     14.489273     40.072180      7.874768
  O      10.474114     39.384362      8.396956
  O      13.148272     39.342886      8.430812
  O      11.753859     37.054958      8.115697
  O      14.665687     41.619813      8.382173
  O      11.890507     38.968503      6.193610
  O      14.493125     39.955853      6.232403
  Si     16.862205     25.968447      7.888574
  O      15.504892     25.224268      8.414562
  O      18.093274     25.043699      8.424605
  O      16.775025     26.003943      6.245677
  Si     16.934846     29.038024      7.819363
  Si     17.070570     35.291134      7.830878
  Si     19.704310     33.715181      7.861713
  Si     19.553257     30.631021      7.861967
  O      15.517078     29.740458      8.154493
  O      15.759302     34.429912      8.206284
  O      18.407760     34.533712      8.414131
  O      18.169415     29.934486      8.389940
  O      16.933870     27.511976      8.416887
  O      19.704185     32.164057      8.398651
  O      17.148415     28.843235      6.198790
  O      17.324365     35.357704      6.204242
  O      19.583424     33.628273      6.221900
  O      19.480775     30.687095      6.218389
  Si     17.049023     38.365116      7.831130
  O      15.836787     39.294547      8.397721
  O      18.526596     38.906407      8.280309
  O      16.976567     36.826257      8.382450
  O      16.899378     38.298790      6.193513
  O      20.736019     29.633737      8.381741
  O      21.132881     34.343835      8.345927
  H       4.074657     24.986772      8.036591
  H       1.410409     29.602015      8.036749
  H       1.410409     35.007985      8.036749
  H       4.074657     39.623228      8.036591
  H       8.948181     22.173255      8.038302
  H       8.948181     42.436745      8.038302
  H      14.277762     22.173204      8.038282
  H      14.277762     42.436796      8.038282
  H      18.960557     24.876228      8.036406
  H      18.960557     39.733772      8.036406
  H      21.624717     29.491420      8.036583
  H      21.624717     35.118580      8.036583
  H      13.339674     34.058922      5.963746
  H      11.224717     34.716000      5.514478
  H       9.026709     32.676577      5.543321
  H       9.862789     30.250298      5.747648
  H      12.382696     29.916064      5.866592
  H      14.036634     31.778254      5.962710
  H      13.626227     39.645710      5.905446
  H      11.062964     39.334789      5.845552
  H       8.573804     39.559451      5.743550
  H       6.768767     37.580862      5.363399
  H       5.194047     34.985926      5.486409
  H       3.348438     32.841569      5.713209
  H       4.196333     30.186858      5.818532
  H       6.068629     28.215317      5.781568
  H       6.962704     25.641099      5.883039
  H       9.588109     24.907352      5.871807
  H      12.243440     25.471823      5.788661
  H      14.962390     25.051225      5.882151
  H      16.929152     26.892878      5.884736
  H      17.796252     29.450488      5.814400
  H      19.493905     31.597672      5.882140
  H      18.875440     34.199894      5.877475
  H      17.108523     36.215666      5.812375
  H      16.121352     38.787396      5.877705
  P       2.859305     39.655413      9.945494
  O       2.884126     38.238556     10.355666
  O       3.144158     40.020438      8.487202
  O       1.442522     40.328230     10.260013
  O       3.802501     40.575734     10.865158
  C       5.189716     40.620462     10.588284
  C       5.979542     40.411258     11.858370
  O       5.772752     39.095990     12.405139
  C       7.469808     40.533167     11.628100
  O       8.090684     41.018969     12.794603
  C       7.892244     39.086141     11.374584
  O       9.233505     38.909372     11.746122
  C       6.906038     38.312253     12.257212
  N       6.489529     37.018254     11.694762
  C       5.195773     36.589361     11.469045
  N       5.132983     35.338356     11.091315
  C       6.431833     34.932952     11.043306
  C       7.002669     33.741408     10.600253
  N       6.330551     32.676922     10.175349
  N       8.361422     33.727005     10.636336
  C       9.120428     34.792915     11.019263
  N       8.639736     35.919698     11.430459
  C       7.295993     35.967393     11.414530
  H       0.915940     39.687982     10.745972
  H       5.471872     39.891331      9.821843
  H       5.432490     41.611833     10.190846
  H       5.649634     41.121990     12.619501
  H       7.706165     41.162350     10.762621
  H       8.999749     40.693132     12.757418
  H       7.728985     38.830088     10.328067
  H       9.701696     38.463700     11.035403
  H       7.371610     38.098253     13.226853
  H       4.350551     37.264423     11.536512
  H       5.346233     32.803137      9.990556
  H       6.798413     31.981422      9.613154
  H      10.189643     34.645295     10.940682
  H       8.838925     32.952782     10.184593
163
Coordinates from ORCA-job /data/Seafile/amp/al_surf/protonated_al_surf/frames/frame12/dry/amp_al_frame12_dry E -13417.888885593849
  Si      3.481043     33.838492      7.698181
  Si      3.486553     30.751211      7.836527
  O       2.114942     34.420929      8.340096
  O       2.134528     30.086823      8.460061
  O       3.618248     32.306505      8.301287
  O       3.436559     33.744183      6.055489
  O       3.466594     30.701894      6.195786
  Si      6.148331     26.126985      7.880587
  Si      8.786895     24.530820      7.896262
  O       4.733876     25.557101      8.448235
  O       7.433007     25.278711      8.418018
  O       8.727393     23.007594      8.470674
  O       6.200607     26.128169      6.235335
  O       8.754145     24.584734      6.252001
  Si      6.131865     29.185417      7.781625
  Si      6.190048     35.364396      7.429729
  Si      8.954774     33.777021      7.475788
  Si      8.898420     30.694831      7.671976
  O       4.835926     29.977904      8.369503
  O       4.837854     34.662726      8.060649
  O       7.467470     34.396084      7.751752
  O       7.477055     30.031773      8.148225
  O       6.254228     27.677704      8.378446
  O       8.873814     32.244148      8.176689
  O       5.894616     29.091147      6.160436
  O       5.956548     35.486910      5.811435
  O       9.215066     33.562526      5.877031
  O       9.019855     30.642964      6.044544
  Si      6.559810     38.400222      7.444254
  Si      9.124699     40.074998      7.798519
  O       5.221243     39.165349      7.610352
  O       7.837448     39.168938      8.194787
  O       6.508338     36.830806      8.018783
  O       9.040482     41.573626      8.460258
  O       7.158378     38.286800      5.893096
  O       9.251654     40.129748      6.157864
  Si     11.468506     26.027664      7.795700
  Si     14.137435     24.527556      7.862799
  O      10.117470     25.336672      8.399926
  O      12.824113     25.344973      8.381384
  O      13.921253     22.998896      8.385332
  O      11.397704     25.737622      6.177788
  O      14.163433     24.613632      6.219161
  Si     11.549447     29.202986      7.771643
  Al     11.716322     35.346662      7.720483
  Si     14.313539     33.706137      7.889367
  Si     14.219416     30.674022      7.836656
  O      10.164807     29.889501      8.319069
  O      10.129805     34.626141      8.133473
  O      13.076182     34.511963      8.492118
  O      12.889362     29.879384      8.403516
  O      11.474376     27.614567      8.120367
  O      14.413449     32.150197      8.471641
  O      11.575554     29.436577      6.147727
  O      11.994295     35.010592      6.008814
  O      14.135733     33.520989      6.261326
  O      13.989114     30.821958      6.218092
  Si     11.804101     38.609223      7.811343
  Si     14.490759     40.071972      7.874733
  O      10.476974     39.381620      8.397217
  O      13.151031     39.340672      8.432055
  O      11.756907     37.052277      8.119662
  O      14.666394     41.619929      8.381968
  O      11.893321     38.963283      6.194423
  O      14.493233     39.954177      6.232622
  Si     16.861239     25.966791      7.888130
  O      15.504130     25.223130      8.415042
  O      18.091089     25.039173      8.421515
  O      16.772166     26.003862      6.245462
  Si     16.935034     29.036341      7.820147
  Si     17.071634     35.290339      7.831328
  Si     19.705307     33.714459      7.861755
  Si     19.552939     30.629998      7.862060
  O      15.516575     29.737096      8.156136
  O      15.760593     34.428531      8.206513
  O      18.408867     34.532929      8.414808
  O      18.169190     29.933746      8.390633
  O      16.935821     27.510033      8.417201
  O      19.705510     32.162981      8.398274
  O      17.147543     28.842692      6.199263
  O      17.325124     35.356818      6.204631
  O      19.584127     33.627827      6.222079
  O      19.479282     30.685801      6.218500
  Si     17.049893     38.364138      7.830315
  O      15.839766     39.296035      8.396921
  O      18.528583     38.904377      8.277127
  O      16.977123     36.825613      8.383121
  O      16.898759     38.296655      6.193157
  O      20.735475     29.632169      8.381199
  O      21.133990     34.343090      8.346002
  H       4.074657     24.986772      8.036591
  H       1.410409     29.602015      8.036749
  H       1.410409     35.007985      8.036749
  H       4.074657     39.623228      8.036591
  H       8.948181     22.173255      8.038302
  H       8.948181     42.436745      8.038302
  H      14.277762     22.173204      8.038282
  H      14.277762     42.436796      8.038282
  H      18.960557     24.876228      8.036406
  H      18.960556     39.733772      8.036406
  H      21.624717     29.491420      8.036583
  H      21.624717     35.118580      8.036583
  H      13.340354     34.056507      5.965405
  H      11.225400     34.713390      5.517343
  H       9.025192     32.678081      5.542963
  H       9.859934     30.248836      5.750776
  H      12.381238     29.915916      5.868878
  H      14.036934     31.775601      5.964417
  H      13.626322     39.642383      5.907106
  H      11.066202     39.330910      5.846682
  H       8.576233     39.558210      5.745608
  H       6.775757     37.576202      5.369073
  H       5.195565     34.991005      5.487848
  H       3.348855     32.845857      5.714265
  H       4.198151     30.189352      5.820431
  H       6.069997     28.218009      5.784660
  H       6.962288     25.642411      5.885253
  H       9.587747     24.907696      5.873732
  H      12.242516     25.470980      5.789973
  H      14.960282     25.052020      5.882624
  H      16.926581     26.892839      5.884715
  H      17.795673     29.449572      5.814696
  H      19.493332     31.596236      5.881966
  H      18.876247     34.199603      5.877637
  H      17.109821     36.214887      5.812609
  H      16.120223     38.784692      5.877646
  P       2.858544     39.666740      9.944207
  O       2.880469     38.252206     10.362686
  O       3.143455     40.021376      8.483089
  O       1.443435     40.344858     10.255755
  O       3.802688     40.591644     10.857765
  C       5.190805     40.631880     10.584022
  C       5.976006     40.417011     11.856063
  O       5.762313     39.100930     12.398133
  C       7.467604     40.534957     11.633973
  O       8.081933     41.018834     12.805229
  C       7.888312     39.087743     11.381954
  O       9.227841     38.910567     11.759274
  C       6.895230     38.315443     12.258147
  N       6.480839     37.022108     11.692244
  C       5.187587     36.590656     11.468576
  N       5.126665     35.339285     11.091540
  C       6.426279     34.936318     11.042020
  C       6.998703     33.744741     10.601006
  N       6.328066     32.678588     10.178648
  N       8.357538     33.732816     10.636153
  C       9.115069     34.801312     11.014886
  N       8.632809     35.927943     11.424237
  C       7.288791     35.972806     11.410967
  H       0.908968     39.702393     10.729973
  H       5.471995     39.904068      9.816103
  H       5.437517     41.623635     10.190080
  H       5.645923     41.127154     12.617729
  H       7.711591     41.165092     10.771492
  H       8.992324     40.696623     12.771030
  H       7.729403     38.833376     10.334007
  H       9.692006     38.440003     11.061979
  H       7.353401     38.100448     13.231182
  H       4.341498     37.264653     11.536336
  H       5.343063     32.801619      9.994558
  H       6.796977     31.980593      9.619944
  H      10.184318     34.655447     10.934438
  H       8.836088     32.957901     10.187103
163
Coordinates from ORCA-job /data/Seafile/amp/al_surf/protonated_al_surf/frames/frame12/dry/amp_al_frame12_dry E -13417.888921616539
  Si      3.482560     33.841832      7.700398
  Si      3.485936     30.754261      7.837123
  O       2.121184     34.431598      8.345959
  O       2.131072     30.093677      8.457932
  O       3.618264     32.309530      8.301814
  O       3.434331     33.748144      6.057582
  O       3.468590     30.705089      6.196154
  Si      6.148274     26.127204      7.883671
  Si      8.786703     24.530091      7.898133
  O       4.736139     25.552228      8.451198
  O       7.433644     25.279528      8.420084
  O       8.725493     23.006748      8.471233
  O       6.200664     26.130500      6.238446
  O       8.753980     24.584580      6.253785
  Si      6.129602     29.186326      7.785850
  Si      6.194029     35.364584      7.431398
  Si      8.957573     33.773974      7.478531
  Si      8.896590     30.692382      7.676481
  O       4.832938     29.978579      8.372765
  O       4.841333     34.663449      8.061371
  O       7.470431     34.394484      7.751235
  O       7.475029     30.031184      8.155893
  O       6.250309     27.678062      8.382146
  O       8.873496     32.242188      8.180206
  O       5.894767     29.093915      6.164191
  O       5.959821     35.490315      5.813387
  O       9.222275     33.559372      5.880624
  O       9.015647     30.638004      6.049275
  Si      6.563774     38.399994      7.448490
  Si      9.129468     40.074660      7.799842
  O       5.223503     39.160992      7.617729
  O       7.838943     39.173762      8.197544
  O       6.514576     36.830105      8.022280
  O       9.056686     41.575185      8.459306
  O       7.161754     38.286430      5.897286
  O       9.254627     40.127930      6.159004
  Si     11.468280     26.026789      7.797775
  Si     14.136135     24.527102      7.863781
  O      10.117697     25.334956      8.402058
  O      12.823721     25.344482      8.383930
  O      13.918656     22.998202      8.384140
  O      11.397755     25.737915      6.179907
  O      14.161084     24.614440      6.220283
  Si     11.548545     29.202048      7.774420
  Al     11.719338     35.343678      7.722393
  Si     14.316098     33.702879      7.890264
  Si     14.219700     30.671112      7.838294
  O      10.163606     29.887283      8.322933
  O      10.132930     34.622447      8.137361
  O      13.078984     34.508453      8.493804
  O      12.889100     29.877899      8.405806
  O      11.474215     27.613625      8.122567
  O      14.416482     32.147230      8.472596
  O      11.573637     29.436918      6.150861
  O      11.995538     35.007567      6.010398
  O      14.136887     33.517717      6.262540
  O      13.989065     30.818739      6.219770
  Si     11.807532     38.605703      7.812292
  Si     14.492420     40.071782      7.873939
  O      10.480368     39.378153      8.396615
  O      13.154338     39.338117      8.432647
  O      11.760556     37.048929      8.123476
  O      14.667229     41.620002      8.381365
  O      11.896516     38.957367      6.194541
  O      14.493163     39.952911      6.232207
  Si     16.860109     25.964737      7.887689
  O      15.503583     25.221202      8.415811
  O      18.088785     25.034207      8.418021
  O      16.768641     26.003688      6.245240
  Si     16.935267     29.034245      7.821061
  Si     17.073251     35.289414      7.831443
  Si     19.706741     33.713495      7.861470
  Si     19.552483     30.628650      7.862073
  O      15.515949     29.732997      8.157684
  O      15.762827     34.426271      8.206033
  O      18.410612     34.532231      8.415220
  O      18.168951     29.932595      8.391657
  O      16.937886     27.507683      8.417540
  O      19.707703     32.161577      8.397584
  O      17.146710     28.841874      6.199801
  O      17.326501     35.355838      6.204668
  O      19.584950     33.627169      6.222071
  O      19.476743     30.684586      6.218601
  Si     17.050678     38.363050      7.828733
  O      15.843270     39.298028      8.395168
  O      18.530631     38.902067      8.272500
  O      16.977742     36.824845      8.383447
  O      16.897722     38.294131      6.192142
  O      20.734548     29.629862      8.379841
  O      21.135691     34.341885      8.345645
  H       4.074657     24.986772      8.036591
  H       1.410409     29.602015      8.036749
  H       1.410409     35.007985      8.036749
  H       4.074657     39.623228      8.036591
  H       8.948181     22.173255      8.038302
  H       8.948181     42.436745      8.038302
  H      14.277762     22.173204      8.038282
  H      14.277762     42.436796      8.038282
  H      18.960557     24.876228      8.036406
  H      18.960557     39.733772      8.036406
  H      21.624717     29.491420      8.036583
  H      21.624717     35.118580      8.036583
  H      13.341986     34.053957      5.966447
  H      11.226495     34.709860      5.519470
  H       9.024369     32.678533      5.542392
  H       9.856329     30.245889      5.754670
  H      12.379815     29.914922      5.871217
  H      14.037027     31.772342      5.965999
  H      13.626003     39.640537      5.907479
  H      11.069650     39.325972      5.847251
  H       8.578293     39.556465      5.748032
  H       6.783706     37.571159      5.375929
  H       5.197487     34.997411      5.488657
  H       3.348660     32.850168      5.715047
  H       4.200517     30.192407      5.821765
  H       6.071371     28.221316      5.787826
  H       6.960828     25.643438      5.887030
  H       9.587470     24.908145      5.875793
  H      12.242171     25.470076      5.791896
  H      14.957546     25.053116      5.883162
  H      16.923397     26.892593      5.884534
  H      17.794729     29.448596      5.814850
  H      19.492167     31.594705      5.881458
  H      18.877163     34.198950      5.877473
  H      17.110944     36.213644      5.811968
  H      16.118948     38.781803      5.876658
  P       2.855400     39.679735      9.941162
  O       2.872458     38.267796     10.368512
  O       3.142332     40.023238      8.477272
  O       1.442171     40.364563     10.248136
  O       3.800300     40.608750     10.848721
  C       5.189521     40.644893     10.579424
  C       5.968427     40.421957     11.853699
  O       5.745327     39.104429     12.387911
  C       7.461914     40.535033     11.643056
  O       8.066986     41.016623     12.820688
  C       7.880798     39.087627     11.392675
  O       9.217716     38.910189     11.779024
  C       6.877815     38.316915     12.258963
  N       6.466908     37.024907     11.687774
  C       5.174441     36.589516     11.466854
  N       5.116849     35.337666     11.090488
  C       6.417755     34.938659     11.039357
  C       6.993247     33.747416     10.600918
  N       6.324896     32.679169     10.181078
  N       8.352195     33.739528     10.634967
  C       9.107165     34.811718     11.008042
  N       8.622051     35.937725     11.414960
  C       7.277525     35.978061     11.405344
  H       0.896743     39.718601     10.704301
  H       5.470815     39.919659      9.809339
  H       5.440846     41.637655     10.191039
  H       5.637334     41.130333     12.616539
  H       7.716227     41.166189     10.784621
  H       8.978987     40.699315     12.791469
  H       7.728576     38.836092     10.342549
  H       9.675489     38.402707     11.103788
  H       7.325487     38.100347     13.236334
  H       4.326862     37.262052     11.535032
  H       5.338895     32.798430      9.997020
  H       6.795165     31.978100      9.626816
  H      10.176552     34.668894     10.924702
  H       8.832559     32.963875     10.189593
163
Coordinates from ORCA-job /data/Seafile/amp/al_surf/protonated_al_surf/frames/frame12/dry/amp_al_frame12_dry E -13417.888969124097
  Si      3.483000     33.842964      7.701029
  Si      3.486029     30.755236      7.836855
  O       2.124682     34.438186      8.349370
  O       2.130525     30.095378      8.456569
  O       3.617547     32.310623      8.301164
  O       3.432211     33.748791      6.058438
  O       3.469719     30.706243      6.195583
  Si      6.148640     26.126301      7.885512
  Si      8.787296     24.529681      7.898939
  O       4.740123     25.545015      8.454540
  O       7.435092     25.280477      8.421207
  O       8.724674     23.006337      8.471299
  O       6.199773     26.130521      6.240275
  O       8.754265     24.584528      6.254508
  Si      6.128551     29.186214      7.787399
  Si      6.196110     35.364023      7.432122
  Si      8.958610     33.771453      7.480473
  Si      8.895669     30.690662      7.679337
  O       4.831903     29.978861      8.373956
  O       4.842827     34.663244      8.061118
  O       7.471861     34.393490      7.751959
  O       7.474508     30.029370      8.160548
  O       6.246585     27.677563      8.383910
  O       8.872319     32.240563      8.182960
  O       5.895554     29.095371      6.165499
  O       5.961854     35.491451      5.814316
  O       9.224409     33.556604      5.882922
  O       9.013846     30.635468      6.052384
  Si      6.565466     38.399885      7.451032
  Si      9.131161     40.073953      7.800757
  O       5.224104     39.158334      7.621972
  O       7.838875     39.176207      8.199712
  O       6.516637     36.829378      8.023400
  O       9.064464     41.575781      8.457844
  O       7.163369     38.286563      5.899680
  O       9.254558     40.125673      6.159978
  Si     11.469016     26.026209      7.798809
  Si     14.135635     24.526928      7.864770
  O      10.118619     25.333858      8.402567
  O      12.823838     25.344135      8.386148
  O      13.917053     22.997877      8.383073
  O      11.398987     25.738120      6.181044
  O      14.160022     24.615545      6.221378
  Si     11.548488     29.201337      7.775907
  Al     11.720323     35.342560      7.723147
  Si     14.317529     33.701581      7.890445
  Si     14.219669     30.670045      7.838814
  O      10.163363     29.885935      8.324967
  O      10.134999     34.618607      8.139460
  O      13.081126     34.507826      8.494123
  O      12.889105     29.877177      8.406780
  O      11.475185     27.612945      8.123545
  O      14.417816     32.146000      8.472514
  O      11.572533     29.437107      6.152580
  O      11.995644     35.006431      6.010938
  O      14.137271     33.516459      6.263010
  O      13.988267     30.817529      6.220367
  Si     11.808830     38.604563      7.812464
  Si     14.493031     40.071597      7.872934
  O      10.481851     39.376662      8.395582
  O      13.155860     39.337177      8.432323
  O      11.761704     37.047550      8.125470
  O      14.667889     41.619932      8.380523
  O      11.897428     38.954974      6.194245
  O      14.492687     39.952576      6.231544
  Si     16.859601     25.963760      7.887832
  O      15.503976     25.219201      8.416414
  O      18.088344     25.033081      8.417257
  O      16.767156     26.003501      6.245376
  Si     16.935104     29.033254      7.821613
  Si     17.074414     35.288851      7.831267
  Si     19.707683     33.712823      7.860929
  Si     19.551830     30.627857      7.861922
  O      15.515475     29.731273      8.157876
  O      15.764918     34.423992      8.205227
  O      18.412079     34.532217      8.415075
  O      18.168690     29.931639      8.392609
  O      16.937946     27.506662      8.417787
  O      19.709697     32.160684      8.396952
  O      17.146378     28.841176      6.200177
  O      17.327771     35.355196      6.204431
  O      19.584976     33.626704      6.221835
  O      19.473697     30.684754      6.218626
  Si     17.050537     38.362492      7.827301
  O      15.844879     39.299221      8.393654
  O      18.531173     38.900823      8.268961
  O      16.977914     36.824344      8.383137
  O      16.896250     38.292719      6.191019
  O      20.733338     29.627886      8.377762
  O      21.137138     34.340588      8.344670
  H       4.074657     24.986772      8.036591
  H       1.410409     29.602015      8.036749
  H       1.410409     35.007985      8.036749
  H       4.074657     39.623228      8.036591
  H       8.948181     22.173255      8.038302
  H       8.948181     42.436745      8.038302
  H      14.277762     22.173204      8.038282
  H      14.277762     42.436796      8.038282
  H      18.960557     24.876228      8.036406
  H      18.960557     39.733772      8.036406
  H      21.624717     29.491420      8.036583
  H      21.624717     35.118580      8.036583
  H      13.343105     34.053561      5.966634
  H      11.226736     34.708375      5.520015
  H       9.023980     32.676869      5.543334
  H       9.854792     30.244138      5.757323
  H      12.378439     29.915022      5.872009
  H      14.036459     31.771045      5.966448
  H      13.626109     39.639677      5.906095
  H      11.069954     39.322616      5.847338
  H       8.577563     39.554161      5.750291
  H       6.787352     37.568848      5.380069
  H       5.199101     34.999828      5.488889
  H       3.347987     32.850836      5.715526
  H       4.202289     30.194321      5.821493
  H       6.071981     28.222603      5.789343
  H       6.958910     25.643279      5.887038
  H       9.587681     24.908072      5.876384
  H      12.243323     25.469614      5.793206
  H      14.956298     25.053874      5.883347
  H      16.922613     26.892199      5.884456
  H      17.793503     29.448444      5.814679
  H      19.490405     31.594596      5.880922
  H      18.877574     34.198898      5.877050
  H      17.111505     36.212228      5.810642
  H      16.117602     38.780311      5.875225
  P       2.850938     39.684600      9.938207
  O       2.864148     38.273405     10.368346
  O       3.141056     40.023894      8.473890
  O       1.438426     40.373366     10.241811
  O       3.794581     40.614445     10.845486
  C       5.184315     40.651226     10.579037
  C       5.959345     40.421862     11.854490
  O       5.729541     39.102724     12.381715
  C       7.453980     40.531877     11.651493
  O       8.052633     41.012551     12.833085
  C       7.871905     39.084310     11.402190
  O       9.206299     38.906847     11.796094
  C       6.861770     38.314023     12.260583
  N       6.454290     37.023153     11.684846
  C       5.163037     36.584430     11.463807
  N       5.108923     35.332218     11.087472
  C       6.410825     34.936800     11.037037
  C       6.989728     33.746297     10.600471
  N       6.323451     32.677056     10.180994
  N       8.348576     33.742269     10.634839
  C       9.100689     34.817278     11.005181
  N       8.612478     35.942244     11.410490
  C       7.267638     35.978485     11.402136
  H       0.884953     39.723724     10.682398
  H       5.467196     39.929208      9.806794
  H       5.437696     41.645448     10.195807
  H       5.627262     41.128017     12.618803
  H       7.715086     41.163089     10.795333
  H       8.965343     40.697684     12.808864
  H       7.725155     38.835164     10.350238
  H       9.658248     38.367896     11.141387
  H       7.301786     38.096117     13.241180
  H       4.314354     37.255741     11.531395
  H       5.337105     32.794672      9.995465
  H       6.794651     31.973841      9.629615
  H      10.170275     34.677652     10.920516
  H       8.830919     32.966730     10.192088
163
Coordinates from ORCA-job /data/Seafile/amp/al_surf/protonated_al_surf/frames/frame12/dry/amp_al_frame12_dry E -13417.889059976973
  Si      3.482970     33.842931      7.698588
  Si      3.486640     30.754900      7.834059
  O       2.127659     34.443275      8.351592
  O       2.131925     30.094413      8.454880
  O       3.617230     32.310598      8.297534
  O       3.427596     33.747241      6.056905
  O       3.469254     30.705575      6.192410
  Si      6.148576     26.125109      7.884052
  Si      8.787413     24.530154      7.897168
  O       4.744299     25.538293      8.456825
  O       7.435991     25.281978      8.419762
  O       8.723106     23.006718      8.469450
  O       6.196775     26.128215      6.238771
  O       8.753973     24.585282      6.252692
  Si      6.128799     29.185962      7.783877
  Si      6.197477     35.363422      7.428049
  Si      8.959070     33.769704      7.476869
  Si      8.895929     30.690270      7.677787
  O       4.832620     29.979091      8.370799
  O       4.843819     34.662787      8.056755
  O       7.472594     34.392925      7.748637
  O       7.475465     30.027746      8.159820
  O       6.243596     27.677119      8.381350
  O       8.871320     32.240122      8.181457
  O       5.896818     29.096316      6.162019
  O       5.962627     35.492014      5.810553
  O       9.223060     33.553676      5.879289
  O       9.014421     30.634753      6.051035
  Si      6.566629     38.401065      7.451014
  Si      9.132448     40.073568      7.800548
  O       5.224289     39.157424      7.624740
  O       7.839874     39.176577      8.199957
  O       6.516704     36.828702      8.018946
  O       9.069577     41.575856      8.456027
  O       7.162356     38.290075      5.898644
  O       9.253220     40.125222      6.160083
  Si     11.469983     26.025804      7.797520
  Si     14.135510     24.527093      7.865082
  O      10.119180     25.333695      8.399929
  O      12.823539     25.343648      8.387141
  O      13.916616     22.998003      8.381996
  O      11.400740     25.737763      6.179935
  O      14.159986     24.616680      6.221738
  Si     11.549338     29.200684      7.773967
  Al     11.720346     35.343525      7.718530
  Si     14.318488     33.701934      7.887237
  Si     14.219707     30.670362      7.835913
  O      10.164247     29.886040      8.322527
  O      10.136812     34.615294      8.134867
  O      13.082949     34.509637      8.489681
  O      12.889426     29.877134      8.404166
  O      11.476820     27.612495      8.121687
  O      14.418005     32.146103      8.468719
  O      11.572625     29.436267      6.150651
  O      11.996350     35.007628      6.006332
  O      14.138497     33.516907      6.259928
  O      13.987073     30.817795      6.217596
  Si     11.809725     38.605884      7.809814
  Si     14.493882     40.071678      7.870451
  O      10.483539     39.376639      8.392510
  O      13.157254     39.337616      8.429236
  O      11.762365     37.047805      8.122522
  O      14.669073     41.619840      8.378542
  O      11.897851     38.956716      6.191556
  O      14.493628     39.954445      6.229284
  Si     16.859583     25.963562      7.887206
  O      15.504660     25.217904      8.415883
  O      18.088833     25.034257      8.417782
  O      16.767281     26.002937      6.244482
  Si     16.935006     29.033019      7.820217
  Si     17.075428     35.288543      7.829292
  Si     19.708341     33.712328      7.859183
  Si     19.551284     30.627634      7.860618
  O      15.515273     29.731112      8.154804
  O      15.767284     34.421410      8.202348
  O      18.413469     34.532886      8.412998
  O      18.168540     29.930740      8.392062
  O      16.936886     27.506652      8.416399
  O      19.711435     32.160312      8.395600
  O      17.147406     28.840196      6.198880
  O      17.329434     35.355094      6.202466
  O      19.584676     33.626125      6.220414
  O      19.471070     30.686473      6.217620
  Si     17.050192     38.362311      7.824891
  O      15.845639     39.299754      8.391392
  O      18.530885     38.900198      8.265620
  O      16.977916     36.823868      8.380718
  O      16.894983     38.292180      6.188567
  O      20.731952     29.626407      8.374512
  O      21.138367     34.339101      8.342429
  H       4.074657     24.986772      8.036591
  H       1.410409     29.602015      8.036749
  H       1.410409     35.007985      8.036749
  H       4.074657     39.623228      8.036591
  H       8.948181     22.173255      8.038302
  H       8.948181     42.436745      8.038302
  H      14.277762     22.173204      8.038282
  H      14.277762     42.436796      8.038282
  H      18.960557     24.876228      8.036406
  H      18.960557     39.733772      8.036406
  H      21.624717     29.491420      8.036583
  H      21.624717     35.118580      8.036583
  H      13.345795     34.055548      5.962732
  H      11.227988     34.708554      5.515054
  H       9.025168     32.672527      5.541824
  H       9.855100     30.242502      5.756181
  H      12.378065     29.914248      5.868867
  H      14.035715     31.771123      5.963363
  H      13.628097     39.642479      5.900820
  H      11.069379     39.322601      5.845289
  H       8.575929     39.553442      5.751401
  H       6.786004     37.571793      5.380104
  H       5.199314     35.001253      5.485515
  H       3.344993     32.848772      5.714980
  H       4.202739     30.195623      5.817947
  H       6.071188     28.222594      5.787023
  H       6.955446     25.642097      5.883332
  H       9.587267     24.908104      5.874016
  H      12.245444     25.469399      5.792875
  H      14.956073     25.054044      5.882230
  H      16.923413     26.891257      5.883036
  H      17.792918     29.448583      5.812863
  H      19.488774     31.596012      5.879340
  H      18.877728     34.198626      5.875244
  H      17.111004     36.210698      5.807131
  H      16.117580     38.781048      5.871990
  P       2.845927     39.684584      9.935150
  O       2.856472     38.273074     10.364080
  O       3.139749     40.024287      8.471444
  O       1.433257     40.374804     10.236395
  O       3.787292     40.614039     10.844196
  C       5.177181     40.653020     10.579332
  C       5.949650     40.417532     11.854690
  O       5.713731     39.096616     12.374167
  C       7.445444     40.525463     11.657166
  O       8.039147     41.007408     12.840535
  C       7.863064     39.077235     11.409906
  O       9.194026     38.899813     11.813489
  C       6.845842     38.307309     12.260478
  N       6.442293     37.017617     11.681033
  C       5.152546     36.574909     11.458781
  N       5.103246     35.322470     11.082016
  C       6.406410     34.931773     11.032595
  C       6.990263     33.743442     10.595780
  N       6.326888     32.673586     10.174288
  N       8.348991     33.744522     10.630434
  C       9.097202     34.821969     11.000164
  N       8.604636     35.944929     11.405457
  C       7.259419     35.975865     11.398092
  H       0.873349     39.721178     10.662134
  H       5.462834     39.933867      9.805876
  H       5.431387     41.648661     10.200504
  H       5.615909     41.120434     12.620951
  H       7.711089     41.154342     10.800543
  H       8.951761     40.692729     12.822749
  H       7.723185     38.830132     10.356024
  H       9.638939     38.325787     11.184502
  H       7.279078     38.088645     13.243969
  H       4.302341     37.244815     11.525885
  H       5.340283     32.790800      9.986748
  H       6.799011     31.970807      9.622691
  H      10.167203     34.686902     10.914244
  H       8.833958     32.970414     10.188526
163
Coordinates from ORCA-job /data/Seafile/amp/al_surf/protonated_al_surf/frames/frame12/dry/amp_al_frame12_dry E -13417.889176946153
  Si      3.482999     33.843299      7.696324
  Si      3.487244     30.754517      7.831980
  O       2.130170     34.447900      8.353415
  O       2.133429     30.092927      8.454103
  O       3.617066     32.310584      8.294709
  O       3.422939     33.745936      6.055874
  O       3.468778     30.704735      6.190204
  Si      6.148281     26.124263      7.881870
  Si      8.787278     24.531306      7.894311
  O       4.747447     25.533187      8.458701
  O       7.436583     25.283657      8.417651
  O       8.722142     23.007658      8.467091
  O       6.193514     26.126542      6.236499
  O       8.753026     24.586558      6.249847
  Si      6.129842     29.185938      7.780347
  Si      6.198757     35.363363      7.423709
  Si      8.959746     33.769283      7.471786
  Si      8.896873     30.691062      7.675394
  O       4.834044     29.979721      8.367640
  O       4.844998     34.662564      8.052478
  O       7.473259     34.392787      7.744546
  O       7.477029     30.027123      8.157809
  O       6.241907     27.676870      8.378259
  O       8.871296     32.240845      8.178977
  O       5.898039     29.096769      6.158776
  O       5.963473     35.492211      5.806381
  O       9.220979     33.551599      5.874012
  O       9.015248     30.635364      6.048674
  Si      6.568601     38.402535      7.450398
  Si      9.134359     40.073660      7.799973
  O       5.225659     39.157991      7.625552
  O       7.842260     39.176091      8.200347
  O       6.517464     36.828104      8.014053
  O       9.073488     41.575988      8.454186
  O       7.161929     38.293481      5.896682
  O       9.251902     40.125186      6.159682
  Si     11.470728     26.025960      7.794827
  Si     14.135717     24.527616      7.864240
  O      10.119407     25.334461      8.395945
  O      12.823168     25.343552      8.386460
  O      13.916959     22.998555      8.380913
  O      11.401936     25.737055      6.177377
  O      14.160852     24.617881      6.220825
  Si     11.550328     29.200754      7.771148
  Al     11.720117     35.345722      7.713362
  Si     14.318774     33.703248      7.884150
  Si     14.219717     30.671569      7.832594
  O      10.165497     29.887130      8.319263
  O      10.137920     34.613935      8.128721
  O      13.083936     34.512252      8.485106
  O      12.889702     29.877769      8.400873
  O      11.478114     27.612552      8.118423
  O      14.417553     32.146972      8.464963
  O      11.572749     29.436379      6.147713
  O      11.997498     35.009806      6.001481
  O      14.139751     33.517993      6.256737
  O      13.985684     30.819337      6.214443
  Si     11.810845     38.608095      7.807236
  Si     14.495192     40.071843      7.868168
  O      10.485805     39.377525      8.389331
  O      13.158985     39.338664      8.425867
  O      11.763218     37.048926      8.118696
  O      14.670553     41.619789      8.376421
  O      11.899125     38.959516      6.189114
  O      14.495778     39.956918      6.226947
  Si     16.859986     25.964124      7.886034
  O      15.505216     25.217843      8.414358
  O      18.089532     25.036218      8.418777
  O      16.768420     26.002706      6.242926
  Si     16.934883     29.033458      7.818137
  Si     17.075923     35.288372      7.827293
  Si     19.708430     33.712187      7.857351
  Si     19.550701     30.628090      7.858806
  O      15.515257     29.731905      8.151037
  O      15.768951     34.419694      8.200033
  O      18.414292     34.533700      8.410677
  O      18.168295     29.930423      8.390641
  O      16.935638     27.507326      8.414410
  O      19.712010     32.160552      8.394184
  O      17.148896     28.839484      6.197139
  O      17.330626     35.355178      6.200582
  O      19.583981     33.625885      6.218702
  O      19.469185     30.688784      6.216060
  Si     17.050255     38.362042      7.822664
  O      15.846317     39.299690      8.389603
  O      18.530971     38.899453      8.262851
  O      16.978161     36.823400      8.378008
  O      16.893803     38.290951      6.185970
  O      20.730643     29.625678      8.371274
  O      21.138955     34.337920      8.340189
  H       4.074657     24.986772      8.036591
  H       1.410409     29.602015      8.036749
  H       1.410409     35.007985      8.036749
  H       4.074658     39.623228      8.036591
  H       8.948181     22.173255      8.038302
  H       8.948181     42.436745      8.038302
  H      14.277762     22.173204      8.038282
  H      14.277762     42.436796      8.038282
  H      18.960557     24.876228      8.036406
  H      18.960557     39.733772      8.036406
  H      21.624717     29.491420      8.036583
  H      21.624717     35.118580      8.036583
  H      13.348069     34.057383      5.959047
  H      11.229888     34.708862      5.510046
  H       9.025543     32.668464      5.539885
  H       9.855740     30.242283      5.754058
  H      12.377551     29.915007      5.865155
  H      14.035553     31.772510      5.959998
  H      13.631233     39.645902      5.895584
  H      11.069884     39.324148      5.843502
  H       8.575020     39.552526      5.751980
  H       6.783551     37.575892      5.378914
  H       5.199125     35.002465      5.482461
  H       3.342148     32.846454      5.715935
  H       4.203383     30.196816      5.815398
  H       6.070253     28.221898      5.785139
  H       6.952158     25.641627      5.879443
  H       9.586294     24.908285      5.870381
  H      12.247391     25.469482      5.791425
  H      14.956846     25.054698      5.880481
  H      16.925436     26.890839      5.881334
  H      17.792898     29.449383      5.811056
  H      19.486976     31.598288      5.877675
  H      18.877608     34.199172      5.873511
  H      17.109898     36.209551      5.804305
  H      16.117957     38.781871      5.868923
  P       2.842146     39.685295      9.932435
  O       2.849190     38.273507     10.360219
  O       3.139408     40.024484      8.469341
  O       1.429689     40.377470     10.231195
  O       3.781049     40.615498     10.842385
  C       5.170990     40.658428     10.578608
  C       5.941140     40.415885     11.854177
  O       5.698743     39.093318     12.366903
  C       7.438154     40.521128     11.660626
  O       8.028495     41.005446     12.844018
  C       7.854510     39.071346     11.416686
  O       9.181202     38.893183     11.831128
  C       6.830306     38.302840     12.260108
  N       6.430442     37.013525     11.678084
  C       5.142719     36.566339     11.454450
  N       5.098237     35.313881     11.076540
  C       6.402508     34.928086     11.027918
  C       6.991287     33.742177     10.590575
  N       6.331507     32.670651     10.168602
  N       8.349927     33.748863     10.625196
  C       9.093945     34.828911     10.994399
  N       8.596911     35.950165     11.399952
  C       7.251513     35.975160     11.393897
  H       0.862796     39.721110     10.642756
  H       5.458804     39.943424      9.802174
  H       5.425742     41.656383     10.206006
  H       5.606334     41.116028     12.622229
  H       7.706454     41.145656     10.801474
  H       8.940356     40.689037     12.832742
  H       7.722436     38.824950     10.361562
  H       9.617295     38.280184     11.232863
  H       7.257591     38.084335     13.246350
  H       4.291355     37.234435     11.521199
  H       5.345150     32.786583      9.980520
  H       6.804856     31.969044      9.616535
  H      10.164421     34.698982     10.907829
  H       8.837583     32.976714     10.183134
163
Coordinates from ORCA-job /data/Seafile/amp/al_surf/protonated_al_surf/frames/frame12/dry/amp_al_frame12_dry E -13417.889349500165
  Si      3.483308     33.843998      7.693903
  Si      3.487590     30.753954      7.830129
  O       2.132480     34.451176      8.354904
  O       2.134860     30.090912      8.454330
  O       3.617571     32.310316      8.292463
  O       3.418020     33.745580      6.054895
  O       3.467431     30.703616      6.188586
  Si      6.147513     26.123566      7.878593
  Si      8.786841     24.533162      7.889887
  O       4.748768     25.530556      8.460085
  O       7.436925     25.285564      8.414558
  O       8.721752     23.009229      8.464017
  O       6.189553     26.124687      6.233080
  O       8.751295     24.588020      6.245572
  Si      6.131481     29.185794      7.775379
  Si      6.199881     35.364298      7.418247
  Si      8.960673     33.770511      7.462539
  Si      8.898281     30.692983      7.669160
  O       4.836275     29.980727      8.363223
  O       4.846780     34.662304      8.047820
  O       7.474229     34.393607      7.738176
  O       7.479022     30.027609      8.151785
  O       6.241959     27.676802      8.373559
  O       8.872297     32.242764      8.172235
  O       5.898257     29.095509      6.154370
  O       5.963785     35.492712      5.800918
  O       9.217348     33.551449      5.864230
  O       9.015943     30.636882      6.042052
  Si      6.570937     38.404589      7.450071
  Si      9.137161     40.074558      7.799893
  O       5.227327     39.159489      7.625990
  O       7.846303     39.174629      8.201418
  O       6.518522     36.827737      8.009023
  O       9.077181     41.576296      8.454120
  O       7.160387     38.297468      5.894783
  O       9.250758     40.126977      6.159423
  Si     11.471164     26.026634      7.789533
  Si     14.136445     24.528452      7.861192
  O      10.119360     25.336155      8.389994
  O      12.823023     25.344288      8.382799
  O      13.917850     22.999582      8.379185
  O      11.402458     25.735261      6.172191
  O      14.162877     24.618727      6.217617
  Si     11.551315     29.201551      7.764883
  Al     11.719706     35.348963      7.705070
  Si     14.318412     33.705729      7.878446
  Si     14.219828     30.673639      7.826277
  O      10.166930     29.889506      8.312309
  O      10.138554     34.614602      8.118558
  O      13.083932     34.515472      8.477782
  O      12.889768     29.879344      8.394354
  O      11.478630     27.613323      8.112052
  O      14.416261     32.148736      8.458574
  O      11.573147     29.436376      6.141056
  O      11.998863     35.013207      5.993766
  O      14.141539     33.520272      6.250502
  O      13.984803     30.821853      6.208305
  Si     11.812062     38.610624      7.804276
  Si     14.496785     40.071967      7.866290
  O      10.488935     39.379246      8.386670
  O      13.161112     39.339189      8.422170
  O      11.764036     37.050319      8.112303
  O      14.671440     41.619640      8.374568
  O      11.900897     38.963369      6.186458
  O      14.499092     39.959931      6.224628
  Si     16.861087     25.965414      7.883773
  O      15.505554     25.219393      8.411127
  O      18.090558     25.038955      8.420164
  O      16.771247     26.002114      6.240240
  Si     16.935026     29.034545      7.813939
  Si     17.075922     35.288425      7.823782
  Si     19.708014     33.712381      7.854903
  Si     19.550397     30.629137      7.855602
  O      15.515535     29.733826      8.144549
  O      15.769591     34.419323      8.196392
  O      18.414226     34.534336      8.407045
  O      18.167946     29.930995      8.387095
  O      16.934389     27.508772      8.410918
  O      19.710979     32.161346      8.392063
  O      17.151760     28.838659      6.193692
  O      17.331689     35.355848      6.197375
  O      19.583792     33.625945      6.216066
  O      19.469366     30.691073      6.213030
  Si     17.050988     38.361801      7.820272
  O      15.846823     39.298707      8.388324
  O      18.531559     38.898670      8.260771
  O      16.978662     36.822910      8.373980
  O      16.893391     38.289934      6.182883
  O      20.729605     29.625817      8.367737
  O      21.138454     34.337528      8.338046
  H       4.074657     24.986772      8.036591
  H       1.410409     29.602015      8.036749
  H       1.410409     35.007985      8.036749
  H       4.074657     39.623228      8.036591
  H       8.948181     22.173255      8.038302
  H       8.948181     42.436745      8.038302
  H      14.277762     22.173204      8.038282
  H      14.277762     42.436796      8.038282
  H      18.960557     24.876228      8.036406
  H      18.960557     39.733772      8.036406
  H      21.624717     29.491420      8.036583
  H      21.624717     35.118580      8.036583
  H      13.350262     34.059675      5.952659
  H      11.231851     34.710312      5.502455
  H       9.024674     32.665646      5.534918
  H       9.856283     30.242990      5.747783
  H      12.377467     29.915683      5.858307
  H      14.035590     31.774945      5.953768
  H      13.635558     39.648881      5.891246
  H      11.071334     39.328187      5.841899
  H       8.575159     39.552453      5.752491
  H       6.779244     37.581520      5.377256
  H       5.197794     35.004201      5.479105
  H       3.339346     32.844843      5.717710
  H       4.202367     30.196800      5.813236
  H       6.068218     28.219448      5.782270
  H       6.948172     25.640195      5.875404
  H       9.584426     24.908395      5.864914
  H      12.248779     25.468643      5.787741
  H      14.959018     25.055280      5.877416
  H      16.929127     26.890131      5.878737
  H      17.795226     29.449529      5.808389
  H      19.486451     31.600763      5.875077
  H      18.877869     34.199913      5.871076
  H      17.109176     36.209577      5.801271
  H      16.119162     38.783345      5.865934
  P       2.840266     39.686464      9.930288
  O       2.844329     38.274358     10.356594
  O       3.139893     40.025499      8.467451
  O       1.428737     40.380093     10.227908
  O       3.779038     40.617891     10.838752
  C       5.169113     40.659993     10.575057
  C       5.936284     40.412525     11.851063
  O       5.686486     39.089793     12.359642
  C       7.435335     40.514071     11.661011
  O       8.022861     41.002680     12.842879
  C       7.849492     39.061763     11.423171
  O       9.170704     38.881129     11.850687
  C       6.816882     38.297555     12.260192
  N       6.419547     37.008443     11.676929
  C       5.133585     36.556854     11.451846
  N       5.094165     35.304721     11.072855
  C       6.399810     34.924149     11.023042
  C       6.993721     33.742087     10.582519
  N       6.339015     32.667811     10.159398
  N       8.352615     33.754675     10.616121
  C       9.092288     34.836833     10.985743
  N       8.590486     35.956086     11.393724
  C       7.244819     35.974405     11.390365
  H       0.856368     39.723129     10.631008
  H       5.457288     39.945281      9.798254
  H       5.424903     41.658437     10.204873
  H       5.600459     41.111573     12.619687
  H       7.705012     41.131862     10.796848
  H       8.933374     40.682178     12.838862
  H       7.727329     38.814365     10.367352
  H       9.594207     38.226436     11.289192
  H       7.238536     38.079694     13.249561
  H       4.280485     37.222815     11.518730
  H       5.352696     32.780882      9.972478
  H       6.814931     31.970966      9.604508
  H      10.163321     34.712565     10.897466
  H       8.843215     32.985742     10.170432
163
Coordinates from ORCA-job /data/Seafile/amp/al_surf/protonated_al_surf/frames/frame12/dry/amp_al_frame12_dry E -13417.889567158487
  Si      3.483647     33.845630      7.694207
  Si      3.487205     30.754197      7.831200
  O       2.134195     34.453893      8.356775
  O       2.135113     30.089518      8.456404
  O       3.617663     32.310613      8.293718
  O       3.415197     33.746816      6.056095
  O       3.466309     30.703905      6.190209
  Si      6.146699     26.123209      7.877808
  Si      8.786621     24.535005      7.886928
  O       4.748654     25.528998      8.462460
  O       7.437608     25.287287      8.413478
  O       8.722154     23.010732      8.462085
  O       6.186558     26.124412      6.232125
  O       8.749560     24.589441      6.242813
  Si      6.132401     29.185674      7.774036
  Si      6.200708     35.365789      7.416598
  Si      8.961553     33.772337      7.456311
  Si      8.899395     30.694453      7.664900
  O       4.837770     29.982198      8.362049
  O       4.848424     34.662347      8.046769
  O       7.475322     34.394980      7.735228
  O       7.480325     30.028159      8.147453
  O       6.242446     27.676815      8.371684
  O       8.873711     32.244327      8.167315
  O       5.897282     29.093796      6.153546
  O       5.964711     35.493015      5.798904
  O       9.213824     33.552598      5.857301
  O       9.015938     30.638467      6.037231
  Si      6.572630     38.406154      7.451740
  Si      9.139078     40.075770      7.800604
  O       5.228590     39.161142      7.626404
  O       7.849263     39.173635      8.204410
  O       6.520114     36.827812      8.008403
  O       9.078747     41.577121      8.455000
  O       7.159208     38.299332      5.895039
  O       9.249292     40.128372      6.159553
  Si     11.471402     26.027616      7.785233
  Si     14.137378     24.529296      7.857677
  O      10.119478     25.337807      8.385817
  O      12.823519     25.345542      8.378799
  O      13.918496     23.000592      8.377460
  O      11.402457     25.733845      6.167842
  O      14.164591     24.619741      6.213932
  Si     11.551748     29.202784      7.760480
  Al     11.719154     35.351848      7.700422
  Si     14.317513     33.708291      7.875266
  Si     14.219668     30.675731      7.822108
  O      10.167636     29.891242      8.307870
  O      10.138619     34.616289      8.112216
  O      13.083200     34.518198      8.473870
  O      12.889469     29.881177      8.390055
  O      11.478537     27.614362      8.107181
  O      14.414739     32.150594      8.455007
  O      11.572985     29.437089      6.136218
  O      11.999405     35.015648      5.989841
  O      14.142421     33.522366      6.246613
  O      13.984147     30.824380      6.204263
  Si     11.812496     38.611937      7.803174
  Si     14.497832     40.071947      7.865577
  O      10.491125     39.380889      8.385581
  O      13.162573     39.338833      8.420073
  O      11.764168     37.051408      8.108309
  O      14.671674     41.619353      8.373655
  O      11.902380     38.964852      6.185539
  O      14.501677     39.961856      6.223213
  Si     16.862419     25.966795      7.882165
  O      15.505742     25.221362      8.408120
  O      18.091645     25.041383      8.422168
  O      16.774567     26.001287      6.238346
  Si     16.934966     29.035779      7.810494
  Si     17.075452     35.288421      7.821034
  Si     19.707382     33.712621      7.853126
  Si     19.549969     30.630219      7.852546
  O      15.515719     29.735973      8.139692
  O      15.769330     34.420009      8.194795
  O      18.413671     34.534580      8.404217
  O      18.167318     29.932280      8.383733
  O      16.933438     27.510251      8.408384
  O      19.709068     32.162128      8.390346
  O      17.153807     28.838087      6.191046
  O      17.331513     35.355751      6.194878
  O      19.583917     33.625965      6.213822
  O      19.469948     30.692198      6.210021
  Si     17.052061     38.361523      7.818546
  O      15.847166     39.297436      8.387838
  O      18.532639     38.897790      8.259648
  O      16.979224     36.822574      8.370508
  O      16.893695     38.288983      6.180555
  O      20.728768     29.626133      8.364814
  O      21.137479     34.337614      8.336757
  H       4.074657     24.986772      8.036591
  H       1.410409     29.602015      8.036749
  H       1.410409     35.007985      8.036749
  H       4.074657     39.623228      8.036591
  H       8.948181     22.173255      8.038302
  H       8.948181     42.436745      8.038302
  H      14.277762     22.173204      8.038282
  H      14.277762     42.436796      8.038282
  H      18.960557     24.876228      8.036406
  H      18.960557     39.733772      8.036406
  H      21.624717     29.491420      8.036583
  H      21.624717     35.118580      8.036583
  H      13.350439     34.060332      5.949294
  H      11.232657     34.711557      5.498939
  H       9.023865     32.664512      5.532296
  H       9.856072     30.243907      5.743187
  H      12.377297     29.916799      5.854109
  H      14.036377     31.777426      5.949707
  H      13.637625     39.651138      5.890304
  H      11.073082     39.331009      5.841650
  H       8.575199     39.551937      5.752879
  H       6.775675     37.585028      5.377258
  H       5.197595     35.005193      5.478561
  H       3.338379     32.844887      5.721348
  H       4.201017     30.196872      5.814369
  H       6.065796     28.217131      5.782131
  H       6.945348     25.639595      5.874945
  H       9.582533     24.909058      5.861156
  H      12.249646     25.468149      5.784487
  H      14.961298     25.056385      5.875129
  H      16.933047     26.889486      5.877355
  H      17.797352     29.449790      5.806640
  H      19.486029     31.602358      5.873014
  H      18.878023     34.200438      5.869495
  H      17.107586     36.209646      5.799572
  H      16.120327     38.784486      5.864524
  P       2.839581     39.689430      9.928895
  O       2.841535     38.277276     10.355055
  O       3.140652     40.026521      8.466019
  O       1.429410     40.384292     10.225833
  O       3.778291     40.622826     10.835574
  C       5.168909     40.663610     10.572713
  C       5.932141     40.410183     11.850200
  O       5.673706     39.087905     12.356551
  C       7.433371     40.505943     11.663893
  O       8.018378     40.998304     12.844721
  C       7.843313     39.050560     11.433104
  O       9.158594     38.865567     11.874774
  C       6.801799     38.292533     12.263869
  N       6.406309     37.003105     11.679489
  C       5.122331     36.547566     11.453204
  N       5.087005     35.296049     11.072290
  C       6.393797     34.919701     11.021107
  C       6.991606     33.741065     10.577740
  N       6.342465     32.662839     10.155636
  N       8.350902     33.758887     10.610048
  C       9.086782     34.843227     10.979334
  N       8.581032     35.961027     11.389926
  C       7.235171     35.973310     11.389787
  H       0.853351     39.728420     10.625446
  H       5.455812     39.950476      9.793334
  H       5.426251     41.663447     10.206777
  H       5.597500     41.110015     12.618765
  H       7.704305     41.118027     10.795545
  H       8.927132     40.672708     12.847678
  H       7.731936     38.801122     10.376973
  H       9.566929     38.168030     11.353820
  H       7.218032     38.075113     13.255676
  H       4.267879     37.211261     11.519301
  H       5.356381     32.770979      9.971882
  H       6.822044     31.972109      9.597379
  H      10.158275     34.724042     10.889352
  H       8.844029     32.992921     10.161211
163
Coordinates from ORCA-job /data/Seafile/amp/al_surf/protonated_al_surf/frames/frame12/dry/amp_al_frame12_dry E -13417.889889134030
  Si      3.483694     33.848139      7.696051
  Si      3.485645     30.755243      7.833600
  O       2.136688     34.457978      8.359639
  O       2.134316     30.088527      8.459720
  O       3.616961     32.311479      8.296984
  O       3.411654     33.749461      6.058361
  O       3.464031     30.705551      6.193390
  Si      6.145453     26.122523      7.878999
  Si      8.786485     24.536780      7.884701
  O       4.747942     25.526524      8.466821
  O       7.438883     25.289229      8.413935
  O       8.722468     23.012109      8.460420
  O       6.182783     26.123742      6.233149
  O       8.747476     24.590803      6.240909
  Si      6.131988     29.185200      7.773814
  Si      6.201465     35.367842      7.416630
  Si      8.962253     33.773886      7.449420
  Si      8.899826     30.694566      7.659762
  O       4.838461     29.984449      8.361755
  O       4.850403     34.662015      8.047063
  O       7.476813     34.396522      7.733235
  O       7.480627     30.028020      8.142265
  O       6.242079     27.676731      8.370802
  O       8.874737     32.244905      8.160938
  O       5.894273     29.091076      6.153753
  O       5.965711     35.494596      5.798388
  O       9.208824     33.553507      5.849493
  O       9.015184     30.639123      6.031279
  Si      6.574375     38.407508      7.456885
  Si      9.140498     40.077172      7.803245
  O       5.229970     39.162152      7.629045
  O       7.851933     39.172370      8.210950
  O       6.521797     36.827834      8.011905
  O       9.081389     41.578290      8.458161
  O       7.158281     38.300636      5.898852
  O       9.245519     40.130821      6.160885
  Si     11.471702     26.028274      7.780934
  Si     14.138706     24.530013      7.853520
  O      10.119972     25.338923      8.382495
  O      12.824781     25.347114      8.374220
  O      13.918556     23.001518      8.375129
  O      11.402533     25.731848      6.163448
  O      14.166328     24.620679      6.209716
  Si     11.551653     29.203748      7.755509
  Al     11.718738     35.354084      7.694378
  Si     14.316718     33.710581      7.870567
  Si     14.219198     30.677407      7.817009
  O      10.167699     29.892241      8.303048
  O      10.138938     34.617664      8.105548
  O      13.082350     34.520473      8.468552
  O      12.888778     29.882916      8.385274
  O      11.477916     27.615272      8.102139
  O      14.412905     32.152259      8.450545
  O      11.572268     29.436765      6.130606
  O      11.999196     35.016176      5.984663
  O      14.143781     33.524047      6.240968
  O      13.983787     30.825872      6.199209
  Si     11.812428     38.611951      7.800989
  Si     14.498858     40.071664      7.864351
  O      10.493599     39.382500      8.384640
  O      13.164124     39.336523      8.416955
  O      11.764018     37.051592      8.102184
  O      14.671529     41.618724      8.372520
  O      11.902728     38.965270      6.183259
  O      14.504432     39.962945      6.221054
  Si     16.864200     25.967953      7.881105
  O      15.506100     25.223196      8.405272
  O      18.093426     25.044100      8.425254
  O      16.779114     25.999302      6.237190
  Si     16.934871     29.036769      7.806430
  Si     17.075230     35.287998      7.817096
  Si     19.707117     33.712324      7.851187
  Si     19.549403     30.630867      7.848768
  O      15.515663     29.738042      8.133833
  O      15.768987     34.420585      8.192136
  O      18.413218     34.534186      8.400882
  O      18.166283     29.934029      8.379759
  O      16.932465     27.511638      8.406131
  O      19.706930     32.162298      8.388452
  O      17.156165     28.836682      6.187999
  O      17.331812     35.354947      6.191268
  O      19.585157     33.625146      6.211205
  O      19.470795     30.692236      6.206290
  Si     17.053703     38.360943      7.816121
  O      15.847796     39.295795      8.386762
  O      18.534395     38.896459      8.258074
  O      16.979887     36.821954      8.366009
  O      16.895213     38.288345      6.177739
  O      20.727585     29.625500      8.360968
  O      21.136622     34.337618      8.335391
  H       4.074657     24.986772      8.036591
  H       1.410409     29.602015      8.036749
  H       1.410409     35.007985      8.036749
  H       4.074657     39.623228      8.036591
  H       8.948181     22.173255      8.038302
  H       8.948181     42.436745      8.038302
  H      14.277762     22.173204      8.038282
  H      14.277762     42.436796      8.038282
  H      18.960557     24.876228      8.036406
  H      18.960557     39.733772      8.036406
  H      21.624717     29.491420      8.036583
  H      21.624717     35.118580      8.036583
  H      13.350309     34.059835      5.944240
  H      11.232270     34.711947      5.494329
  H       9.022117     32.662700      5.529336
  H       9.855250     30.244063      5.737590
  H      12.376354     29.917495      5.849605
  H      14.036736     31.778838      5.944477
  H      13.639921     39.650122      5.890965
  H      11.074036     39.334559      5.840818
  H       8.573596     39.551129      5.755294
  H       6.773338     37.588181      5.379981
  H       5.197402     35.007923      5.478876
  H       3.337610     32.846461      5.725566
  H       4.197696     30.197188      5.816849
  H       6.061039     28.214100      5.782456
  H       6.941573     25.637934      5.876949
  H       9.580283     24.909537      5.858056
  H      12.250377     25.466817      5.780917
  H      14.964214     25.056995      5.873200
  H      16.938052     26.887657      5.876610
  H      17.800316     29.448669      5.804532
  H      19.485901     31.603062      5.870655
  H      18.879183     34.199933      5.867515
  H      17.108457     36.209706      5.797550
  H      16.122272     38.785565      5.863098
  P       2.838805     39.693810      9.926899
  O       2.837660     38.281580     10.353870
  O       3.141471     40.028155      8.463986
  O       1.430736     40.391240     10.223088
  O       3.780824     40.627032     10.831211
  C       5.172521     40.659271     10.569711
  C       5.929442     40.398097     11.849222
  O       5.656031     39.077934     12.353100
  C       7.434326     40.482357     11.669707
  O       8.015327     40.979636     12.849864
  C       7.836449     39.022714     11.450216
  O       9.143030     38.829594     11.910813
  C       6.779871     38.276445     12.271871
  N       6.385575     36.987358     11.685637
  C       5.103734     36.526611     11.459185
  N       5.074198     35.275779     11.076404
  C       6.383074     34.905653     11.021444
  C       6.986338     33.732130     10.573689
  N       6.345545     32.648217     10.152751
  N       8.346331     33.757546     10.602971
  C       9.076852     34.845281     10.970357
  N       8.565524     35.960340     11.385047
  C       7.219194     35.963860     11.391165
  H       0.849734     39.737299     10.619832
  H       5.455255     39.945607      9.788806
  H       5.433677     41.658767     10.206709
  H       5.598912     41.100764     12.617522
  H       7.709398     41.087819     10.797411
  H       8.921276     40.645789     12.862440
  H       7.739661     38.770016     10.393824
  H       9.521041     38.071816     11.455177
  H       7.186608     38.058581     13.268508
  H       4.246606     37.186782     11.525161
  H       5.358698     32.747870      9.973308
  H       6.830983     31.966685      9.589699
  H      10.148755     34.733489     10.875297
  H       8.843085     32.995644     10.149117
163
Coordinates from ORCA-job /data/Seafile/amp/al_surf/protonated_al_surf/frames/frame12/dry/amp_al_frame12_dry E -13417.890315675520
  Si      3.483244     33.851181      7.700976
  Si      3.483100     30.757109      7.837594
  O       2.139870     34.463993      8.364885
  O       2.132774     30.087573      8.464074
  O       3.614741     32.312688      8.303044
  O       3.408092     33.752953      6.063001
  O       3.461076     30.708945      6.198177
  Si      6.143736     26.121654      7.883286
  Si      8.786290     24.538430      7.884892
  O       4.746886     25.522680      8.473584
  O       7.440454     25.291432      8.417263
  O       8.721720     23.013032      8.459491
  O       6.178421     26.122648      6.237270
  O       8.745371     24.593163      6.241483
  Si      6.130067     29.184645      7.775952
  Si      6.202377     35.369684      7.421393
  Si      8.963034     33.774553      7.447613
  Si      8.900188     30.692790      7.657378
  O       4.838238     29.987585      8.363411
  O       4.852365     34.660811      8.050819
  O       7.478706     34.397765      7.736727
  O       7.480098     30.026577      8.138592
  O       6.240135     27.676723      8.372213
  O       8.875596     32.243558      8.157878
  O       5.889922     29.088612      6.156019
  O       5.968410     35.495745      5.802270
  O       9.203881     33.553781      5.846763
  O       9.015479     30.639626      6.028181
  Si      6.575613     38.408424      7.465676
  Si      9.140205     40.078799      7.807127
  O       5.230708     39.162676      7.633643
  O       7.853107     39.171330      8.220368
  O       6.523212     36.828000      8.021354
  O       9.082708     41.580345      8.461718
  O       7.157483     38.299603      5.906422
  O       9.239776     40.133782      6.163265
  Si     11.472136     26.028250      7.779641
  Si     14.140292     24.530503      7.851072
  O      10.120738     25.338983      8.382520
  O      12.826618     25.348287      8.371812
  O      13.918189     23.002047      8.373418
  O      11.402759     25.730460      6.161969
  O      14.167551     24.622210      6.207366
  Si     11.551552     29.203879      7.754142
  Al     11.718604     35.355570      7.693073
  Si     14.316124     33.712229      7.870543
  Si     14.218355     30.678613      7.816358
  O      10.167302     29.891444      8.301927
  O      10.139771     34.618171      8.104895
  O      13.081671     34.522435      8.468064
  O      12.887932     29.883894      8.384919
  O      11.477138     27.615474      8.100638
  O      14.410771     32.153449      8.451248
  O      11.572191     29.435526      6.128605
  O      11.998641     35.013956      5.984406
  O      14.145090     33.524837      6.240044
  O      13.983409     30.826905      6.198610
  Si     11.811446     38.610926      7.799109
  Si     14.499562     40.071317      7.863043
  O      10.495548     39.384940      8.383627
  O      13.165181     39.333239      8.413864
  O      11.762975     37.051584      8.097998
  O      14.671708     41.618023      8.371009
  O      11.902484     38.962766      6.180770
  O      14.506888     39.962598      6.218694
  Si     16.866030     25.968775      7.882651
  O      15.506740     25.224205      8.404911
  O      18.096011     25.047000      8.430133
  O      16.783769     25.997123      6.238818
  Si     16.934510     29.037430      7.805349
  Si     17.075165     35.287087      7.815903
  Si     19.707236     33.711370      7.850975
  Si     19.548547     30.630909      7.846632
  O      15.515320     29.739819      8.131487
  O      15.768917     34.420635      8.193527
  O      18.413404     34.533413      8.400143
  O      18.165107     29.935847      8.378440
  O      16.931331     27.512654      8.407093
  O      19.705257     32.161660      8.388629
  O      17.157301     28.835038      6.187806
  O      17.330838     35.352428      6.190128
  O      19.585854     33.622927      6.210276
  O      19.469973     30.691540      6.204204
  Si     17.055332     38.360152      7.814730
  O      15.848356     39.294264      8.386060
  O      18.536211     38.895372      8.257123
  O      16.980599     36.821411      8.363673
  O      16.897359     38.287129      6.176416
  O      20.726258     29.623727      8.357291
  O      21.136571     34.337212      8.334322
  H       4.074657     24.986772      8.036591
  H       1.410409     29.602015      8.036749
  H       1.410409     35.007985      8.036749
  H       4.074657     39.623228      8.036591
  H       8.948181     22.173255      8.038302
  H       8.948181     42.436745      8.038302
  H      14.277762     22.173204      8.038282
  H      14.277762     42.436796      8.038282
  H      18.960557     24.876228      8.036406
  H      18.960557     39.733772      8.036406
  H      21.624717     29.491420      8.036583
  H      21.624717     35.118580      8.036583
  H      13.349451     34.057426      5.943900
  H      11.231428     34.711053      5.494117
  H       9.024163     32.659885      5.531390
  H       9.855075     30.243244      5.734898
  H      12.376475     29.917012      5.849353
  H      14.037994     31.779814      5.943648
  H      13.640504     39.648599      5.893262
  H      11.075476     39.336773      5.839306
  H       8.570067     39.550522      5.758855
  H       6.772169     37.587567      5.386860
  H       5.198877     35.011230      5.482199
  H       3.338960     32.849124      5.731161
  H       4.193073     30.198549      5.820601
  H       6.054735     28.211720      5.783867
  H       6.937525     25.636168      5.882237
  H       9.577996     24.911418      5.857707
  H      12.251053     25.466399      5.779374
  H      14.966975     25.058080      5.873758
  H      16.942320     26.885849      5.878672
  H      17.801692     29.447279      5.804476
  H      19.483737     31.603255      5.870327
  H      18.879275     34.197640      5.867565
  H      17.107558     36.208282      5.797638
  H      16.124378     38.785494      5.863177
  P       2.839727     39.703889      9.926600
  O       2.834167     38.291898     10.355823
  O       3.143089     40.031963      8.462344
  O       1.435806     40.407031     10.223377
  O       3.786867     40.635003     10.828319
  C       5.180641     40.652617     10.571338
  C       5.927771     40.373876     11.853004
  O       5.629282     39.056617     12.350009
  C       7.437045     40.436781     11.684406
  O       8.013740     40.934965     12.866763
  C       7.823019     38.971475     11.476406
  O       9.117643     38.760794     11.960484
  C       6.744469     38.243508     12.284221
  N       6.351065     36.955697     11.694926
  C       5.072709     36.487797     11.469136
  N       5.050989     35.237643     11.083748
  C       6.362598     34.875809     11.025353
  C       6.973623     33.708442     10.573953
  N       6.344113     32.617043     10.155603
  N       8.334302     33.744503     10.600327
  C       9.057203     34.837267     10.965092
  N       8.537900     35.948087     11.384076
  C       7.190919     35.940226     11.395814
  H       0.849347     39.756641     10.618183
  H       5.455875     39.942129      9.784205
  H       5.452171     41.652823     10.217634
  H       5.607484     41.080167     12.622833
  H       7.722363     41.037222     10.811401
  H       8.914070     40.586170     12.892298
  H       7.742713     38.716738     10.419058
  H       9.440134     37.923718     11.606503
  H       7.136875     38.024304     13.286382
  H       4.212142     37.143394     11.534997
  H       5.355952     32.704721      9.981222
  H       6.837396     31.947200      9.585920
  H      10.129574     34.735095     10.864862
  H       8.836024     32.987246     10.142921
163
Coordinates from ORCA-job /data/Seafile/amp/al_surf/protonated_al_surf/frames/frame12/dry/amp_al_frame12_dry E -13417.890212346394
  Si      3.479883     33.850367      7.713919
  Si      3.477607     30.758444      7.848863
  O       2.131229     34.451490      8.363128
  O       2.130195     30.082753      8.475075
  O       3.609611     32.311856      8.321061
  O       3.416510     33.756032      6.071283
  O       3.453559     30.714119      6.210622
  Si      6.141232     26.122461      7.893861
  Si      8.784930     24.536282      7.892042
  O       4.733996     25.536421      8.476403
  O       7.439933     25.289521      8.426993
  O       8.716759     23.010840      8.461967
  O       6.178525     26.120110      6.247894
  O       8.743957     24.593843      6.249240
  Si      6.124542     29.183113      7.783543
  Si      6.195944     35.371937      7.440279
  Si      8.957426     33.777147      7.456899
  Si      8.899118     30.688170      7.656658
  O       4.836442     29.990892      8.371238
  O       4.848646     34.656098      8.067871
  O       7.478063     34.404499      7.758623
  O       7.475796     30.024735      8.130115
  O       6.242866     27.677493      8.379142
  O       8.873613     32.239319      8.158154
  O       5.878050     29.082738      6.163202
  O       5.967862     35.494138      5.819346
  O       9.187648     33.558021      5.854287
  O       9.020062     30.644853      6.026578
  Si      6.566223     38.405772      7.479546
  Si      9.123740     40.080809      7.816368
  O       5.225006     39.167115      7.632478
  O       7.843067     39.164877      8.235159
  O       6.509339     36.831414      8.049908
  O       9.051734     41.581404      8.476076
  O       7.158113     38.286968      5.923953
  O       9.222604     40.139916      6.169964
  Si     11.470116     26.025940      7.784692
  Si     14.142365     24.529877      7.849791
  O      10.121110     25.333556      8.393004
  O      12.830295     25.349900      8.369204
  O      13.914998     23.001501      8.371876
  O      11.399373     25.729817      6.166448
  O      14.168099     24.621975      6.206709
  Si     11.548730     29.201545      7.757767
  Al     11.715897     35.352606      7.698399
  Si     14.312608     33.711806      7.874419
  Si     14.214842     30.678044      7.821709
  O      10.164183     29.888088      8.305796
  O      10.136698     34.620476      8.115078
  O      13.076981     34.522198      8.473124
  O      12.885708     29.881642      8.390935
  O      11.470056     27.613939      8.107030
  O      14.403979     32.154151      8.459620
  O      11.572707     29.428365      6.131126
  O      11.992334     35.000907      5.990900
  O      14.142446     33.522733      6.243243
  O      13.983907     30.824306      6.203598
  Si     11.799882     38.607751      7.796849
  Si     14.493777     40.069761      7.864369
  O      10.486871     39.392188      8.389886
  O      13.156507     39.326743      8.413424
  O      11.751711     37.051704      8.089361
  O      14.668404     41.616047      8.372031
  O      11.889700     38.962999      6.178429
  O      14.502121     39.955225      6.218518
  Si     16.867691     25.969034      7.890137
  O      15.507155     25.223693      8.409392
  O      18.101152     25.052300      8.439164
  O      16.790473     25.993800      6.247384
  Si     16.932614     29.037713      7.808809
  Si     17.073344     35.285886      7.817452
  Si     19.706848     33.709189      7.854564
  Si     19.547548     30.628811      7.847964
  O      15.513794     29.743109      8.135010
  O      15.763909     34.423546      8.197844
  O      18.411436     34.530202      8.404037
  O      18.162764     29.939147      8.380589
  O      16.928196     27.513549      8.414976
  O      19.701365     32.158918      8.392971
  O      17.155435     28.832893      6.191930
  O      17.327437     35.349061      6.191535
  O      19.587235     33.618014      6.212648
  O      19.471244     30.685666      6.205051
  Si     17.054945     38.359938      7.818249
  O      15.842440     39.289860      8.388329
  O      18.535003     38.897527      8.264984
  O      16.979172     36.821597      8.366432
  O      16.903293     38.291301      6.181213
  O      20.725488     29.619957      8.357478
  O      21.135613     34.337918      8.335932
  H       4.074657     24.986772      8.036591
  H       1.410409     29.602015      8.036749
  H       1.410409     35.007985      8.036749
  H       4.074657     39.623228      8.036591
  H       8.948181     22.173255      8.038302
  H       8.948181     42.436745      8.038302
  H      14.277762     22.173204      8.038282
  H      14.277762     42.436796      8.038282
  H      18.960557     24.876228      8.036406
  H      18.960557     39.733772      8.036406
  H      21.624717     29.491420      8.036583
  H      21.624717     35.118580      8.036583
  H      13.340741     34.048312      5.948116
  H      11.222273     34.711591      5.497462
  H       9.032096     32.657571      5.544434
  H       9.856804     30.242501      5.733694
  H      12.376611     29.913390      5.856478
  H      14.037212     31.777563      5.948493
  H      13.630562     39.638770      5.906679
  H      11.067396     39.348314      5.838080
  H       8.556993     39.549613      5.767849
  H       6.775266     37.577054      5.398448
  H       5.200486     35.008519      5.494629
  H       3.348012     32.853893      5.734675
  H       4.179903     30.196696      5.830477
  H       6.042402     28.208241      5.786195
  H       6.940888     25.633558      5.898874
  H       9.576961     24.913394      5.866398
  H      12.246524     25.467346      5.779462
  H      14.970893     25.057125      5.879470
  H      16.945880     26.883439      5.887390
  H      17.802542     29.442729      5.807877
  H      19.481883     31.599398      5.874981
  H      18.878885     34.191374      5.870992
  H      17.113460     36.210328      5.803656
  H      16.125356     38.784623      5.870569
  P       2.851048     39.715081      9.936314
  O       2.861328     38.305290     10.376629
  O       3.143952     40.033750      8.469747
  O       1.444214     40.409907     10.229846
  O       3.795819     40.654773     10.836703
  C       5.192703     40.662297     10.593420
  C       5.928385     40.389455     11.882791
  O       5.621854     39.075812     12.383489
  C       7.441529     40.449359     11.728161
  O       8.008753     40.947401     12.918125
  C       7.824397     38.985808     11.524026
  O       9.113260     38.760397     12.016843
  C       6.737528     38.264380     12.325004
  N       6.345170     36.977723     11.729919
  C       5.067407     36.512832     11.501302
  N       5.044762     35.268399     11.099551
  C       6.357106     34.906222     11.033984
  C       6.965591     33.747575     10.560846
  N       6.340162     32.658383     10.127798
  N       8.327373     33.783300     10.584298
  C       9.050876     34.869318     10.968876
  N       8.532416     35.971044     11.412505
  C       7.184554     35.966046     11.420926
  H       0.889098     39.780075     10.699450
  H       5.467248     39.948864      9.808022
  H       5.467533     41.660336     10.237561
  H       5.613231     41.103581     12.649069
  H       7.732396     41.062055     10.864450
  H       8.901708     40.578019     12.956338
  H       7.752203     38.728199     10.467406
  H       9.400695     37.892888     11.701086
  H       7.122625     38.041777     13.330225
  H       4.204273     37.165376     11.575071
  H       5.348796     32.738794      9.959071
  H       6.838880     32.013450      9.534839
  H      10.122800     34.768601     10.862822
  H       8.827982     33.035870     10.106605
163
Coordinates from ORCA-job /data/Seafile/amp/al_surf/protonated_al_surf/frames/frame12/dry/amp_al_frame12_dry E -13417.889775047788
  Si      3.480759     33.854646      7.707842
  Si      3.477386     30.761557      7.838872
  O       2.147949     34.483581      8.373035
  O       2.129545     30.089471      8.466407
  O       3.606025     32.315736      8.309208
  O       3.398384     33.756538      6.068442
  O       3.453727     30.715556      6.199273
  Si      6.140499     26.119671      7.889192
  Si      8.784040     24.536576      7.886138
  O       4.747085     25.515493      8.482680
  O       7.442052     25.294982      8.421750
  O       8.707085     23.010823      8.454202
  O       6.169606     26.114717      6.243214
  O       8.742273     24.597181      6.243194
  Si      6.122817     29.184113      7.774967
  Si      6.205286     35.369821      7.433049
  Si      8.963635     33.770619      7.452571
  Si      8.899080     30.685720      7.657546
  O       4.835278     29.993868      8.362413
  O       4.856531     34.652298      8.055415
  O       7.484693     34.401140      7.752197
  O       7.475873     30.021843      8.133093
  O       6.231277     27.677023      8.372037
  O       8.870899     32.236817      8.159203
  O       5.880930     29.088504      6.154481
  O       5.977711     35.499373      5.813397
  O       9.194342     33.546939      5.851429
  O       9.020085     30.640488      6.028420
  Si      6.577923     38.405983      7.485968
  Si      9.134410     40.078540      7.818226
  O       5.233396     39.160519      7.644592
  O       7.851837     39.167044      8.243424
  O       6.515190     36.826245      8.046688
  O       9.086125     41.583247      8.467474
  O       7.167237     38.289430      5.928909
  O       9.219665     40.134553      6.172502
  Si     11.471748     26.023154      7.782116
  Si     14.140930     24.530207      7.851543
  O      10.122400     25.329608      8.386208
  O      12.828586     25.348258      8.373100
  O      13.910431     23.001337      8.366464
  O      11.402692     25.728453      6.164453
  O      14.168489     24.626313      6.208733
  Si     11.550251     29.198107      7.757385
  Al     11.721529     35.352548      7.693635
  Si     14.318692     33.707887      7.875009
  Si     14.214961     30.675203      7.821094
  O      10.165885     29.887229      8.304126
  O      10.145454     34.609237      8.113026
  O      13.084772     34.521745      8.469894
  O      12.886183     29.877792      8.390092
  O      11.471190     27.610646      8.103686
  O      14.406896     32.149686      8.457967
  O      11.572514     29.427354      6.131214
  O      12.000082     34.999812      5.986148
  O      14.149847     33.519582      6.244510
  O      13.979767     30.823494      6.203654
  Si     11.808049     38.609455      7.793453
  Si     14.500172     40.069604      7.858354
  O      10.499038     39.392946      8.381281
  O      13.166710     39.326329      8.407237
  O      11.758179     37.049846      8.087813
  O      14.675461     41.616685      8.363913
  O      11.897566     38.961344      6.173112
  O      14.507791     39.957044      6.213488
  Si     16.866410     25.967015      7.888744
  O      15.508607     25.217944      8.409469
  O      18.100333     25.051196      8.436551
  O      16.787417     25.995420      6.245331
  Si     16.932709     29.035172      7.809742
  Si     17.077844     35.283390      7.819667
  Si     19.709869     33.706744      7.852398
  Si     19.545286     30.627293      7.847057
  O      15.512729     29.737688      8.132475
  O      15.773048     34.413317      8.197754
  O      18.417884     34.530921      8.404499
  O      18.162228     29.935675      8.384106
  O      16.926924     27.510993      8.414231
  O      19.708799     32.156519      8.392039
  O      17.157376     28.830261      6.192647
  O      17.331768     35.347512      6.193489
  O      19.583585     33.615446      6.211955
  O      19.459096     30.691941      6.205130
  Si     17.055293     38.356935      7.813581
  O      15.850026     39.293730      8.383339
  O      18.537927     38.892438      8.250578
  O      16.981221     36.819083      8.367334
  O      16.896641     38.281668      6.176841
  O      20.720251     29.612098      8.346366
  O      21.141846     34.331749      8.328822
  H       4.074657     24.986772      8.036591
  H       1.410409     29.602015      8.036749
  H       1.410409     35.007985      8.036749
  H       4.074657     39.623228      8.036591
  H       8.948181     22.173255      8.038302
  H       8.948181     42.436745      8.038302
  H      14.277762     22.173204      8.038282
  H      14.277762     42.436796      8.038282
  H      18.960557     24.876228      8.036406
  H      18.960557     39.733772      8.036406
  H      21.624717     29.491420      8.036583
  H      21.624717     35.118580      8.036583
  H      13.352808     34.050323      5.946573
  H      11.232219     34.709711      5.489224
  H       9.037101     32.645642      5.543410
  H       9.856484     30.237332      5.735085
  H      12.373990     29.914458      5.853238
  H      14.035508     31.776585      5.948983
  H      13.640964     39.639588      5.893038
  H      11.073508     39.344560      5.835245
  H       8.554530     39.539203      5.778393
  H       6.786136     37.574899      5.409578
  H       5.204185     35.024927      5.488327
  H       3.339531     32.852831      5.733322
  H       4.183183     30.203272      5.820002
  H       6.041314     28.211443      5.780803
  H       6.930378     25.631647      5.886684
  H       9.575483     24.913601      5.859002
  H      12.250669     25.467434      5.779056
  H      14.969899     25.060318      5.877009
  H      16.945572     26.884288      5.884811
  H      17.799094     29.443680      5.806787
  H      19.470924     31.604875      5.873713
  H      18.877271     34.190999      5.869907
  H      17.114487     36.204673      5.801794
  H      16.122500     38.777974      5.862912
  P       2.830789     39.723782      9.919647
  O       2.809364     38.313458     10.356131
  O       3.140835     40.035990      8.454548
  O       1.431898     40.448443     10.204040
  O       3.788934     40.644237     10.820092
  C       5.186715     40.622736     10.583997
  C       5.908173     40.290359     11.867205
  O       5.550147     38.975690     12.328010
  C       7.424400     40.302389     11.729774
  O       7.991694     40.780691     12.926663
  C       7.770523     38.830030     11.522060
  O       9.043036     38.569271     12.028748
  C       6.646006     38.135012     12.298659
  N       6.252579     36.852550     11.703081
  C       4.980194     36.368556     11.485898
  N       4.975193     35.117909     11.097590
  C       6.292609     34.774657     11.034162
  C       6.922252     33.617625     10.580242
  N       6.310967     32.516646     10.162925
  N       8.282971     33.677177     10.603295
  C       8.989264     34.780096     10.963616
  N       8.452233     35.878709     11.389057
  C       7.103962     35.849866     11.402512
  H       0.835975     39.809410     10.603905
  H       5.449849     39.924731      9.782434
  H       5.492786     41.621630     10.259673
  H       5.610110     40.993187     12.649783
  H       7.745562     40.904442     10.871725
  H       8.872647     40.387437     12.978417
  H       7.703421     38.585503     10.460357
  H       9.207020     37.621450     11.912303
  H       7.002204     37.912371     13.315873
  H       4.112403     37.015431     11.558968
  H       5.318959     32.586369      9.988855
  H       6.813211     31.857038      9.588412
  H      10.061666     34.698385     10.852215
  H       8.794196     32.928672     10.142621
163
Coordinates from ORCA-job /data/Seafile/amp/al_surf/protonated_al_surf/frames/frame12/dry/amp_al_frame12_dry E -13417.890437966123
  Si      3.481862     33.846144      7.693226
  Si      3.484693     30.755310      7.824806
  O       2.146265     34.477423      8.366780
  O       2.136149     30.088232      8.453646
  O       3.610505     32.311258      8.290049
  O       3.396905     33.745100      6.056514
  O       3.460594     30.705521      6.182842
  Si      6.144321     26.120220      7.877496
  Si      8.784519     24.534961      7.885133
  O       4.754815     25.515828      8.470162
  O       7.439132     25.292982      8.413632
  O       8.706279     23.009523      8.454015
  O       6.176222     26.114080      6.231763
  O       8.746953     24.596565      6.241183
  Si      6.129215     29.185392      7.765085
  Si      6.204033     35.365815      7.412530
  Si      8.962637     33.769090      7.446368
  Si      8.899623     30.692570      7.663297
  O       4.838083     29.986967      8.353469
  O       4.855105     34.651849      8.038450
  O       7.481758     34.400875      7.734164
  O       7.479094     30.025550      8.140600
  O       6.233275     27.676717      8.365279
  O       8.867497     32.243627      8.164163
  O       5.894212     29.094739      6.144547
  O       5.969708     35.498070      5.795963
  O       9.204259     33.541026      5.847676
  O       9.022841     30.639969      6.036418
  Si      6.577184     38.406389      7.462323
  Si      9.137180     40.076037      7.802829
  O       5.232293     39.160767      7.635301
  O       7.854193     39.167227      8.216505
  O       6.511574     36.825272      8.015268
  O       9.084952     41.578776      8.451923
  O       7.160917     38.294371      5.904706
  O       9.230132     40.132682      6.161504
  Si     11.471904     26.024136      7.786953
  Si     14.137829     24.530313      7.859490
  O      10.121633     25.329746      8.385751
  O      12.824555     25.346447      8.381898
  O      13.911938     23.000642      8.370195
  O      11.403347     25.733743      6.170047
  O      14.166887     24.626344      6.216372
  Si     11.551953     29.198382      7.762214
  Al     11.722584     35.352186      7.684104
  Si     14.321166     33.705856      7.871167
  Si     14.217047     30.674518      7.822373
  O      10.168586     29.892311      8.307070
  O      10.145112     34.607449      8.101158
  O      13.087466     34.521510      8.462433
  O      12.888954     29.876792      8.391464
  O      11.473339     27.610850      8.108623
  O      14.411357     32.149191      8.454153
  O      11.574259     29.430006      6.137508
  O      12.004973     35.003525      5.975226
  O      14.150337     33.517633      6.243022
  O      13.978282     30.823000      6.205033
  Si     11.813096     38.616980      7.786455
  Si     14.501468     40.071416      7.854621
  O      10.499584     39.391647      8.369727
  O      13.167992     39.335247      8.403965
  O      11.760687     37.052755      8.084052
  O      14.677611     41.618598      8.363038
  O      11.904166     38.972725      6.167993
  O      14.508075     39.963342      6.212230
  Si     16.862703     25.966653      7.886469
  O      15.508900     25.214732      8.411494
  O      18.096721     25.049368      8.428069
  O      16.777326     26.002637      6.242273
  Si     16.933473     29.034856      7.813660
  Si     17.078965     35.286143      7.820467
  Si     19.709866     33.709025      7.850706
  Si     19.547159     30.627755      7.851425
  O      15.514006     29.735617      8.137457
  O      15.775115     34.412741      8.192019
  O      18.418487     34.533894      8.403784
  O      18.165510     29.931177      8.388672
  O      16.927436     27.510234      8.413179
  O      19.714523     32.158529      8.390789
  O      17.155923     28.834379      6.194792
  O      17.334730     35.354177      6.194231
  O      19.580302     33.619881      6.212373
  O      19.456850     30.697182      6.209756
  Si     17.051845     38.359306      7.813521
  O      15.849988     39.298097      8.380500
  O      18.533170     38.896055      8.249605
  O      16.980902     36.820604      8.370094
  O      16.891290     38.282729      6.176122
  O      20.722582     29.615371      8.351440
  O      21.142981     34.331634      8.328604
  H       4.074657     24.986772      8.036591
  H       1.410409     29.602015      8.036749
  H       1.410409     35.007985      8.036749
  H       4.074657     39.623228      8.036591
  H       8.948181     22.173255      8.038302
  H       8.948181     42.436745      8.038302
  H      14.277762     22.173204      8.038282
  H      14.277762     42.436796      8.038282
  H      18.960557     24.876228      8.036406
  H      18.960557     39.733772      8.036406
  H      21.624717     29.491420      8.036583
  H      21.624717     35.118580      8.036583
  H      13.359898     34.056008      5.941644
  H      11.238526     34.709954      5.477254
  H       9.040215     32.643442      5.534414
  H       9.859290     30.236787      5.743440
  H      12.376005     29.913330      5.853934
  H      14.035239     31.775720      5.949828
  H      13.646895     39.652250      5.874207
  H      11.075970     39.343767      5.827545
  H       8.558843     39.546782      5.762401
  H       6.773201     37.579801      5.390803
  H       5.196311     35.022080      5.474494
  H       3.333690     32.842674      5.720764
  H       4.192650     30.197711      5.805273
  H       6.058807     28.216246      5.775216
  H       6.935878     25.634618      5.869806
  H       9.579947     24.913965      5.858691
  H      12.250661     25.472009      5.785286
  H      14.963533     25.061424      5.875892
  H      16.934932     26.890647      5.880523
  H      17.795868     29.447398      5.808206
  H      19.470397     31.607734      5.873685
  H      18.874993     34.194687      5.867626
  H      17.113556     36.207355      5.797535
  H      16.118938     38.777271      5.856927
  P       2.827182     39.709271      9.921557
  O       2.814649     38.299056     10.353957
  O       3.138192     40.033520      8.457002
  O       1.419394     40.420959     10.204074
  O       3.765754     40.642063     10.823837
  C       5.161121     40.662447     10.585918
  C       5.894342     40.353643     11.866900
  O       5.581170     39.026527     12.324499
  C       7.403046     40.411807     11.723227
  O       7.964386     40.886835     12.923588
  C       7.787227     38.951204     11.491778
  O       9.079614     38.736458     11.974858
  C       6.695495     38.209990     12.277002
  N       6.307206     36.925481     11.682183
  C       5.028680     36.452484     11.463222
  N       5.010275     35.200421     11.079781
  C       6.322362     34.843435     11.024545
  C       6.939580     33.673719     10.579433
  N       6.304330     32.589334     10.156694
  N       8.298659     33.713590     10.609764
  C       9.018693     34.807366     10.975601
  N       8.494988     35.913818     11.391122
  C       7.147973     35.906558     11.391229
  H       0.830740     39.770960     10.590578
  H       5.449988     39.967032      9.793173
  H       5.447223     41.667253     10.256117
  H       5.565948     41.041661     12.647707
  H       7.714062     41.023780     10.868869
  H       8.857212     40.525112     12.964675
  H       7.703753     38.716778     10.426278
  H       9.351904     37.849489     11.705993
  H       7.067231     37.988484     13.285207
  H       4.168548     37.108865     11.537492
  H       5.315788     32.686987      9.972312
  H       6.787570     31.900486      9.597642
  H      10.090802     34.709398     10.875511
  H       8.800296     32.954799     10.160454
163
Coordinates from ORCA-job /data/Seafile/amp/al_surf/protonated_al_surf/frames/frame12/dry/amp_al_frame12_dry E -13417.890884834353
  Si      3.482745     33.851806      7.709179
  Si      3.479919     30.760807      7.838924
  O       2.142161     34.470619      8.367394
  O       2.130370     30.090848      8.463446
  O       3.608473     32.314634      8.310282
  O       3.410707     33.756540      6.067888
  O       3.458175     30.716131      6.198730
  Si      6.142723     26.123149      7.887891
  Si      8.783945     24.533156      7.891591
  O       4.741306     25.531570      8.469978
  O       7.439429     25.291683      8.422057
  O       8.704343     23.008120      8.457905
  O       6.180985     26.119238      6.242200
  O       8.747018     24.594617      6.248105
  Si      6.123717     29.185490      7.779605
  Si      6.203836     35.369672      7.436502
  Si      8.962104     33.771217      7.465397
  Si      8.898209     30.688395      7.669521
  O       4.834428     29.990842      8.366553
  O       4.855126     34.653886      8.060226
  O       7.483478     34.403805      7.758248
  O       7.474197     30.025768      8.141439
  O       6.236342     27.678253      8.376864
  O       8.870628     32.238973      8.172690
  O       5.884499     29.091373      6.158515
  O       5.977637     35.497715      5.817324
  O       9.199552     33.548416      5.865159
  O       9.022899     30.642688      6.041435
  Si      6.571671     38.405007      7.477434
  Si      9.130449     40.078476      7.814404
  O       5.227568     39.161394      7.638845
  O       7.845892     39.170821      8.230360
  O       6.512952     36.829835      8.044831
  O       9.071455     41.581601      8.469519
  O       7.164621     38.287658      5.923387
  O       9.228649     40.135988      6.170654
  Si     11.469872     26.023014      7.791977
  Si     14.138968     24.528773      7.857210
  O      10.121354     25.326530      8.395662
  O      12.827501     25.346965      8.379245
  O      13.910585     22.999474      8.371403
  O      11.400549     25.733724      6.174023
  O      14.165205     24.623963      6.214250
  Si     11.548249     29.197566      7.769223
  Al     11.722916     35.347266      7.703109
  Si     14.318966     33.704064      7.881366
  Si     14.214789     30.672436      7.830916
  O      10.163492     29.885634      8.317015
  O      10.144481     34.609940      8.122480
  O      13.085120     34.517469      8.478721
  O      12.886204     29.875984      8.400847
  O      11.468936     27.609955      8.117150
  O      14.408539     32.147768      8.466866
  O      11.572270     29.427966      6.144171
  O      12.000428     34.995503      5.994723
  O      14.145884     33.514715      6.252382
  O      13.979706     30.819849      6.213280
  Si     11.807347     38.608666      7.796720
  Si     14.498167     40.069809      7.861577
  O      10.493595     39.390735      8.384737
  O      13.162931     39.329128      8.413922
  O      11.757221     37.049737      8.093306
  O      14.674726     41.617419      8.367700
  O      11.897582     38.962059      6.177830
  O      14.504001     39.953545      6.217752
  Si     16.863773     25.965490      7.891137
  O      15.507247     25.216643      8.414033
  O      18.097229     25.046627      8.432358
  O      16.780896     25.998160      6.248119
  Si     16.932177     29.033903      7.816317
  Si     17.077126     35.284508      7.823366
  Si     19.709564     33.707408      7.854482
  Si     19.546648     30.625901      7.852328
  O      15.512550     29.735387      8.144036
  O      15.771006     34.415724      8.200764
  O      18.416939     34.530920      8.408003
  O      18.163358     29.934216      8.388639
  O      16.928637     27.509233      8.418783
  O      19.708830     32.156434      8.393855
  O      17.152060     28.833348      6.197623
  O      17.329532     35.349101      6.196651
  O      19.582647     33.616516      6.214570
  O      19.462210     30.688215      6.209739
  Si     17.054067     38.358075      7.817931
  O      15.848380     39.294695      8.386080
  O      18.536265     38.894375      8.257545
  O      16.979868     36.820163      8.372925
  O      16.897864     38.285166      6.181614
  O      20.723575     29.614600      8.355779
  O      21.141395     34.332904      8.332033
  H       4.074657     24.986772      8.036591
  H       1.410409     29.602015      8.036749
  H       1.410409     35.007985      8.036749
  H       4.074657     39.623228      8.036591
  H       8.948181     22.173255      8.038302
  H       8.948181     42.436745      8.038302
  H      14.277762     22.173204      8.038282
  H      14.277762     42.436796      8.038282
  H      18.960557     24.876228      8.036406
  H      18.960557     39.733772      8.036406
  H      21.624717     29.491420      8.036583
  H      21.624717     35.118580      8.036583
  H      13.349111     34.046596      5.954159
  H      11.232274     34.708482      5.497293
  H       9.041408     32.649617      5.551127
  H       9.859735     30.240043      5.748499
  H      12.375167     29.912741      5.866041
  H      14.034886     31.773267      5.958572
  H      13.634769     39.642042      5.896108
  H      11.073008     39.340202      5.836715
  H       8.560360     39.547923      5.770885
  H       6.786467     37.570155      5.404009
  H       5.207084     35.020707      5.489593
  H       3.347898     32.855722      5.727987
  H       4.189452     30.204887      5.819878
  H       6.050629     28.216639      5.782943
  H       6.943028     25.636548      5.888420
  H       9.580816     24.913830      5.867324
  H      12.247453     25.472960      5.785862
  H      14.965209     25.059703      5.881403
  H      16.938066     26.887182      5.887693
  H      17.794654     29.446279      5.811440
  H      19.475869     31.600882      5.877678
  H      18.876230     34.192113      5.872351
  H      17.110157     36.207561      5.804506
  H      16.121731     38.779111      5.867636
  P       2.834420     39.731940      9.927734
  O       2.833099     38.328436     10.385134
  O       3.137615     40.031944      8.457620
  O       1.428691     40.440525     10.202627
  O       3.772765     40.681684     10.820432
  C       5.170970     40.692757     10.592834
  C       5.895075     40.395029     11.884383
  O       5.577381     39.071888     12.354650
  C       7.407621     40.451916     11.751636
  O       7.961359     40.926500     12.957933
  C       7.786604     38.990702     11.525682
  O       9.077728     38.757317     12.010528
  C       6.694816     38.260992     12.313103
  N       6.309042     36.976160     11.713530
  C       5.031611     36.508476     11.483185
  N       5.011600     35.262478     11.084869
  C       6.323761     34.902175     11.028044
  C       6.937416     33.741188     10.563451
  N       6.307827     32.658486     10.124883
  N       8.297708     33.777659     10.594376
  C       9.019288     34.863269     10.984298
  N       8.496681     35.963199     11.422755
  C       7.149387     35.960859     11.414465
  H       0.861142     39.806586     10.650989
  H       5.456373     39.992208      9.800607
  H       5.457504     41.695462     10.256996
  H       5.569826     41.094327     12.658829
  H       7.720923     41.073757     10.904761
  H       8.850249     40.550464     13.005851
  H       7.704784     38.748910     10.464433
  H       9.342494     37.868698     11.731176
  H       7.063299     38.039940     13.323686
  H       4.169625     37.163377     11.555914
  H       5.317177     32.746819      9.946193
  H       6.800819     31.995689      9.544546
  H      10.091939     34.763205     10.886039
  H       8.799151     33.027540     10.123591
163
Coordinates from ORCA-job /data/Seafile/amp/al_surf/protonated_al_surf/frames/frame12/dry/amp_al_frame12_dry E -13417.891014679173
  Si      3.481205     33.850450      7.708519
  Si      3.481295     30.759646      7.837496
  O       2.142218     34.471982      8.368972
  O       2.132591     30.088350      8.461499
  O       3.607923     32.313666      8.309257
  O       3.405818     33.754249      6.067803
  O       3.460749     30.716062      6.197002
  Si      6.144327     26.122781      7.886248
  Si      8.785404     24.532457      7.891840
  O       4.743658     25.530439      8.468187
  O       7.440063     25.290596      8.421205
  O       8.708512     23.007953      8.459253
  O       6.183726     26.119476      6.240709
  O       8.748427     24.593257      6.248241
  Si      6.124924     29.185190      7.778138
  Si      6.202695     35.367397      7.435220
  Si      8.961670     33.771440      7.467085
  Si      8.898419     30.688574      7.669136
  O       4.835338     29.989620      8.365608
  O       4.853661     34.653109      8.058188
  O       7.481283     34.400980      7.757902
  O       7.474723     30.026225      8.142087
  O       6.237186     27.677800      8.375778
  O       8.870617     32.238979      8.172595
  O       5.885976     29.091599      6.157163
  O       5.976485     35.495308      5.816182
  O       9.203613     33.550689      5.867150
  O       9.022767     30.641211      6.041377
  Si      6.570517     38.402886      7.474495
  Si      9.129793     40.076802      7.811298
  O       5.227579     39.159551      7.638495
  O       7.846376     39.167395      8.225908
  O       6.512085     36.827603      8.042082
  O       9.064834     41.579462      8.465331
  O       7.158977     38.286139      5.918650
  O       9.229868     40.134189      6.167811
  Si     11.470747     26.023198      7.792011
  Si     14.139530     24.528433      7.858861
  O      10.121918     25.327540      8.395637
  O      12.827676     25.346582      8.379996
  O      13.912974     22.999427      8.374241
  O      11.401096     25.733567      6.174284
  O      14.166430     24.621907      6.215839
  Si     11.548729     29.198002      7.769206
  Al     11.722146     35.348422      7.705816
  Si     14.318429     33.704499      7.882343
  Si     14.215212     30.672996      7.831309
  O      10.163763     29.885448      8.316933
  O      10.142541     34.611223      8.125671
  O      13.084200     34.517023      8.480265
  O      12.886775     29.876262      8.400992
  O      11.470580     27.610214      8.116635
  O      14.408839     32.148193      8.467292
  O      11.572917     29.429927      6.144606
  O      11.999454     34.998822      5.996804
  O      14.144508     33.516443      6.253609
  O      13.979818     30.821098      6.213631
  Si     11.808276     38.610096      7.796906
  Si     14.499010     40.070264      7.860972
  O      10.493753     39.391828      8.381083
  O      13.163350     39.331610      8.413493
  O      11.756722     37.051001      8.098059
  O      14.676941     41.618281      8.366160
  O      11.899593     38.960259      6.177119
  O      14.504815     39.952660      6.217551
  Si     16.863776     25.966109      7.891621
  O      15.507957     25.216508      8.414981
  O      18.098368     25.049310      8.433006
  O      16.780542     25.998675      6.248612
  Si     16.932502     29.034563      7.817122
  Si     17.076838     35.285152      7.824990
  Si     19.709277     33.708241      7.855645
  Si     19.547570     30.626501      7.854131
  O      15.513171     29.736440      8.145165
  O      15.770180     34.416636      8.201987
  O      18.416216     34.530952      8.409438
  O      18.164323     29.933836      8.389729
  O      16.927959     27.509956      8.419137
  O      19.709483     32.157229      8.395026
  O      17.151608     28.834341      6.198161
  O      17.329398     35.349698      6.198205
  O      19.582504     33.617774      6.216018
  O      19.463831     30.688610      6.211583
  Si     17.054168     38.358752      7.819063
  O      15.848676     39.295360      8.386532
  O      18.535916     38.895685      8.259399
  O      16.980367     36.820734      8.374667
  O      16.898532     38.285655      6.182676
  O      20.725088     29.616577      8.358951
  O      21.140980     34.333932      8.333538
  H       4.074657     24.986772      8.036591
  H       1.410409     29.602015      8.036749
  H       1.410409     35.007985      8.036749
  H       4.074657     39.623228      8.036591
  H       8.948181     22.173255      8.038302
  H       8.948181     42.436745      8.038302
  H      14.277762     22.173204      8.038282
  H      14.277762     42.436796      8.038282
  H      18.960557     24.876228      8.036406
  H      18.960557     39.733772      8.036406
  H      21.624717     29.491420      8.036583
  H      21.624717     35.118580      8.036583
  H      13.348874     34.050534      5.955695
  H      11.231036     34.710931      5.499650
  H       9.036706     32.655124      5.548078
  H       9.860312     30.240278      5.748549
  H      12.376504     29.913470      5.866098
  H      14.033204     31.774525      5.959353
  H      13.637132     39.639212      5.894546
  H      11.072925     39.333362      5.834416
  H       8.558623     39.551641      5.765296
  H       6.782255     37.566802      5.401995
  H       5.204988     35.019973      5.488411
  H       3.341739     32.852919      5.728101
  H       4.190201     30.203077      5.818444
  H       6.054162     28.217032      5.781690
  H       6.945343     25.636586      5.886413
  H       9.581872     24.912729      5.867213
  H      12.247198     25.471613      5.786080
  H      14.965722     25.057824      5.881755
  H      16.937296     26.887241      5.887315
  H      17.795046     29.445289      5.811917
  H      19.477807     31.600694      5.878535
  H      18.875799     34.192334      5.873195
  H      17.113695     36.207735      5.806103
  H      16.122471     38.778634      5.867711
  P       2.838397     39.713155      9.926481
  O       2.836181     38.304891     10.368959
  O       3.136277     40.029107      8.459473
  O       1.432650     40.420655     10.215607
  O       3.784615     40.651174     10.821664
  C       5.181106     40.656631     10.584517
  C       5.911185     40.360501     11.871228
  O       5.589515     39.041494     12.347002
  C       7.423039     40.407270     11.730903
  O       7.985649     40.879266     12.934307
  C       7.793385     38.943785     11.506893
  O       9.086400     38.707502     11.982305
  C       6.701920     38.222710     12.303909
  N       6.311096     36.936848     11.712633
  C       5.033024     36.470874     11.476772
  N       5.013227     35.222230     11.084041
  C       6.325546     34.860413     11.033994
  C       6.941303     33.696117     10.577613
  N       6.312783     32.611959     10.140776
  N       8.301683     33.732591     10.615073
  C       9.022225     34.820500     10.999228
  N       8.498139     35.923429     11.427356
  C       7.150795     35.920271     11.417905
  H       0.856554     39.777381     10.635720
  H       5.461015     39.951260      9.795441
  H       5.467617     41.655873     10.241882
  H       5.592253     41.063637     12.644621
  H       7.737490     41.024694     10.880971
  H       8.873498     40.502150     12.976452
  H       7.702721     38.701560     10.444758
  H       9.333452     37.810523     11.720802
  H       7.074259     38.004515     13.314011
  H       4.172027     37.127653     11.542372
  H       5.322923     32.698242      9.959055
  H       6.807387     31.940283      9.572493
  H      10.095177     34.719621     10.906646
  H       8.804981     32.979501     10.156836
163
Coordinates from ORCA-job /data/Seafile/amp/al_surf/protonated_al_surf/frames/frame12/dry/amp_al_frame12_dry E -13417.891070886666
  Si      3.482896     33.852870      7.704671
  Si      3.481077     30.761914      7.833038
  O       2.146772     34.478603      8.370293
  O       2.129916     30.096021      8.458012
  O       3.610904     32.316288      8.304220
  O       3.401978     33.757030      6.064861
  O       3.459527     30.716941      6.192262
  Si      6.141910     26.126743      7.880279
  Si      8.780689     24.533593      7.888524
  O       4.737674     25.543390      8.462273
  O       7.434892     25.291883      8.416793
  O       8.698425     23.008137      8.454054
  O       6.181280     26.120386      6.234863
  O       8.746105     24.596840      6.244884
  Si      6.125614     29.189036      7.771996
  Si      6.204607     35.370669      7.428228
  Si      8.963699     33.773693      7.459172
  Si      8.899657     30.692703      7.666722
  O       4.834340     29.990157      8.360203
  O       4.856647     34.654895      8.051745
  O       7.483792     34.405130      7.748794
  O       7.474720     30.031551      8.137087
  O       6.239956     27.681580      8.369583
  O       8.871059     32.243496      8.169153
  O       5.886538     29.096336      6.151170
  O       5.976158     35.501641      5.809958
  O       9.204797     33.549128      5.859820
  O       9.027342     30.644583      6.039243
  Si      6.573763     38.406875      7.472479
  Si      9.134086     40.078579      7.810368
  O       5.231805     39.165799      7.640726
  O       7.851366     39.168364      8.224066
  O       6.511487     36.830295      8.036246
  O       9.073903     41.581244      8.464353
  O       7.158973     38.291398      5.915629
  O       9.231561     40.137666      6.167292
  Si     11.467441     26.023365      7.791841
  Si     14.137042     24.528917      7.858158
  O      10.118534     25.326124      8.393664
  O      12.824278     25.346179      8.379374
  O      13.911333     22.999481      8.372865
  O      11.397749     25.735958      6.173886
  O      14.164444     24.622819      6.215155
  Si     11.548191     29.197699      7.769728
  Al     11.725614     35.348777      7.697369
  Si     14.320789     33.703032      7.878746
  Si     14.215798     30.671315      7.830572
  O      10.164141     29.888901      8.315734
  O      10.145230     34.612888      8.116574
  O      13.086033     34.516366      8.474077
  O      12.887006     29.875026      8.400595
  O      11.466737     27.610125      8.118028
  O      14.410550     32.146992      8.464644
  O      11.573388     29.428146      6.144947
  O      12.005069     34.997813      5.988844
  O      14.148597     33.513789      6.250222
  O      13.979585     30.818705      6.212924
  Si     11.811471     38.612552      7.793583
  Si     14.501544     40.070874      7.859443
  O      10.497792     39.392873      8.378915
  O      13.166668     39.332265      8.411256
  O      11.760633     37.051465      8.089033
  O      14.678692     41.619022      8.364534
  O      11.902741     38.967592      6.174677
  O      14.508179     39.954642      6.216209
  Si     16.862429     25.964848      7.888783
  O      15.505806     25.217226      8.413304
  O      18.094895     25.043862      8.428329
  O      16.777695     25.999395      6.245657
  Si     16.933075     29.033310      7.816278
  Si     17.078045     35.285393      7.823421
  Si     19.709811     33.707839      7.853675
  Si     19.547925     30.626080      7.852920
  O      15.513230     29.733711      8.144941
  O      15.771988     34.415757      8.199551
  O      18.417383     34.531364      8.407532
  O      18.164781     29.932714      8.388636
  O      16.930069     27.508393      8.417038
  O      19.710591     32.156945      8.393552
  O      17.151707     28.834161      6.197064
  O      17.330816     35.351095      6.196690
  O      19.582085     33.617168      6.214379
  O      19.463596     30.689291      6.210525
  Si     17.055122     38.358879      7.818014
  O      15.851197     39.296885      8.385495
  O      18.536999     38.895624      8.257730
  O      16.981344     36.820627      8.373725
  O      16.898319     38.284777      6.181458
  O      20.724901     29.615884      8.357785
  O      21.141951     34.332776      8.331128
  H       4.074657     24.986772      8.036591
  H       1.410409     29.602015      8.036749
  H       1.410409     35.007985      8.036749
  H       4.074657     39.623228      8.036591
  H       8.948181     22.173255      8.038302
  H       8.948181     42.436745      8.038302
  H      14.277762     22.173204      8.038282
  H      14.277762     42.436796      8.038282
  H      18.960557     24.876228      8.036406
  H      18.960557     39.733772      8.036406
  H      21.624717     29.491420      8.036583
  H      21.624717     35.118580      8.036583
  H      13.353965     34.048331      5.950724
  H      11.237107     34.710762      5.490240
  H       9.045032     32.651384      5.544962
  H       9.864280     30.241037      5.748049
  H      12.377041     29.911188      5.865630
  H      14.034924     31.771842      5.957897
  H      13.641954     39.642010      5.890005
  H      11.077004     39.343176      5.833187
  H       8.561217     39.553607      5.764644
  H       6.780274     37.572237      5.400511
  H       5.203926     35.027313      5.482699
  H       3.338827     32.855824      5.725193
  H       4.189496     30.205201      5.814010
  H       6.054958     28.221553      5.775927
  H       6.944360     25.639981      5.880529
  H       9.579313     24.918025      5.865104
  H      12.243619     25.474414      5.785406
  H      14.963173     25.058495      5.879725
  H      16.933761     26.888116      5.884637
  H      17.795010     29.444690      5.810786
  H      19.476587     31.601123      5.877003
  H      18.875248     34.191097      5.871132
  H      17.116082     36.208835      5.804555
  H      16.122009     38.776288      5.865758
  P       2.836048     39.722788      9.927141
  O       2.837394     38.319017     10.383693
  O       3.133062     40.025568      8.456296
  O       1.426894     40.427615     10.206967
  O       3.777260     40.673658     10.813070
  C       5.175245     40.677045     10.584052
  C       5.899455     40.370980     11.871923
  O       5.576879     39.047957     12.335925
  C       7.411477     40.420513     11.738549
  O       7.967534     40.887685     12.946655
  C       7.785095     38.958990     11.508610
  O       9.076722     38.727930     11.988101
  C       6.691291     38.231613     12.298555
  N       6.305714     36.944948     11.705466
  C       5.028356     36.474831     11.474950
  N       5.011825     35.226091     11.082615
  C       6.324830     34.868683     11.027954
  C       6.943017     33.705910     10.570263
  N       6.315240     32.621190     10.135535
  N       8.303245     33.746686     10.601484
  C       9.021655     34.836368     10.980151
  N       8.495574     35.938081     11.408344
  C       7.147974     35.930903     11.406987
  H       0.859315     39.791907     10.648844
  H       5.458427     39.977073      9.792286
  H       5.466515     41.678615     10.250170
  H       5.574986     41.067604     12.648520
  H       7.729563     41.040330     10.891954
  H       8.853716     40.507706     12.995117
  H       7.698349     38.721394     10.444550
  H       9.322022     37.825199     11.741728
  H       7.058622     38.014459     13.310142
  H       4.166539     37.130456     11.542813
  H       5.324400     32.707918      9.955417
  H       6.808723     31.951217      9.563552
  H      10.094568     34.738715     10.882371
  H       8.807776     32.993872     10.141610
163
Coordinates from ORCA-job /data/Seafile/amp/al_surf/protonated_al_surf/frames/frame12/dry/amp_al_frame12_dry E -13417.891150044979
  Si      3.482054     33.851020      7.705762
  Si      3.482135     30.760505      7.833943
  O       2.144303     34.475180      8.369417
  O       2.132439     30.091494      8.458501
  O       3.609824     32.314807      8.306251
  O       3.402873     33.754941      6.065918
  O       3.461151     30.717396      6.193082
  Si      6.143014     26.126927      7.879693
  Si      8.781603     24.533358      7.889485
  O       4.737476     25.545397      8.459614
  O       7.435237     25.291399      8.416868
  O       8.700042     23.007974      8.455080
  O       6.184168     26.120774      6.234400
  O       8.747685     24.596540      6.245786
  Si      6.126805     29.188791      7.772242
  Si      6.203350     35.369666      7.430967
  Si      8.963151     33.774797      7.463399
  Si      8.900838     30.693595      7.668456
  O       4.835817     29.989737      8.360971
  O       4.855271     34.653480      8.053697
  O       7.482580     34.404729      7.753243
  O       7.475508     30.032198      8.136616
  O       6.241772     27.681443      8.369990
  O       8.871874     32.243900      8.172460
  O       5.886745     29.095946      6.151651
  O       5.975984     35.500012      5.812598
  O       9.204308     33.550857      5.864081
  O       9.030252     30.646890      6.041081
  Si      6.572562     38.405792      7.473441
  Si      9.130399     40.078113      7.812623
  O       5.231165     39.166454      7.638130
  O       7.849308     39.166452      8.226729
  O       6.509031     36.829717      8.038750
  O       9.060308     41.580382      8.466586
  O       7.160252     38.289037      5.917570
  O       9.228601     40.136944      6.169593
  Si     11.468130     26.023546      7.793188
  Si     14.138179     24.528600      7.859692
  O      10.119272     25.326081      8.395104
  O      12.825196     25.346144      8.379871
  O      13.913515     22.999362      8.375567
  O      11.398043     25.736717      6.175160
  O      14.166228     24.621017      6.216617
  Si     11.548721     29.197868      7.771820
  Al     11.724921     35.349926      7.701295
  Si     14.319887     33.704013      7.881179
  Si     14.215700     30.672451      7.833153
  O      10.164438     29.888506      8.317934
  O      10.143975     34.614632      8.121125
  O      13.085377     34.517545      8.477050
  O      12.887420     29.875250      8.402958
  O      11.467380     27.610181      8.120102
  O      14.409485     32.148182      8.467514
  O      11.574408     29.429055      6.147254
  O      12.004231     34.998589      5.992675
  O      14.146696     33.514491      6.252969
  O      13.979271     30.819971      6.215503
  Si     11.809937     38.615097      7.795810
  Si     14.500960     40.070972      7.860493
  O      10.496337     39.396198      8.380433
  O      13.165355     39.334659      8.413212
  O      11.758747     37.053694      8.090466
  O      14.679876     41.619406      8.364314
  O      11.901572     38.970650      6.176896
  O      14.507229     39.953487      6.217460
  Si     16.862987     25.965914      7.890580
  O      15.506761     25.217418      8.414781
  O      18.096917     25.047456      8.430874
  O      16.778750     25.999997      6.247439
  Si     16.932888     29.034380      7.818124
  Si     17.077392     35.285961      7.824683
  Si     19.709260     33.708456      7.854503
  Si     19.548596     30.626443      7.854594
  O      15.513722     29.735764      8.147617
  O      15.770965     34.417123      8.201470
  O      18.416661     34.531602      8.408470
  O      18.165396     29.932966      8.389984
  O      16.928872     27.509581      8.418772
  O      19.710168     32.157622      8.394562
  O      17.150704     28.835412      6.198709
  O      17.329318     35.351510      6.197762
  O      19.581582     33.617818      6.215324
  O      19.465371     30.688766      6.212079
  Si     17.054860     38.359465      7.819647
  O      15.850192     39.296544      8.386830
  O      18.536283     38.896430      8.261063
  O      16.981252     36.821084      8.375185
  O      16.899466     38.286279      6.182969
  O      20.726050     29.617476      8.360890
  O      21.141295     34.333476      8.332015
  H       4.074657     24.986772      8.036591
  H       1.410409     29.602015      8.036749
  H       1.410409     35.007985      8.036749
  H       4.074657     39.623228      8.036591
  H       8.948181     22.173255      8.038302
  H       8.948181     42.436745      8.038302
  H      14.277762     22.173204      8.038282
  H      14.277762     42.436796      8.038282
  H      18.960557     24.876228      8.036406
  H      18.960557     39.733772      8.036406
  H      21.624717     29.491420      8.036583
  H      21.624717     35.118580      8.036583
  H      13.351369     34.048547      5.953999
  H      11.236320     34.712788      5.493483
  H       9.046636     32.652723      5.548954
  H       9.867390     30.243342      5.750296
  H      12.377943     29.912612      5.868258
  H      14.034291     31.773298      5.960613
  H      13.639746     39.644058      5.891028
  H      11.075674     39.345186      5.835095
  H       8.558620     39.553236      5.766668
  H       6.780863     37.570224      5.402198
  H       5.204489     35.024989      5.484553
  H       3.341103     32.854024      5.725991
  H       4.190866     30.205195      5.814566
  H       6.056037     28.221540      5.776088
  H       6.947771     25.640632      5.880782
  H       9.581167     24.917782      5.866373
  H      12.243740     25.475556      5.785907
  H      14.964786     25.056875      5.880998
  H      16.934571     26.888634      5.886086
  H      17.793893     29.446219      5.812186
  H      19.477787     31.600480      5.878251
  H      18.874842     34.191846      5.871949
  H      17.113033     36.209519      5.805666
  H      16.122925     38.777586      5.867091
  P       2.837798     39.724803      9.929364
  O       2.836981     38.321547     10.387077
  O       3.134560     40.026881      8.458212
  O       1.429422     40.430866     10.209240
  O       3.780176     40.674480     10.815403
  C       5.178264     40.676771     10.587289
  C       5.901344     40.369796     11.876238
  O       5.575676     39.047037     12.340087
  C       7.413369     40.415869     11.743637
  O       7.970744     40.875986     12.953696
  C       7.781350     38.954087     11.508473
  O       9.075111     38.717232     11.979360
  C       6.688767     38.229151     12.302505
  N       6.301620     36.942052     11.711295
  C       5.024449     36.474607     11.476227
  N       5.007535     35.226886     11.079937
  C       6.320058     34.867727     11.028552
  C       6.938368     33.705881     10.569016
  N       6.310941     32.623495     10.129845
  N       8.298543     33.745785     10.602827
  C       9.017184     34.833098     10.988023
  N       8.490961     35.933715     11.419074
  C       7.143353     35.927812     11.413408
  H       0.863256     39.796974     10.656064
  H       5.460951     39.976142      9.795715
  H       5.471204     41.677860     10.253196
  H       5.577337     41.067029     12.652497
  H       7.733632     41.037871     10.900086
  H       8.852944     40.486917     13.003806
  H       7.686762     38.718727     10.445042
  H       9.308343     37.807225     11.744932
  H       7.057182     38.013190     13.314130
  H       4.163735     37.131818     11.542727
  H       5.320426     32.710556      9.947653
  H       6.805402     31.952535      9.559568
  H      10.090258     34.734860     10.892719
  H       8.803419     32.994706     10.139922
163
Coordinates from ORCA-job /data/Seafile/amp/al_surf/protonated_al_surf/frames/frame12/dry/amp_al_frame12_dry E -13417.891285242446
  Si      3.479961     33.846300      7.708065
  Si      3.484484     30.757210      7.836431
  O       2.138276     34.465866      8.366496
  O       2.138146     30.081313      8.459993
  O       3.607700     32.311291      8.311617
  O       3.404730     33.750119      6.067816
  O       3.464668     30.718736      6.195404
  Si      6.145818     26.128432      7.876973
  Si      8.783523     24.531944      7.891852
  O       4.733902     25.556676      8.449483
  O       7.435193     25.289238      8.416123
  O       8.702954     23.007164      8.457710
  O       6.193351     26.122639      6.232082
  O       8.752487     24.594655      6.247937
  Si      6.129732     29.188547      7.772610
  Si      6.198914     35.366784      7.434772
  Si      8.961078     33.777220      7.469195
  Si      8.904218     30.696133      7.672068
  O       4.839081     29.988333      8.362918
  O       4.851828     34.649374      8.057939
  O       7.478721     34.403032      7.757938
  O       7.477301     30.034874      8.132920
  O       6.248899     27.681732      8.370523
  O       8.874264     32.245630      8.178975
  O       5.886199     29.094608      6.152702
  O       5.971188     35.497061      5.816798
  O       9.202273     33.552583      5.870227
  O       9.040022     30.652846      6.044916
  Si      6.567155     38.401065      7.472750
  Si      9.120518     40.078863      7.815842
  O       5.226941     39.164905      7.633205
  O       7.844154     39.160549      8.226293
  O       6.502728     36.827065      8.042871
  O       9.023866     41.579131      8.474419
  O       7.157466     38.283224      5.918034
  O       9.223810     40.142984      6.172955
  Si     11.469145     26.024026      7.797581
  Si     14.140908     24.527459      7.864100
  O      10.120445     25.325440      8.399581
  O      12.827086     25.345544      8.381044
  O      13.920840     22.998831      8.384894
  O      11.398008     25.739646      6.179149
  O      14.170373     24.614416      6.220764
  Si     11.549958     29.198171      7.778203
  Al     11.722569     35.351740      7.706138
  Si     14.316946     33.706613      7.886137
  Si     14.215773     30.675064      7.840459
  O      10.164817     29.887468      8.323851
  O      10.139493     34.620163      8.127148
  O      13.081582     34.519985      8.482102
  O      12.888609     29.875872      8.409891
  O      11.468634     27.610263      8.127620
  O      14.406375     32.151663      8.474762
  O      11.577706     29.430339      6.154102
  O      12.002711     34.997548      5.997759
  O      14.143198     33.515499      6.258568
  O      13.979786     30.821726      6.222544
  Si     11.804999     38.621722      7.797900
  Si     14.498705     40.071104      7.864003
  O      10.491535     39.404871      8.382066
  O      13.160609     39.339553      8.417611
  O      11.753670     37.059243      8.085597
  O      14.680480     41.620239      8.365969
  O      11.897815     38.982312      6.179904
  O      14.506322     39.950009      6.221459
  Si     16.864265     25.968566      7.895250
  O      15.508051     25.219921      8.418857
  O      18.100748     25.054312      8.436931
  O      16.781466     26.001457      6.252153
  Si     16.932777     29.037275      7.823498
  Si     17.074756     35.288458      7.828785
  Si     19.706825     33.710827      7.857886
  Si     19.550928     30.628021      7.860283
  O      15.515270     29.740975      8.156253
  O      15.766395     34.422688      8.206846
  O      18.413316     34.532490      8.412033
  O      18.167357     29.934040      8.393667
  O      16.927330     27.512585      8.423410
  O      19.707446     32.160208      8.398374
  O      17.147748     28.839399      6.203387
  O      17.325454     35.353546      6.201492
  O      19.579848     33.620182      6.218828
  O      19.472695     30.686674      6.217195
  Si     17.054258     38.362089      7.825654
  O      15.846891     39.296031      8.391933
  O      18.534114     38.900240      8.273380
  O      16.980324     36.823258      8.380066
  O      16.904029     38.292368      6.188518
  O      20.730867     29.624295      8.372691
  O      21.138490     34.336388      8.335778
  H       4.074657     24.986772      8.036591
  H       1.410409     29.602015      8.036749
  H       1.410409     35.007985      8.036749
  H       4.074657     39.623228      8.036591
  H       8.948181     22.173255      8.038302
  H       8.948181     42.436745      8.038302
  H      14.277762     22.173204      8.038282
  H      14.277762     42.436796      8.038282
  H      18.960557     24.876228      8.036406
  H      18.960557     39.733772      8.036406
  H      21.624717     29.491420      8.036583
  H      21.624717     35.118580      8.036583
  H      13.347764     34.050312      5.959209
  H      11.234792     34.715851      5.496604
  H       9.053401     32.651426      5.557089
  H       9.877084     30.247215      5.756459
  H      12.381650     29.914323      5.876324
  H      14.033391     31.775331      5.967618
  H      13.637561     39.644376      5.894492
  H      11.069868     39.352418      5.837610
  H       8.553954     39.562780      5.764724
  H       6.773908     37.568502      5.399877
  H       5.203263     35.017859      5.486700
  H       3.341815     32.849604      5.726779
  H       4.192602     30.203699      5.816272
  H       6.058732     28.221702      5.775546
  H       6.958827     25.642927      5.881675
  H       9.586453     24.917440      5.870336
  H      12.242656     25.478988      5.787324
  H      14.968419     25.050980      5.884820
  H      16.935783     26.890116      5.890144
  H      17.792801     29.448423      5.816818
  H      19.484106     31.598086      5.882467
  H      18.873026     34.193836      5.874935
  H      17.113681     36.213361      5.810953
  H      16.125711     38.781406      5.872479
  P       2.846104     39.728740      9.933086
  O       2.856117     38.330366     10.405006
  O       3.131276     40.021333      8.459151
  O       1.434203     40.427783     10.212975
  O       3.789272     40.690266     10.805978
  C       5.188137     40.684866     10.582013
  C       5.906607     40.381753     11.874289
  O       5.575959     39.060699     12.340611
  C       7.419160     40.422476     11.748378
  O       7.974330     40.865710     12.966013
  C       7.776886     38.961018     11.503147
  O       9.076490     38.713609     11.955014
  C       6.688121     38.242506     12.307712
  N       6.298957     36.952277     11.724333
  C       5.021464     36.490715     11.480663
  N       5.002579     35.244275     11.080846
  C       6.313757     34.880846     11.033846
  C       6.930496     33.719573     10.569982
  N       6.302555     32.640919     10.123029
  N       8.290886     33.756628     10.607813
  C       9.011453     34.839254     11.004015
  N       8.486449     35.938793     11.440801
  C       7.138673     35.936794     11.428238
  H       0.890040     39.806542     10.703083
  H       5.469247     39.978349      9.795228
  H       5.485258     41.682827     10.242239
  H       5.580576     41.081518     12.646952
  H       7.747925     41.051251     10.913128
  H       8.844043     40.450777     13.024518
  H       7.664859     38.728572     10.440425
  H       9.279981     37.787014     11.755250
  H       7.057612     38.032673     13.320465
  H       4.163416     37.151946     11.543139
  H       5.312547     32.727325      9.940214
  H       6.798783     31.968508      9.556157
  H      10.084488     34.738696     10.912819
  H       8.795358     33.007053     10.142968
163
Coordinates from ORCA-job /data/Seafile/amp/al_surf/protonated_al_surf/frames/frame12/dry/amp_al_frame12_dry E -13417.891317741693
  Si      3.478600     33.842922      7.706747
  Si      3.486285     30.754286      7.836822
  O       2.134752     34.459666      8.364414
  O       2.142226     30.074324      8.460593
  O       3.606906     32.308672      8.311662
  O       3.405126     33.745426      6.066812
  O       3.466794     30.716731      6.195649
  Si      6.147570     26.127982      7.877236
  Si      8.785499     24.532447      7.893224
  O       4.735699     25.555306      8.448197
  O       7.436320     25.288482      8.416895
  O       8.707769     23.007574      8.460001
  O       6.196548     26.123744      6.232410
  O       8.754586     24.594346      6.249250
  Si      6.131955     29.187681      7.773467
  Si      6.196185     35.365287      7.433170
  Si      8.959784     33.778275      7.469833
  Si      8.905468     30.697588      7.673520
  O       4.841347     29.987368      8.363983
  O       4.849250     34.648057      8.057330
  O       7.476153     34.402106      7.757466
  O       7.479169     30.034671      8.133860
  O       6.250645     27.680990      8.372054
  O       8.874858     32.246971      8.180884
  O       5.888417     29.093308      6.153669
  O       5.967408     35.494181      5.815320
  O       9.201032     33.553212      5.870922
  O       9.041723     30.654352      6.046339
  Si      6.564601     38.400091      7.469122
  Si      9.116247     40.079123      7.814065
  O       5.224973     39.164972      7.628895
  O       7.842140     39.157679      8.222995
  O       6.499551     36.826279      8.039277
  O       9.006732     41.577694      8.474259
  O       7.154705     38.282025      5.914733
  O       9.221331     40.145274      6.171375
  Si     11.470816     26.025171      7.798932
  Si     14.142475     24.527350      7.865949
  O      10.121750     25.327200      8.400664
  O      12.828410     25.345689      8.382178
  O      13.924432     22.998924      8.388399
  O      11.399442     25.740889      6.180434
  O      14.171974     24.612790      6.222537
  Si     11.551168     29.199302      7.779133
  Al     11.720442     35.354431      7.705520
  Si     14.315346     33.709374      7.885101
  Si     14.216224     30.677589      7.840652
  O      10.165998     29.888375      8.325007
  O      10.137388     34.622920      8.127178
  O      13.080234     34.523282      8.480959
  O      12.889675     29.877539      8.410263
  O      11.471158     27.611382      8.129105
  O      14.405251     32.154591      8.474194
  O      11.578593     29.431339      6.155102
  O      12.000591     34.999808      5.997101
  O      14.140938     33.517556      6.257776
  O      13.980111     30.823640      6.222668
  Si     11.802835     38.625398      7.796209
  Si     14.497658     40.071626      7.863696
  O      10.489388     39.409027      8.379355
  O      13.158438     39.342264      8.416799
  O      11.751006     37.062632      8.083089
  O      14.680246     41.620420      8.366447
  O      11.896718     38.986588      6.178484
  O      14.506315     39.951087      6.221434
  Si     16.865171     25.970285      7.896803
  O      15.509415     25.220732      8.420054
  O      18.103226     25.058962      8.439885
  O      16.782961     26.002150      6.253631
  Si     16.932953     29.039144      7.824370
  Si     17.073981     35.289735      7.828301
  Si     19.706075     33.712018      7.858416
  Si     19.552207     30.628941      7.861851
  O      15.516324     29.744575      8.157396
  O      15.764863     34.425038      8.205801
  O      18.411935     34.533148      8.411703
  O      18.168585     29.934369      8.394308
  O      16.926147     27.514602      8.424191
  O      19.706982     32.161585      8.398926
  O      17.147618     28.841051      6.204161
  O      17.325203     35.354954      6.201055
  O      19.580065     33.621497      6.219457
  O      19.475473     30.686490      6.218673
  Si     17.053750     38.363432      7.826536
  O      15.844943     39.295717      8.392129
  O      18.532353     38.902241      8.277222
  O      16.979988     36.824214      8.379837
  O      16.905786     38.295083      6.189072
  O      20.733060     29.627659      8.376767
  O      21.137144     34.337971      8.337446
  H       4.074657     24.986772      8.036591
  H       1.410409     29.602015      8.036749
  H       1.410409     35.007985      8.036749
  H       4.074657     39.623228      8.036591
  H       8.948181     22.173255      8.038302
  H       8.948181     42.436745      8.038302
  H      14.277762     22.173204      8.038282
  H      14.277762     42.436796      8.038282
  H      18.960557     24.876228      8.036406
  H      18.960557     39.733772      8.036406
  H      21.624717     29.491420      8.036583
  H      21.624717     35.118580      8.036583
  H      13.344984     34.051732      5.958601
  H      11.232693     34.717773      5.496175
  H       9.054725     32.651617      5.558656
  H       9.879218     30.249180      5.758324
  H      12.382546     29.915093      5.877003
  H      14.032534     31.777180      5.967478
  H      13.637315     39.648254      5.892527
  H      11.068953     39.355994      5.835712
  H       8.551579     39.566964      5.761510
  H       6.768548     37.569636      5.395642
  H       5.201045     35.011930      5.485848
  H       3.342316     32.844631      5.726516
  H       4.193942     30.200741      5.816555
  H       6.061822     28.220390      5.776818
  H       6.961718     25.643775      5.881938
  H       9.588424     24.917387      5.871789
  H      12.243763     25.479722      5.788605
  H      14.969512     25.049543      5.885850
  H      16.937014     26.890609      5.891241
  H      17.793258     29.449389      5.817774
  H      19.487114     31.597456      5.883001
  H      18.873124     34.194505      5.874966
  H      17.112403     36.214609      5.810191
  H      16.127612     38.783805      5.872473
  P       2.849376     39.729137      9.935896
  O       2.858221     38.330787     10.408080
  O       3.132215     40.023127      8.461317
  O       1.438725     40.428214     10.219635
  O       3.795508     40.689166     10.807763
  C       5.194114     40.682290     10.581944
  C       5.913860     40.380304     11.874316
  O       5.583370     39.059426     12.343040
  C       7.426118     40.418657     11.746512
  O       7.983821     40.855820     12.965128
  C       7.779696     38.956879     11.496500
  O       9.082352     38.707687     11.937959
  C       6.694736     38.239715     12.307275
  N       6.302444     36.948533     11.727238
  C       5.024143     36.489155     11.481782
  N       5.003800     35.242529     11.081983
  C       6.314514     34.876643     11.037128
  C       6.930417     33.714755     10.573925
  N       6.301333     32.637662     10.125283
  N       8.291052     33.749954     10.612430
  C       9.012738     34.831432     11.008869
  N       8.488633     35.931459     11.445163
  C       7.140765     35.931355     11.431370
  H       0.899248     39.809293     10.718637
  H       5.472757     39.973837      9.795920
  H       5.492310     41.679062     10.239794
  H       5.588349     41.081431     12.646084
  H       7.755320     41.048987     10.912759
  H       8.850530     40.434774     13.023675
  H       7.659581     38.726042     10.434180
  H       9.280581     37.779351     11.742653
  H       7.068425     38.031099     13.318711
  H       4.167182     37.152180     11.542739
  H       5.311631     32.725775      9.940321
  H       6.797423     31.962860      9.561266
  H      10.085999     34.729636     10.918108
  H       8.795380     33.000263     10.146251
163
Coordinates from ORCA-job /data/Seafile/amp/al_surf/protonated_al_surf/frames/frame12/dry/amp_al_frame12_dry E -13417.891355223579
  Si      3.477239     33.839732      7.704121
  Si      3.487535     30.751601      7.836885
  O       2.131274     34.453382      8.361508
  O       2.145466     30.068617      8.461453
  O       3.606447     32.306397      8.310361
  O       3.406190     33.740619      6.064596
  O       3.467685     30.713968      6.195686
  Si      6.148732     26.128526      7.876569
  Si      8.786474     24.533446      7.892972
  O       4.736363     25.556094      8.446102
  O       7.436360     25.287590      8.416390
  O       8.711578     23.008351      8.461233
  O       6.198787     26.126474      6.231748
  O       8.755672     24.594181      6.248996
  Si      6.134174     29.187702      7.773788
  Si      6.192963     35.364153      7.429754
  Si      8.958488     33.779782      7.467472
  Si      8.906457     30.699828      7.673546
  O       4.843151     29.986674      8.364685
  O       4.846340     34.647280      8.055825
  O       7.473682     34.401674      7.753931
  O       7.481005     30.035150      8.134452
  O       6.252807     27.681052      8.372925
  O       8.875643     32.249225      8.180989
  O       5.891033     29.092983      6.153999
  O       5.961457     35.492270      5.812213
  O       9.198785     33.553668      5.868595
  O       9.042290     30.656475      6.046278
  Si      6.561823     38.399682      7.465641
  Si      9.111726     40.080152      7.812395
  O       5.222177     39.165063      7.626611
  O       7.840472     39.154449      8.219560
  O       6.496056     36.825562      8.034074
  O       8.988952     41.576853      8.474279
  O       7.151142     38.282352      5.911086
  O       9.218334     40.149119      6.169706
  Si     11.471814     26.026744      7.798812
  Si     14.143305     24.527498      7.866323
  O      10.122116     25.329501      8.399711
  O      12.828862     25.345840      8.382117
  O      13.927183     22.999268      8.390534
  O      11.400643     25.742789      6.180064
  O      14.172316     24.611833      6.222878
  Si     11.552213     29.200744      7.778532
  Al     11.718097     35.357965      7.702120
  Si     14.313610     33.712659      7.882655
  Si     14.216704     30.680265      7.839371
  O      10.167330     29.890455      8.324268
  O      10.135284     34.626463      8.123895
  O      13.078769     34.527531      8.477768
  O      12.890625     29.879381      8.408923
  O      11.473268     27.612869      8.129271
  O      14.404112     32.157752      8.471833
  O      11.579052     29.431744      6.154280
  O      11.998694     35.002381      5.993927
  O      14.139163     33.519938      6.255401
  O      13.980961     30.825362      6.221241
  Si     11.800241     38.629487      7.793384
  Si     14.496404     40.072281      7.863090
  O      10.486942     39.413413      8.376182
  O      13.156029     39.344639      8.415187
  O      11.748827     37.066412      8.077888
  O      14.679198     41.620484      8.367568
  O      11.894704     38.992093      6.176265
  O      14.506406     39.953392      6.220987
  Si     16.865764     25.971804      7.896855
  O      15.510053     25.221894      8.419592
  O      18.104606     25.062164      8.441469
  O      16.784257     26.002694      6.253593
  Si     16.933018     29.040973      7.823889
  Si     17.073323     35.290944      7.827039
  Si     19.705412     33.713113      7.858512
  Si     19.553304     30.629829      7.862514
  O      15.517237     29.748015      8.157337
  O      15.763489     34.427188      8.203380
  O      18.410631     34.533829      8.410702
  O      18.169642     29.934548      8.393733
  O      16.925391     27.516355      8.423336
  O      19.706509     32.162861      8.398630
  O      17.147464     28.842889      6.203616
  O      17.325783     35.356475      6.200042
  O      19.580817     33.622982      6.219510
  O      19.477949     30.686284      6.219290
  Si     17.053217     38.364680      7.826845
  O      15.842904     39.295467      8.391615
  O      18.530592     38.904189      8.280221
  O      16.979513     36.825101      8.378673
  O      16.907245     38.297313      6.188932
  O      20.735002     29.630958      8.380134
  O      21.135835     34.339467      8.339089
  H       4.074657     24.986772      8.036591
  H       1.410409     29.602015      8.036749
  H       1.410409     35.007985      8.036749
  H       4.074657     39.623228      8.036591
  H       8.948181     22.173255      8.038302
  H       8.948181     42.436745      8.038302
  H      14.277762     22.173204      8.038282
  H      14.277762     42.436796      8.038282
  H      18.960557     24.876228      8.036406
  H      18.960557     39.733772      8.036406
  H      21.624717     29.491420      8.036583
  H      21.624717     35.118580      8.036583
  H      13.342989     34.053461      5.956152
  H      11.230689     34.719710      5.493296
  H       9.054441     32.650859      5.558383
  H       9.879394     30.250368      5.758528
  H      12.383278     29.914686      5.875669
  H      14.032843     31.778680      5.965483
  H      13.637626     39.652569      5.889937
  H      11.067165     39.361910      5.833552
  H       8.548712     39.572599      5.757306
  H       6.760653     37.574262      5.389719
  H       5.197322     35.005208      5.484232
  H       3.343141     32.839196      5.725662
  H       4.195000     30.198181      5.816708
  H       6.063991     28.219554      5.777843
  H       6.963185     25.645660      5.880859
  H       9.589388     24.917593      5.871711
  H      12.244986     25.480798      5.788923
  H      14.969737     25.048143      5.885414
  H      16.938140     26.891112      5.891124
  H      17.793763     29.450835      5.817694
  H      19.490471     31.596751      5.882462
  H      18.874025     34.195670      5.874278
  H      17.113250     36.215915      5.808896
  H      16.129630     38.786336      5.871760
  P       2.852637     39.733798      9.938196
  O       2.862145     38.336878     10.414859
  O       3.132846     40.025243      8.463176
  O       1.441067     40.431421     10.222089
  O       3.800419     40.695157     10.807194
  C       5.198823     40.687657     10.579986
  C       5.919344     40.386720     11.872094
  O       5.591468     39.065229     12.341982
  C       7.431392     40.426368     11.743074
  O       7.989907     40.858904     12.962797
  C       7.784514     38.965328     11.488198
  O       9.090512     38.717746     11.921572
  C       6.703676     38.246590     12.303326
  N       6.309176     36.954527     11.726012
  C       5.029933     36.495313     11.483119
  N       5.007997     35.248003     11.085216
  C       6.318474     34.881001     11.039003
  C       6.932919     33.717744     10.576731
  N       6.302397     32.640513     10.130435
  N       8.293653     33.751697     10.613763
  C       9.016558     34.833597     11.007444
  N       8.493878     35.934838     11.442494
  C       7.146125     35.935693     11.430304
  H       0.910729     39.819037     10.738730
  H       5.476345     39.978321      9.794396
  H       5.496841     41.683869     10.236473
  H       5.592651     41.087366     12.643849
  H       7.759603     41.059070     10.910805
  H       8.855484     40.435872     13.020820
  H       7.659111     38.736146     10.426087
  H       9.290417     37.790979     11.723883
  H       7.081630     38.038616     13.313632
  H       4.173434     37.158744     11.544736
  H       5.313119     32.729564      9.946315
  H       6.797616     31.962855      9.569150
  H      10.089742     34.730987     10.915901
  H       8.796906     33.000716     10.149023
163
Coordinates from ORCA-job /data/Seafile/amp/al_surf/protonated_al_surf/frames/frame12/dry/amp_al_frame12_dry E -13417.891376482017
  Si      3.475906     33.837084      7.702563
  Si      3.488126     30.749255      7.838006
  O       2.128254     34.448007      8.359350
  O       2.147400     30.064092      8.462935
  O       3.606029     32.304347      8.309919
  O       3.407539     33.736066      6.063277
  O       3.468179     30.710819      6.196876
  Si      6.149579     26.128675      7.876856
  Si      8.787361     24.533882      7.892523
  O       4.737013     25.555785      8.445417
  O       7.436410     25.286002      8.416228
  O       8.715578     23.008830      8.462431
  O       6.200386     26.129457      6.231910
  O       8.756213     24.593390      6.248588
  Si      6.135682     29.187422      7.775685
  Si      6.190051     35.362556      7.427187
  Si      8.957260     33.780208      7.465533
  Si      8.906705     30.700720      7.673903
  O       4.844160     29.985879      8.366750
  O       4.843484     34.646904      8.055450
  O       7.471270     34.399998      7.750530
  O       7.482285     30.034657      8.137147
  O       6.254077     27.680656      8.374828
  O       8.876408     32.250214      8.180956
  O       5.893645     29.092737      6.155692
  O       5.956056     35.489292      5.809763
  O       9.197311     33.553400      5.866629
  O       9.040434     30.656746      6.046424
  Si      6.559205     38.398549      7.462647
  Si      9.107978     40.080956      7.810463
  O       5.219251     39.163440      7.625298
  O       7.838815     39.151531      8.216111
  O       6.493869     36.824275      8.029672
  O       8.974780     41.575975      8.474178
  O       7.148169     38.282200      5.907992
  O       9.215993     40.152622      6.167774
  Si     11.472540     26.027867      7.798396
  Si     14.143648     24.527672      7.866198
  O      10.122067     25.331688      8.398403
  O      12.828882     25.345592      8.382157
  O      13.928827     22.999529      8.391467
  O      11.401832     25.743874      6.179376
  O      14.171673     24.612004      6.222744
  Si     11.552823     29.201804      7.777801
  Al     11.715408     35.360905      7.699461
  Si     14.311645     33.715318      7.880725
  Si     14.216887     30.682220      7.838167
  O      10.168182     29.891727      8.323679
  O      10.133112     34.628981      8.121352
  O      13.077137     34.531023      8.475299
  O      12.891070     29.880843      8.407668
  O      11.475295     27.613930      8.128909
  O      14.402972     32.160127      8.469670
  O      11.578508     29.431943      6.153246
  O      11.995985     35.004473      5.991548
  O      14.137243     33.521848      6.253347
  O      13.981697     30.826191      6.219908
  Si     11.797850     38.631792      7.790931
  Si     14.495103     40.072781      7.862800
  O      10.484650     39.416440      8.373009
  O      13.153800     39.345701      8.413789
  O      11.746917     37.068868      8.074581
  O      14.677615     41.620399      8.369064
  O      11.892859     38.994568      6.174098
  O      14.506265     39.955304      6.220672
  Si     16.866062     25.972757      7.896643
  O      15.510238     25.222747      8.418885
  O      18.105141     25.063609      8.442139
  O      16.784939     26.002935      6.253314
  Si     16.932870     29.042286      7.823461
  Si     17.072606     35.291521      7.826073
  Si     19.704948     33.713914      7.859072
  Si     19.553730     30.630596      7.863146
  O      15.517675     29.750500      8.157189
  O      15.762194     34.428353      8.201155
  O      18.409456     34.534166      8.410179
  O      18.170149     29.934690      8.393353
  O      16.925023     27.517400      8.422504
  O      19.706052     32.163802      8.398675
  O      17.147146     28.844092      6.203195
  O      17.326606     35.357121      6.199378
  O      19.581886     33.624023      6.219870
  O      19.478916     30.686207      6.219891
  Si     17.052684     38.365290      7.826817
  O      15.841250     39.295222      8.390971
  O      18.529411     38.905210      8.281547
  O      16.978786     36.825572      8.377457
  O      16.907701     38.298231      6.188579
  O      20.736309     29.633432      8.382461
  O      21.134732     34.340915      8.340998
  H       4.074657     24.986772      8.036591
  H       1.410409     29.602015      8.036749
  H       1.410409     35.007985      8.036749
  H       4.074657     39.623228      8.036591
  H       8.948181     22.173255      8.038302
  H       8.948181     42.436745      8.038302
  H      14.277762     22.173204      8.038282
  H      14.277762     42.436796      8.038282
  H      18.960557     24.876228      8.036406
  H      18.960557     39.733772      8.036406
  H      21.624717     29.491420      8.036583
  H      21.624717     35.118580      8.036583
  H      13.341127     34.055108      5.954048
  H      11.228018     34.719991      5.491925
  H       9.052984     32.650363      5.557648
  H       9.877403     30.250620      5.758243
  H      12.382438     29.915006      5.874290
  H      14.032783     31.779283      5.963528
  H      13.638463     39.653425      5.888754
  H      11.065504     39.364744      5.831343
  H       8.546344     39.577294      5.753775
  H       6.754206     37.578053      5.384060
  H       5.193612     34.998178      5.483595
  H       3.343561     32.833744      5.726243
  H       4.195893     30.195486      5.818194
  H       6.065235     28.218635      5.780231
  H       6.963697     25.647265      5.880537
  H       9.589913     24.916824      5.871332
  H      12.246387     25.480656      5.789518
  H      14.969269     25.047809      5.885132
  H      16.938637     26.891470      5.891102
  H      17.794223     29.451425      5.817863
  H      19.492464     31.596335      5.882303
  H      18.875229     34.196547      5.874190
  H      17.114192     36.216142      5.807890
  H      16.130632     38.787802      5.871244
  P       2.853290     39.738974      9.938918
  O       2.863253     38.343467     10.419444
  O       3.133054     40.026884      8.463261
  O       1.441804     40.437039     10.222314
  O       3.802035     40.701832     10.805696
  C       5.200267     40.692283     10.577331
  C       5.921321     40.390296     11.868675
  O       5.595807     39.068329     12.339012
  C       7.433273     40.430731     11.738165
  O       7.992340     40.859666     12.958772
  C       7.786291     38.970661     11.478935
  O       9.094566     38.724567     11.906689
  C       6.708773     38.250484     12.296748
  N       6.313175     36.958271     11.720608
  C       5.033579     36.497427     11.482268
  N       5.011069     35.249208     11.088132
  C       6.321736     34.882913     11.038752
  C       6.935506     33.718825     10.578025
  N       6.304695     32.639851     10.135669
  N       8.296318     33.752927     10.612452
  C       9.019537     34.836563     11.000697
  N       8.497439     35.939028     11.433149
  C       7.149776     35.939130     11.424713
  H       0.918295     39.830718     10.753327
  H       5.475934     39.983102      9.790576
  H       5.499288     41.688520     10.234070
  H       5.594904     41.090370     12.641186
  H       7.760570     41.065776     10.906956
  H       8.859318     40.439319     13.014288
  H       7.658032     38.743426     10.416841
  H       9.297367     37.799760     11.705038
  H       7.090679     38.042540     13.305556
  H       4.176509     37.159978     11.545244
  H       5.315376     32.728479      9.952377
  H       6.799871     31.961139      9.575807
  H      10.092536     34.734081     10.906792
  H       8.798908     33.000840     10.148195
163
Coordinates from ORCA-job /data/Seafile/amp/al_surf/protonated_al_surf/frames/frame12/dry/amp_al_frame12_dry E -13417.891390286701
  Si      3.474995     33.835695      7.701769
  Si      3.487939     30.748179      7.838816
  O       2.126669     34.445440      8.358100
  O       2.147525     30.062768      8.464071
  O       3.605798     32.303330      8.309672
  O       3.408200     33.733273      6.062514
  O       3.467588     30.708513      6.197766
  Si      6.149451     26.129493      7.876280
  Si      8.786864     24.533929      7.891416
  O       4.735792     25.558367      8.443878
  O       7.435175     25.284561      8.415218
  O       8.716402     23.009067      8.462375
  O       6.200870     26.131958      6.231188
  O       8.755630     24.592862      6.247545
  Si      6.136341     29.187870      7.776510
  Si      6.188177     35.361173      7.424831
  Si      8.956737     33.780360      7.462712
  Si      8.906570     30.700961      7.672835
  O       4.844380     29.985627      8.367933
  O       4.841834     34.646557      8.055147
  O       7.470080     34.398708      7.746964
  O       7.482701     30.034878      8.138838
  O       6.255015     27.680951      8.375387
  O       8.877205     32.250659      8.179111
  O       5.895130     29.093528      6.156316
  O       5.952185     35.487041      5.807506
  O       9.197152     33.553100      5.863850
  O       9.037974     30.656066      6.045175
  Si      6.557376     38.397350      7.461230
  Si      9.105032     40.081434      7.808902
  O       5.217362     39.161731      7.626259
  O       7.837947     39.148709      8.214200
  O       6.492144     36.822822      8.026889
  O       8.964761     41.575454      8.473606
  O       7.146211     38.282286      5.906565
  O       9.213331     40.154428      6.166137
  Si     11.472087     26.028176      7.797395
  Si     14.143020     24.527968      7.865277
  O      10.120963     25.332839      8.396736
  O      12.827941     25.345194      8.381637
  O      13.928305     22.999763      8.390420
  O      11.401858     25.744019      6.178179
  O      14.170192     24.613082      6.221839
  Si     11.552929     29.201995      7.776278
  Al     11.713668     35.362916      7.696999
  Si     14.310161     33.716565      7.879051
  Si     14.216689     30.682962      7.836629
  O      10.168635     29.892642      8.321917
  O      10.131731     34.630392      8.118711
  O      13.075962     34.533022      8.473111
  O      12.891040     29.881144      8.405942
  O      11.475607     27.614225      8.127751
  O      14.401866     32.161077      8.467640
  O      11.577924     29.431016      6.151364
  O      11.994266     35.005865      5.989381
  O      14.135955     33.522659      6.251514
  O      13.981959     30.826246      6.218310
  Si     11.796062     38.633005      7.788984
  Si     14.494092     40.073147      7.862187
  O      10.483131     39.418985      8.370383
  O      13.152266     39.346087      8.412405
  O      11.745662     37.070212      8.072374
  O      14.676687     41.620253      8.369742
  O      11.891365     38.995442      6.172145
  O      14.505442     39.957072      6.219841
  Si     16.865697     25.972930      7.895486
  O      15.509671     25.223079      8.417623
  O      18.104397     25.063023      8.440912
  O      16.784502     26.002918      6.252115
  Si     16.932542     29.042789      7.822337
  Si     17.072132     35.291508      7.824921
  Si     19.704812     33.714205      7.859097
  Si     19.553614     30.630871      7.862880
  O      15.517612     29.751438      8.156269
  O      15.761458     34.428366      8.198807
  O      18.408786     34.534123      8.409478
  O      18.170082     29.934665      8.392445
  O      16.924924     27.517556      8.421059
  O      19.705796     32.164072      8.398208
  O      17.146778     28.844653      6.202082
  O      17.327342     35.357416      6.198475
  O      19.583062     33.624577      6.219652
  O      19.478869     30.686199      6.219598
  Si     17.052135     38.365286      7.826093
  O      15.840129     39.294929      8.389697
  O      18.528727     38.905413      8.280849
  O      16.978098     36.825608      8.376207
  O      16.907363     38.298137      6.187704
  O      20.736486     29.634147      8.382748
  O      21.134148     34.341675      8.342047
  H       4.074657     24.986772      8.036591
  H       1.410409     29.602015      8.036749
  H       1.410409     35.007985      8.036749
  H       4.074657     39.623228      8.036591
  H       8.948181     22.173255      8.038302
  H       8.948181     42.436745      8.038302
  H      14.277762     22.173204      8.038282
  H      14.277762     42.436796      8.038282
  H      18.960557     24.876228      8.036406
  H      18.960557     39.733772      8.036406
  H      21.624717     29.491420      8.036583
  H      21.624717     35.118580      8.036583
  H      13.340163     34.056061      5.952084
  H      11.226290     34.720377      5.490183
  H       9.050652     32.650108      5.555208
  H       9.874175     30.249101      5.756157
  H      12.382026     29.913476      5.872089
  H      14.032154     31.779224      5.961679
  H      13.637367     39.655670      5.887880
  H      11.064491     39.366973      5.829533
  H       8.543812     39.579121      5.751868
  H       6.749963     37.581203      5.380256
  H       5.190192     34.994005      5.483033
  H       3.343872     32.830377      5.726998
  H       4.196268     30.194416      5.819256
  H       6.065244     28.218788      5.781378
  H       6.963589     25.648969      5.879566
  H       9.589413     24.916243      5.870376
  H      12.246801     25.479823      5.789560
  H      14.968088     25.048490      5.884384
  H      16.937922     26.891631      5.890167
  H      17.794236     29.451981      5.817174
  H      19.493252     31.596218      5.881737
  H      18.876549     34.197176      5.873764
  H      17.114054     36.216165      5.806742
  H      16.130721     38.788313      5.870332
  P       2.851426     39.743715      9.937744
  O       2.860763     38.349683     10.422798
  O       3.132303     40.027129      8.462213
  O       1.439131     40.442395     10.217363
  O       3.800100     40.708560     10.803406
  C       5.198594     40.697483     10.576391
  C       5.918934     40.393488     11.867425
  O       5.595102     39.070653     12.335748
  C       7.430816     40.435756     11.737064
  O       7.989285     40.861547     12.958981
  C       7.784818     38.976944     11.473319
  O       9.094525     38.731599     11.897714
  C       6.709112     38.254126     12.291239
  N       6.313694     36.962342     11.714583
  C       5.033882     36.499333     11.481373
  N       5.011444     35.250593     11.088679
  C       6.322606     34.885779     11.036042
  C       6.936215     33.721290     10.576366
  N       6.305632     32.640351     10.138080
  N       8.297047     33.756451     10.608270
  C       9.020184     34.841922     10.992102
  N       8.498195     35.944980     11.423200
  C       7.150527     35.943690     11.418272
  H       0.921273     39.842970     10.761357
  H       5.474427     39.989766      9.788326
  H       5.498367     41.693856     10.235252
  H       5.592085     41.091916     12.641317
  H       7.757389     41.073602     10.907841
  H       8.859000     40.446438     13.010889
  H       7.655289     38.752586     10.410916
  H       9.298795     37.807661     11.693365
  H       7.093042     38.045818     13.299377
  H       4.175846     37.160617     11.546597
  H       5.316067     32.727689      9.956063
  H       6.800484     31.961121      9.578369
  H      10.092922     34.740183     10.895918
  H       8.798871     33.003809     10.144618
163
Coordinates from ORCA-job /data/Seafile/amp/al_surf/protonated_al_surf/frames/frame12/dry/amp_al_frame12_dry E -13417.891427121745
  Si      3.474284     33.834602      7.701862
  Si      3.487754     30.747372      7.839615
  O       2.125537     34.443633      8.357497
  O       2.147433     30.061871      8.464993
  O       3.605492     32.302449      8.310004
  O       3.408503     33.731196      6.062416
  O       3.467093     30.706647      6.198601
  Si      6.149114     26.129895      7.876266
  Si      8.786352     24.533644      7.891129
  O       4.734602     25.560233      8.443078
  O       7.433948     25.283157      8.414818
  O       8.717073     23.009023      8.462618
  O       6.201042     26.133270      6.231035
  O       8.755025     24.592411      6.247287
  Si      6.136601     29.188070      7.777408
  Si      6.186889     35.359511      7.423152
  Si      8.956461     33.779829      7.460945
  Si      8.906331     30.700141      7.671988
  O       4.844547     29.985438      8.369045
  O       4.840765     34.646014      8.055267
  O       7.469150     34.396849      7.744331
  O       7.482832     30.034709      8.140871
  O       6.255256     27.680979      8.376000
  O       8.877878     32.250100      8.177237
  O       5.896156     29.094245      6.157012
  O       5.949841     35.484309      5.805871
  O       9.198897     33.552637      5.862275
  O       9.035607     30.654185      6.044275
  Si      6.555863     38.395904      7.460165
  Si      9.102558     40.081267      7.807231
  O       5.215697     39.159726      7.627007
  O       7.837224     39.146021      8.212616
  O       6.491128     36.821144      8.025086
  O       8.956685     41.574651      8.472344
  O       7.144637     38.281752      5.905536
  O       9.211455     40.154667      6.164595
  Si     11.471518     26.027944      7.796987
  Si     14.142267     24.528204      7.864802
  O      10.119823     25.333624      8.396145
  O      12.826962     25.344638      8.381704
  O      13.927255     22.999849      8.389105
  O      11.401587     25.743439      6.177749
  O      14.168760     24.614503      6.221360
  Si     11.552993     29.201709      7.775270
  Al     11.712212     35.364084      7.696296
  Si     14.308814     33.716943      7.878635
  Si     14.216380     30.683115      7.836023
  O      10.168874     29.892609      8.320768
  O      10.130502     34.630722      8.117718
  O      13.074841     34.533818      8.472514
  O      12.890874     29.880968      8.405123
  O      11.475685     27.614036      8.126877
  O      14.400839     32.161316      8.466982
  O      11.577515     29.430250      6.150169
  O      11.992659     35.006939      5.988866
  O      14.134504     33.522959      6.251003
  O      13.982102     30.826014      6.217673
  Si     11.794813     38.633320      7.788188
  Si     14.493284     40.073325      7.862135
  O      10.482049     39.421033      8.368244
  O      13.151140     39.346114      8.411912
  O      11.744280     37.070719      8.072833
  O      14.676138     41.620189      8.370254
  O      11.890690     38.994459      6.171002
  O      14.504380     39.957829      6.219532
  Si     16.865105     25.972827      7.894704
  O      15.509081     25.222963      8.417023
  O      18.103430     25.061984      8.439371
  O      16.783508     26.003021      6.251303
  Si     16.932186     29.042905      7.821896
  Si     17.071704     35.291190      7.824507
  Si     19.704784     33.714261      7.859423
  Si     19.553360     30.630853      7.862811
  O      15.517416     29.751748      8.155989
  O      15.760785     34.427980      8.197444
  O      18.408217     34.533701      8.409487
  O      18.169897     29.934546      8.392187
  O      16.924778     27.517376      8.420392
  O      19.705733     32.163979      8.398209
  O      17.146218     28.844878      6.201619
  O      17.327878     35.357301      6.198221
  O      19.584050     33.624835      6.219747
  O      19.478307     30.686251      6.219486
  Si     17.051485     38.364988      7.825609
  O      15.839350     39.294645      8.389006
  O      18.528294     38.905198      8.279513
  O      16.977524     36.825449      8.375805
  O      16.906264     38.297560      6.187240
  O      20.736312     29.634089      8.382545
  O      21.133714     34.342304      8.343101
  H       4.074657     24.986772      8.036591
  H       1.410409     29.602015      8.036749
  H       1.410409     35.007985      8.036749
  H       4.074657     39.623228      8.036591
  H       8.948181     22.173255      8.038302
  H       8.948181     42.436745      8.038302
  H      14.277762     22.173204      8.038282
  H      14.277762     42.436796      8.038282
  H      18.960557     24.876228      8.036406
  H      18.960557     39.733772      8.036406
  H      21.624717     29.491420      8.036583
  H      21.624717     35.118580      8.036583
  H      13.339184     34.056862      5.951511
  H      11.224849     34.720354      5.490070
  H       9.049641     32.650706      5.552521
  H       9.871778     30.247750      5.754333
  H      12.381177     29.913290      5.870786
  H      14.031909     31.778992      5.960936
  H      13.636800     39.654486      5.888244
  H      11.063927     39.366016      5.828009
  H       8.541904     39.579299      5.750359
  H       6.747017     37.582691      5.377542
  H       5.187270     34.991249      5.482740
  H       3.343753     32.827965      5.727889
  H       4.196591     30.193651      5.820080
  H       6.065405     28.219119      5.782438
  H       6.963469     25.649847      5.879337
  H       9.589062     24.915330      5.870126
  H      12.246880     25.478454      5.790085
  H      14.966999     25.049630      5.884227
  H      16.936855     26.891843      5.889511
  H      17.793929     29.452077      5.816848
  H      19.493297     31.596323      5.881761
  H      18.877636     34.197588      5.873845
  H      17.114749     36.215866      5.806377
  H      16.129662     38.787843      5.869951
  P       2.851050     39.747676      9.937803
  O       2.860498     38.354250     10.424438
  O       3.132779     40.028959      8.462038
  O       1.438744     40.447007     10.216301
  O       3.799519     40.713331     10.803071
  C       5.198118     40.700886     10.577571
  C       5.917514     40.393203     11.868429
  O       5.593784     39.069577     12.333653
  C       7.429310     40.435867     11.738619
  O       7.987392     40.857440     12.962286
  C       7.783092     38.978141     11.469909
  O       9.093489     38.731085     11.891486
  C       6.708209     38.253414     12.287003
  N       6.313125     36.962782     11.708616
  C       5.033405     36.498859     11.478051
  N       5.010970     35.249851     11.086653
  C       6.322258     34.885922     11.031698
  C       6.935720     33.721096     10.572999
  N       6.305319     32.638792     10.137292
  N       8.296479     33.756866     10.603743
  C       9.019597     34.843333     10.984800
  N       8.497679     35.946760     11.414813
  C       7.150050     35.944747     11.411745
  H       0.924694     39.851904     10.768683
  H       5.474225     39.995454      9.787458
  H       5.499553     41.698029     10.239837
  H       5.590912     41.090043     12.643907
  H       7.756344     41.076777     10.912037
  H       8.860321     40.448225     13.009336
  H       7.652018     38.757372     10.407094
  H       9.296158     37.806752     11.685696
  H       7.093035     38.044206     13.294489
  H       4.175000     37.159487     11.544807
  H       5.315381     32.725080      9.955618
  H       6.799831     31.959336      9.577500
  H      10.092084     34.741908     10.887142
  H       8.797637     33.003868     10.140201
163
Coordinates from ORCA-job /data/Seafile/amp/al_surf/protonated_al_surf/frames/frame12/dry/amp_al_frame12_dry E -13417.891430417787
  Si      3.473745     33.833552      7.702422
  Si      3.487700     30.746574      7.840259
  O       2.124445     34.442170      8.356860
  O       2.147521     30.060903      8.465736
  O       3.605119     32.301562      8.310576
  O       3.408399     33.729746      6.062677
  O       3.466760     30.705063      6.199210
  Si      6.148929     26.129605      7.876755
  Si      8.786261     24.532957      7.891707
  O       4.733953     25.560875      8.443217
  O       7.433243     25.281877      8.415028
  O       8.718010     23.008721      8.463303
  O       6.201128     26.132933      6.231435
  O       8.754774     24.591847      6.247825
  Si      6.136706     29.187756      7.778150
  Si      6.185944     35.357440      7.421902
  Si      8.956013     33.778653      7.459511
  Si      8.906090     30.698558      7.671489
  O       4.844825     29.985089      8.369786
  O       4.840135     34.644964      8.055554
  O       7.468191     34.394392      7.742133
  O       7.482833     30.034179      8.142660
  O       6.255157     27.680508      8.376507
  O       8.878025     32.248895      8.175391
  O       5.896673     29.094244      6.157674
  O       5.948249     35.481546      5.804775
  O       9.201131     33.551450      5.861224
  O       9.034140     30.651171      6.043847
  Si      6.554704     38.393625      7.459321
  Si      9.100290     40.080541      7.805703
  O       5.214526     39.156992      7.627281
  O       7.836667     39.143177      8.211299
  O       6.490590     36.818780      8.024115
  O       8.950273     41.573658      8.470815
  O       7.143772     38.280496      5.904692
  O       9.209327     40.153472      6.163216
  Si     11.471161     26.027352      7.797206
  Si     14.141741     24.528435      7.864929
  O      10.119109     25.333977      8.396611
  O      12.826322     25.344119      8.382372
  O      13.926328     22.999867      8.388036
  O      11.401323     25.742207      6.178149
  O      14.167890     24.615822      6.221435
  Si     11.553151     29.201146      7.775001
  Al     11.710791     35.364539      7.696189
  Si     14.307536     33.716855      7.878768
  Si     14.215990     30.683098      7.836049
  O      10.169023     29.891951      8.320371
  O      10.129150     34.630057      8.117089
  O      13.073553     34.533734      8.472543
  O      12.890781     29.880553      8.405168
  O      11.475750     27.613520      8.126450
  O      14.399858     32.161304      8.467185
  O      11.577653     29.429707      6.149867
  O      11.991229     35.007629      5.988855
  O      14.132978     33.522906      6.251152
  O      13.981768     30.826021      6.217689
  Si     11.793778     38.633373      7.788116
  Si     14.492523     40.073391      7.862078
  O      10.481250     39.422932      8.366696
  O      13.150253     39.346137      8.411752
  O      11.742655     37.070819      8.074312
  O      14.676012     41.620142      8.370375
  O      11.890248     38.993226      6.170530
  O      14.502786     39.958375      6.219231
  Si     16.864583     25.972798      7.894297
  O      15.508755     25.222770      8.417044
  O      18.102637     25.061186      8.438002
  O      16.782511     26.003312      6.250865
  Si     16.931893     29.043006      7.821785
  Si     17.071099     35.290978      7.824215
  Si     19.704594     33.714460      7.859655
  Si     19.553061     30.630965      7.862758
  O      15.517240     29.751897      8.155911
  O      15.760016     34.427702      8.196592
  O      18.407533     34.533374      8.409565
  O      18.169681     29.934626      8.392232
  O      16.924565     27.517305      8.420186
  O      19.705634     32.163999      8.398369
  O      17.145805     28.845068      6.201482
  O      17.327764     35.357262      6.197981
  O      19.584582     33.625242      6.219823
  O      19.477757     30.686696      6.219383
  Si     17.050686     38.364807      7.824988
  O      15.838619     39.294428      8.388437
  O      18.527830     38.904947      8.277924
  O      16.976903     36.825411      8.375599
  O      16.905013     38.297464      6.186736
  O      20.735952     29.633789      8.381963
  O      21.133253     34.342868      8.343852
  H       4.074657     24.986772      8.036591
  H       1.410409     29.602015      8.036749
  H       1.410409     35.007985      8.036749
  H       4.074657     39.623228      8.036591
  H       8.948181     22.173255      8.038302
  H       8.948181     42.436745      8.038302
  H      14.277762     22.173204      8.038282
  H      14.277762     42.436796      8.038282
  H      18.960557     24.876228      8.036406
  H      18.960557     39.733772      8.036406
  H      21.624717     29.491420      8.036583
  H      21.624717     35.118580      8.036583
  H      13.337947     34.057159      5.951578
  H      11.223659     34.720018      5.490267
  H       9.048002     32.650661      5.549781
  H       9.870121     30.244928      5.753366
  H      12.381260     29.912770      5.870438
  H      14.030603     31.779109      5.961225
  H      13.634784     39.654857      5.888735
  H      11.063642     39.364763      5.827159
  H       8.540001     39.577473      5.749613
  H       6.744468     37.583621      5.375192
  H       5.184840     34.989283      5.482498
  H       3.342884     32.826530      5.728403
  H       4.196649     30.192677      5.820608
  H       6.066015     28.218963      5.783442
  H       6.963624     25.649536      5.879820
  H       9.589016     24.914179      5.870550
  H      12.246900     25.477029      5.790985
  H      14.966190     25.051022      5.884490
  H      16.935595     26.892175      5.889046
  H      17.793430     29.452305      5.816582
  H      19.492972     31.596910      5.882043
  H      18.877982     34.197859      5.874026
  H      17.113419     36.215640      5.805861
  H      16.128258     38.787608      5.869539
  P       2.851234     39.748055      9.937396
  O       2.861632     38.354616     10.424058
  O       3.132993     40.029337      8.462026
  O       1.438446     40.447017     10.215279
  O       3.799333     40.714430     10.803019
  C       5.198034     40.701142     10.579328
  C       5.916850     40.391756     11.870330
  O       5.593048     39.067672     12.333452
  C       7.428467     40.434798     11.741168
  O       7.986230     40.853433     12.966126
  C       7.782279     38.977662     11.469342
  O       9.092827     38.728816     11.888889
  C       6.707730     38.251619     12.285677
  N       6.312967     36.961924     11.705727
  C       5.033101     36.497789     11.476599
  N       5.010661     35.248884     11.084402
  C       6.322036     34.885347     11.028358
  C       6.935538     33.720510     10.569925
  N       6.305229     32.637670     10.135350
  N       8.296272     33.756809     10.599719
  C       9.019448     34.843504     10.979815
  N       8.497539     35.946772     11.410023
  C       7.149877     35.944379     11.407997
  H       0.927142     39.854499     10.772910
  H       5.475109     39.996562      9.788909
  H       5.500311     41.698392     10.243196
  H       5.590040     41.087781     12.646495
  H       7.756126     41.077775     10.916493
  H       8.862019     40.449401     13.008570
  H       7.649673     38.759330     10.406172
  H       9.292448     37.803480     11.683194
  H       7.092450     38.041661     13.293105
  H       4.174676     37.158414     11.544185
  H       5.314947     32.723337      9.954062
  H       6.799221     31.958320      9.574825
  H      10.091771     34.742473     10.880871
  H       8.796979     33.003960     10.135413
163
Coordinates from ORCA-job /data/Seafile/amp/al_surf/protonated_al_surf/frames/frame12/dry/amp_al_frame12_dry E -13417.891435654095
  Si      3.473536     33.832747      7.702449
  Si      3.487890     30.745856      7.840017
  O       2.123638     34.440657      8.356308
  O       2.148012     30.059893      8.465919
  O       3.605054     32.300833      8.310460
  O       3.408066     33.729355      6.062482
  O       3.466511     30.704109      6.198942
  Si      6.148783     26.129299      7.876810
  Si      8.786300     24.532732      7.892395
  O       4.733440     25.561452      8.443212
  O       7.432768     25.281297      8.415154
  O       8.718891     23.008668      8.463925
  O       6.201117     26.131935      6.231495
  O       8.754824     24.591743      6.248451
  Si      6.137002     29.187488      7.777884
  Si      6.185347     35.356151      7.420543
  Si      8.955786     33.778088      7.458332
  Si      8.906143     30.697693      7.670914
  O       4.845268     29.984750      8.369392
  O       4.839907     34.644160      8.055193
  O       7.467476     34.392849      7.740222
  O       7.482973     30.034139      8.143082
  O       6.255390     27.680193      8.376205
  O       8.878160     32.248331      8.173780
  O       5.897046     29.093991      6.157430
  O       5.947192     35.479854      5.803601
  O       9.203328     33.550970      5.860434
  O       9.034008     30.649270      6.043425
  Si      6.553853     38.392358      7.458406
  Si      9.098692     40.080046      7.804235
  O       5.213732     39.155679      7.627111
  O       7.836489     39.141170      8.209952
  O       6.490308     36.817346      8.022957
  O       8.944944     41.572900      8.469166
  O       7.142050     38.280051      5.903545
  O       9.208216     40.152419      6.161940
  Si     11.471031     26.027090      7.797513
  Si     14.141509     24.528629      7.865189
  O      10.118756     25.334469      8.397366
  O      12.826059     25.343958      8.382962
  O      13.925936     22.999911      8.387516
  O      11.401150     25.741314      6.178699
  O      14.167574     24.616577      6.221638
  Si     11.553406     29.200965      7.774807
  Al     11.709964     35.365121      7.696208
  Si     14.306690     33.716999      7.878960
  Si     14.215831     30.683382      7.836170
  O      10.169167     29.891487      8.320120
  O      10.128238     34.629885      8.116440
  O      13.072617     34.533759      8.472717
  O      12.890849     29.880544      8.405291
  O      11.475909     27.613362      8.126179
  O      14.399162     32.161605      8.467604
  O      11.578231     29.429793      6.149785
  O      11.990630     35.008743      5.988893
  O      14.131879     33.523185      6.251420
  O      13.981708     30.826528      6.217785
  Si     11.793256     38.633955      7.788146
  Si     14.492270     40.073515      7.861951
  O      10.480915     39.424853      8.365488
  O      13.149812     39.346684      8.411584
  O      11.741389     37.071391      8.075745
  O      14.676309     41.620249      8.370246
  O      11.890332     38.992665      6.170248
  O      14.502130     39.958683      6.219013
  Si     16.864284     25.972976      7.894072
  O      15.508664     25.222769      8.417204
  O      18.102215     25.060988      8.437091
  O      16.781793     26.003809      6.250636
  Si     16.931788     29.043226      7.821788
  Si     17.070679     35.291004      7.824099
  Si     19.704359     33.714694      7.859758
  Si     19.553067     30.631077      7.862627
  O      15.517266     29.752323      8.155919
  O      15.759380     34.427940      8.196294
  O      18.406922     34.533111      8.409670
  O      18.169699     29.934754      8.392287
  O      16.924302     27.517494      8.420159
  O      19.705565     32.164078      8.398496
  O      17.145593     28.845405      6.201457
  O      17.327601     35.357288      6.197872
  O      19.584713     33.625702      6.219877
  O      19.477781     30.687116      6.219225
  Si     17.050176     38.364834      7.824587
  O      15.838185     39.294308      8.388277
  O      18.527494     38.904873      8.276986
  O      16.976664     36.825502      8.375615
  O      16.904215     38.297631      6.186445
  O      20.735801     29.633657      8.381540
  O      21.132788     34.343343      8.344336
  H       4.074657     24.986772      8.036591
  H       1.410409     29.602015      8.036749
  H       1.410409     35.007985      8.036749
  H       4.074657     39.623228      8.036591
  H       8.948181     22.173255      8.038302
  H       8.948181     42.436745      8.038302
  H      14.277762     22.173204      8.038282
  H      14.277762     42.436796      8.038282
  H      18.960557     24.876228      8.036406
  H      18.960557     39.733772      8.036406
  H      21.624717     29.491420      8.036583
  H      21.624717     35.118580      8.036583
  H      13.337090     34.057767      5.951786
  H      11.223298     34.720354      5.490382
  H       9.048222     32.651238      5.547543
  H       9.870590     30.244177      5.752936
  H      12.381593     29.913329      5.870410
  H      14.030458     31.779742      5.961502
  H      13.634199     39.654564      5.888845
  H      11.063447     39.362967      5.826246
  H       8.538880     39.576616      5.748234
  H       6.740937     37.584954      5.373123
  H       5.183168     34.988267      5.481750
  H       3.342321     32.826465      5.727736
  H       4.196494     30.192026      5.820090
  H       6.067067     28.218795      5.783368
  H       6.963906     25.648841      5.880142
  H       9.589135     24.913726      5.871068
  H      12.246821     25.476334      5.791569
  H      14.965822     25.051849      5.884640
  H      16.934757     26.892635      5.888709
  H      17.792988     29.452730      5.816301
  H      19.492942     31.597458      5.882220
  H      18.877930     34.198162      5.874151
  H      17.113813     36.215624      5.805695
  H      16.127294     38.787503      5.869240
  P       2.852749     39.747124      9.938249
  O       2.864879     38.353185     10.423362
  O       3.133591     40.030642      8.462920
  O       1.439588     40.444394     10.217828
  O       3.800605     40.713363     10.804214
  C       5.199375     40.700623     10.581462
  C       5.918127     40.390179     11.872557
  O       5.593971     39.065808     12.334560
  C       7.429607     40.432937     11.743474
  O       7.987787     40.849067     12.969270
  C       7.782679     38.975920     11.469510
  O       9.093339     38.725025     11.887410
  C       6.708466     38.249514     12.285801
  N       6.313536     36.960252     11.705208
  C       5.033561     36.496754     11.475430
  N       5.010920     35.247999     11.082710
  C       6.322120     34.884108     11.026631
  C       6.935596     33.719198     10.568042
  N       6.305150     32.636480     10.133318
  N       8.296358     33.755407     10.597982
  C       9.019760     34.841656     10.978962
  N       8.497907     35.944715     11.409829
  C       7.150222     35.942635     11.407187
  H       0.930833     39.852693     10.778681
  H       5.477235     39.996809      9.790794
  H       5.501850     41.698261     10.246481
  H       5.591069     41.085782     12.648910
  H       7.757612     41.077135     10.920054
  H       8.865108     40.447711     13.008458
  H       7.648266     38.758954     10.406230
  H       9.289978     37.798549     11.682199
  H       7.093101     38.038969     13.292912
  H       4.175621     37.158001     11.542724
  H       5.314726     32.722013      9.952549
  H       6.798717     31.957010      9.572530
  H      10.092122     34.740595     10.880242
  H       8.796906     33.002592     10.133797
163
Coordinates from ORCA-job /data/Seafile/amp/al_surf/protonated_al_surf/frames/frame12/dry/amp_al_frame12_dry E -13417.891435605066
  Si      3.473401     33.831977      7.702274
  Si      3.488127     30.745044      7.839894
  O       2.122553     34.438885      8.355258
  O       2.148756     30.058439      8.466234
  O       3.604877     32.300141      8.310232
  O       3.408009     33.729198      6.062147
  O       3.466456     30.703148      6.198808
  Si      6.148946     26.128590      7.877230
  Si      8.786859     24.532565      7.893177
  O       4.733766     25.560543      8.444010
  O       7.433016     25.280946      8.415526
  O       8.720617     23.008661      8.464783
  O       6.201079     26.130583      6.231958
  O       8.755178     24.591441      6.249157
  Si      6.137315     29.186924      7.777974
  Si      6.184807     35.355043      7.419591
  Si      8.955425     33.777521      7.457479
  Si      8.906145     30.697016      7.670950
  O       4.845685     29.984311      8.369165
  O       4.839630     34.643397      8.054958
  O       7.466643     34.391313      7.738596
  O       7.483123     30.033934      8.143588
  O       6.255595     27.679570      8.376206
  O       8.878055     32.247922      8.172909
  O       5.897317     29.093235      6.157609
  O       5.945867     35.478713      5.802909
  O       9.204711     33.550187      5.859959
  O       9.034107     30.647448      6.043593
  Si      6.553426     38.391036      7.457734
  Si      9.097459     40.079590      7.803492
  O       5.213378     39.154438      7.626394
  O       7.836454     39.139505      8.209184
  O       6.490423     36.815954      8.022129
  O       8.940388     41.572239      8.468166
  O       7.141319     38.279476      5.902532
  O       9.207270     40.151329      6.161287
  Si     11.471284     26.027085      7.797784
  Si     14.141568     24.528808      7.865479
  O      10.118919     25.335053      8.398123
  O      12.826213     25.344028      8.383528
  O      13.926005     22.999994      8.387361
  O      11.401331     25.740528      6.179238
  O      14.167673     24.616939      6.221868
  Si     11.553669     29.201116      7.774949
  Al     11.709161     35.365767      7.696059
  Si     14.305942     33.717449      7.879034
  Si     14.215715     30.683982      7.836346
  O      10.169236     29.891075      8.320413
  O      10.127368     34.629808      8.115582
  O      13.071753     34.534036      8.472762
  O      12.890981     29.880886      8.405602
  O      11.476427     27.613437      8.125964
  O      14.398579     32.162235      8.467998
  O      11.578789     29.430501      6.150098
  O      11.990155     35.009966      5.988737
  O      14.130921     33.523675      6.251585
  O      13.981539     30.827389      6.217929
  Si     11.792801     38.634811      7.788482
  Si     14.492147     40.073604      7.861895
  O      10.480782     39.426697      8.365035
  O      13.149529     39.347364      8.411554
  O      11.740235     37.072188      8.076895
  O      14.676613     41.620362      8.370183
  O      11.890287     38.992917      6.170426
  O      14.501746     39.959019      6.218959
  Si     16.864204     25.973372      7.894005
  O      15.508786     25.222950      8.417356
  O      18.102081     25.061263      8.436704
  O      16.781510     26.004441      6.250577
  Si     16.931714     29.043633      7.821840
  Si     17.070215     35.291216      7.823943
  Si     19.703982     33.715060      7.859799
  Si     19.553068     30.631385      7.862511
  O      15.517355     29.753055      8.155865
  O      15.758729     34.428513      8.196155
  O      18.406266     34.533052      8.409638
  O      18.169732     29.935021      8.392359
  O      16.923948     27.517930      8.420187
  O      19.705378     32.164371      8.398598
  O      17.145584     28.845804      6.201514
  O      17.327230     35.357425      6.197698
  O      19.584538     33.626309      6.219934
  O      19.477931     30.687711      6.219105
  Si     17.049786     38.365003      7.824241
  O      15.837846     39.294248      8.388328
  O      18.527245     38.904803      8.276327
  O      16.976480     36.825693      8.375519
  O      16.903664     38.298069      6.186168
  O      20.735662     29.633720      8.381144
  O      21.132268     34.343782      8.344662
  H       4.074657     24.986772      8.036591
  H       1.410409     29.602015      8.036749
  H       1.410409     35.007985      8.036749
  H       4.074657     39.623228      8.036591
  H       8.948181     22.173255      8.038302
  H       8.948181     42.436745      8.038302
  H      14.277762     22.173204      8.038282
  H      14.277762     42.436796      8.038282
  H      18.960557     24.876228      8.036406
  H      18.960557     39.733772      8.036406
  H      21.624717     29.491420      8.036583
  H      21.624717     35.118580      8.036583
  H      13.336199     34.058358      5.951918
  H      11.223040     34.720564      5.490454
  H       9.047374     32.651143      5.546079
  H       9.871068     30.243061      5.753370
  H      12.382043     29.914302      5.870790
  H      14.029851     31.780709      5.961871
  H      13.633736     39.655067      5.888804
  H      11.063210     39.362309      5.826032
  H       8.537894     39.575622      5.747580
  H       6.737654     37.586852      5.371072
  H       5.181635     34.987163      5.481415
  H       3.341197     32.826592      5.726724
  H       4.196231     30.190898      5.819858
  H       6.068073     28.218159      5.783671
  H       6.964180     25.647835      5.880799
  H       9.589533     24.912991      5.871522
  H      12.247085     25.476114      5.791926
  H      14.965746     25.052373      5.884676
  H      16.934634     26.893206      5.888586
  H      17.792667     29.453239      5.816118
  H      19.492851     31.598149      5.882359
  H      18.877529     34.198550      5.874275
  H      17.112758     36.215633      5.805285
  H      16.126652     38.787781      5.868953
  P       2.854264     39.744501      9.938714
  O       2.868441     38.349991     10.422109
  O       3.134008     40.030746      8.463745
  O       1.440389     40.439749     10.219699
  O       3.801736     40.710580     10.805378
  C       5.200386     40.698717     10.582754
  C       5.919481     40.388815     11.874010
  O       5.595348     39.064405     12.336381
  C       7.430875     40.431325     11.744495
  O       7.989551     40.846663     12.970295
  C       7.783597     38.974158     11.470173
  O       9.094147     38.722482     11.886985
  C       6.709737     38.247910     12.287015
  N       6.314425     36.958570     11.706337
  C       5.034307     36.495631     11.475830
  N       5.011464     35.247067     11.082383
  C       6.322459     34.882749     11.026572
  C       6.935887     33.717952     10.567476
  N       6.305188     32.635766     10.131932
  N       8.296646     33.753999     10.597236
  C       9.020216     34.839705     10.979015
  N       8.498475     35.942525     11.410577
  C       7.150823     35.940744     11.407770
  H       0.933659     39.848164     10.782670
  H       5.478807     39.994392      9.792776
  H       5.502235     41.696374     10.247173
  H       5.591969     41.084567     12.650060
  H       7.758802     41.075552     10.920968
  H       8.867665     40.446579     13.007607
  H       7.647963     38.757152     10.406986
  H       9.289334     37.795803     11.681895
  H       7.094300     38.036878     13.294121
  H       4.176912     37.157466     11.542733
  H       5.314732     32.721744      9.951552
  H       6.798320     31.956231      9.571009
  H      10.092604     34.738764     10.880079
  H       8.797276     33.001345     10.132454
163
Coordinates from ORCA-job /data/Seafile/amp/al_surf/protonated_al_surf/frames/frame12/dry/amp_al_frame12_dry E -13417.891441409840
  Si      3.473474     33.831606      7.701753
  Si      3.488193     30.744533      7.839387
  O       2.121883     34.437437      8.354500
  O       2.149135     30.057772      8.466326
  O       3.605003     32.299745      8.309524
  O       3.408108     33.729687      6.061555
  O       3.466121     30.702551      6.198351
  Si      6.148974     26.128231      7.877071
  Si      8.787172     24.532752      7.893399
  O       4.733782     25.560360      8.444312
  O       7.433123     25.280931      8.415432
  O       8.721754     23.008850      8.465172
  O       6.200804     26.129597      6.231857
  O       8.755403     24.591367      6.249344
  Si      6.137590     29.186683      7.777518
  Si      6.184592     35.354673      7.418751
  Si      8.955456     33.777493      7.456714
  Si      8.906177     30.697042      7.670727
  O       4.845830     29.983960      8.368427
  O       4.839549     34.643130      8.054543
  O       7.466202     34.390514      7.737044
  O       7.483163     30.034224      8.143340
  O       6.256104     27.679328      8.375652
  O       8.878259     32.248065      8.172258
  O       5.897564     29.092799      6.157213
  O       5.944619     35.478631      5.802299
  O       9.205767     33.549993      5.859435
  O       9.034201     30.646710      6.043446
  Si      6.553400     38.390588      7.457567
  Si      9.096986     40.079624      7.803209
  O       5.213346     39.153951      7.626493
  O       7.836764     39.138719      8.208826
  O       6.490979     36.815340      8.021432
  O       8.937446     41.572072      8.467723
  O       7.140295     38.279828      5.901943
  O       9.207200     40.151071      6.161023
  Si     11.471449     26.027326      7.797776
  Si     14.141585     24.528966      7.865468
  O      10.118991     25.335687      8.398404
  O      12.826339     25.344245      8.383769
  O      13.926077     23.000094      8.387202
  O      11.401500     25.740100      6.179420
  O      14.167654     24.617131      6.221838
  Si     11.553814     29.201491      7.774797
  Al     11.708915     35.366634      7.695851
  Si     14.305579     33.718074      7.879101
  Si     14.215719     30.684616      7.836313
  O      10.169196     29.890997      8.320368
  O      10.127029     34.630374      8.114614
  O      13.071323     34.534593      8.472799
  O      12.891053     29.881413      8.405566
  O      11.476815     27.613754      8.125604
  O      14.398243     32.162895      8.468172
  O      11.579258     29.431173      6.150080
  O      11.990341     35.011442      5.988516
  O      14.130591     33.524428      6.251670
  O      13.981630     30.828269      6.217873
  Si     11.792708     38.635763      7.788710
  Si     14.492390     40.073765      7.861802
  O      10.481012     39.428249      8.364965
  O      13.149593     39.348108      8.411432
  O      11.739804     37.073200      8.077667
  O      14.677011     41.620551      8.370095
  O      11.890423     38.993334      6.170575
  O      14.502100     39.959289      6.218932
  Si     16.864173     25.973702      7.893770
  O      15.508809     25.223257      8.417229
  O      18.101903     25.061315      8.436253
  O      16.781244     26.005006      6.250384
  Si     16.931715     29.043980      7.821750
  Si     17.069990     35.291421      7.824057
  Si     19.703727     33.715296      7.859852
  Si     19.553121     30.631619      7.862310
  O      15.517441     29.753691      8.155688
  O      15.758344     34.429133      8.196410
  O      18.405891     34.533011      8.409710
  O      18.169784     29.935239      8.392288
  O      16.923784     27.518286      8.420025
  O      19.705270     32.164578      8.398631
  O      17.145696     28.846159      6.201445
  O      17.327014     35.357461      6.197802
  O      19.584248     33.626729      6.220031
  O      19.478101     30.688189      6.218929
  Si     17.049741     38.365131      7.824121
  O      15.837841     39.294272      8.388536
  O      18.527277     38.904758      8.275938
  O      16.976558     36.825851      8.375579
  O      16.903404     38.298154      6.186086
  O      20.735558     29.633713      8.380669
  O      21.131948     34.344052      8.344790
  H       4.074657     24.986772      8.036591
  H       1.410409     29.602015      8.036749
  H       1.410409     35.007985      8.036749
  H       4.074657     39.623228      8.036591
  H       8.948181     22.173255      8.038302
  H       8.948181     42.436745      8.038302
  H      14.277762     22.173204      8.038282
  H      14.277762     42.436796      8.038282
  H      18.960557     24.876228      8.036406
  H      18.960556     39.733772      8.036406
  H      21.624717     29.491420      8.036583
  H      21.624717     35.118580      8.036583
  H      13.336003     34.059289      5.951977
  H      11.223340     34.721222      5.490492
  H       9.047175     32.651449      5.545059
  H       9.871738     30.243288      5.753489
  H      12.382549     29.914983      5.870843
  H      14.029884     31.781650      5.961921
  H      13.634093     39.655568      5.888575
  H      11.063163     39.361930      5.825825
  H       8.537541     39.576001      5.746963
  H       6.734225     37.589370      5.369566
  H       5.180445     34.986678      5.481193
  H       3.340913     32.827453      5.725400
  H       4.195849     30.190324      5.819311
  H       6.068768     28.217875      5.783177
  H       6.964118     25.647056      5.880899
  H       9.589694     24.912761      5.871528
  H      12.247239     25.476134      5.791901
  H      14.965512     25.052756      5.884449
  H      16.934352     26.893766      5.888431
  H      17.792505     29.453734      5.815899
  H      19.492758     31.598679      5.882321
  H      18.877078     34.198810      5.874431
  H      17.112802     36.215592      5.805311
  H      16.126475     38.787968      5.868856
  P       2.854591     39.742757      9.938603
  O       2.869594     38.347884     10.420930
  O       3.134057     40.030972      8.463857
  O       1.440307     40.436643     10.220206
  O       3.801789     40.708346     10.805986
  C       5.200506     40.697365     10.583376
  C       5.919865     40.387974     11.874575
  O       5.595809     39.063590     12.337533
  C       7.431201     40.430267     11.744454
  O       7.990415     40.845713     12.969902
  C       7.783689     38.972882     11.470461
  O       9.094191     38.721147     11.887340
  C       6.709976     38.246965     12.287716
  N       6.314279     36.957347     11.707361
  C       5.034116     36.494449     11.476506
  N       5.011281     35.245959     11.082750
  C       6.322249     34.881541     11.027151
  C       6.935802     33.716963     10.567484
  N       6.305130     32.635056     10.131368
  N       8.296593     33.753040     10.597187
  C       9.020151     34.838499     10.979822
  N       8.498311     35.941123     11.411937
  C       7.150657     35.939351     11.408843
  H       0.934873     39.845253     10.784578
  H       5.479200     39.992816      9.793781
  H       5.501629     41.695115     10.247311
  H       5.592150     41.083765     12.650401
  H       7.758632     41.074068     10.920343
  H       8.868760     40.446024     13.006643
  H       7.647867     38.755346     10.407313
  H       9.289596     37.794534     11.681989
  H       7.094653     38.035577     13.294611
  H       4.176915     37.156540     11.543106
  H       5.314709     32.721176      9.951641
  H       6.798187     31.955634      9.570277
  H      10.092638     34.737734     10.881174
  H       8.797459     33.000459     10.132571
163
Coordinates from ORCA-job /data/Seafile/amp/al_surf/protonated_al_surf/frames/frame12/dry/amp_al_frame12_dry E -13417.891445131239
  Si      3.473519     33.831385      7.701165
  Si      3.488068     30.744153      7.839067
  O       2.121083     34.435948      8.353528
  O       2.149220     30.057452      8.466567
  O       3.605070     32.299512      8.308816
  O       3.408586     33.730241      6.060904
  O       3.465683     30.701913      6.198116
  Si      6.149006     26.127888      7.876913
  Si      8.787472     24.532955      7.893306
  O       4.733917     25.559965      8.444727
  O       7.433342     25.280942      8.415214
  O       8.722946     23.009060      8.465448
  O       6.200320     26.128790      6.231749
  O       8.755470     24.591107      6.249249
  Si      6.137682     29.186496      7.777319
  Si      6.184428     35.354575      7.418253
  Si      8.955596     33.777574      7.456175
  Si      8.906003     30.697260      7.670607
  O       4.845676     29.983612      8.367973
  O       4.839356     34.643093      8.054352
  O       7.465831     34.389847      7.735598
  O       7.482958     30.034604      8.143241
  O       6.256606     27.679117      8.375202
  O       8.878524     32.248321      8.171994
  O       5.897676     29.092561      6.157043
  O       5.943052     35.479141      5.802062
  O       9.206609     33.549803      5.859079
  O       9.033601     30.646238      6.043336
  Si      6.553829     38.390290      7.458019
  Si      9.096782     40.079788      7.803580
  O       5.213731     39.153571      7.626851
  O       7.837273     39.138133      8.209430
  O       6.491777     36.814905      8.021267
  O       8.934772     41.572101      8.467780
  O       7.140376     38.280265      5.902027
  O       9.207261     40.150789      6.161335
  Si     11.471555     26.027657      7.797365
  Si     14.141495     24.529095      7.865053
  O      10.119068     25.336298      8.398272
  O      12.826445     25.344576      8.383619
  O      13.925883     23.000218      8.386742
  O      11.401612     25.739687      6.179165
  O      14.167524     24.617216      6.221442
  Si     11.553735     29.201979      7.774338
  Al     11.708828     35.367624      7.695581
  Si     14.305278     33.718713      7.878923
  Si     14.215642     30.685187      7.835913
  O      10.168991     29.891004      8.320203
  O      10.126841     34.631221      8.113663
  O      13.071046     34.535291      8.472662
  O      12.890980     29.881965      8.405122
  O      11.477098     27.614156      8.124821
  O      14.397924     32.163486      8.467951
  O      11.579238     29.432016      6.149737
  O      11.990595     35.013082      5.988204
  O      14.130348     33.525219      6.251474
  O      13.981694     30.829013      6.217460
  Si     11.792675     38.636736      7.789020
  Si     14.492801     40.073902      7.861707
  O      10.481479     39.429860      8.365389
  O      13.149841     39.348762      8.411328
  O      11.739546     37.074289      8.078325
  O      14.677506     41.620739      8.369968
  O      11.890396     38.993947      6.170825
  O      14.502650     39.959390      6.218934
  Si     16.864070     25.973922      7.893262
  O      15.508716     25.223497      8.416743
  O      18.101553     25.061151      8.435602
  O      16.780959     26.005483      6.249944
  Si     16.931616     29.044230      7.821359
  Si     17.069838     35.291488      7.824045
  Si     19.703547     33.715377      7.859750
  Si     19.553017     30.631749      7.861882
  O      15.517386     29.754213      8.155153
  O      15.758010     34.429641      8.196515
  O      18.405626     34.532870      8.409606
  O      18.169655     29.935425      8.391955
  O      16.923592     27.518524      8.419560
  O      19.705212     32.164648      8.398424
  O      17.145782     28.846332      6.201091
  O      17.326870     35.357384      6.197787
  O      19.583986     33.627003      6.219986
  O      19.478025     30.688611      6.218549
  Si     17.049855     38.365076      7.823917
  O      15.838096     39.294314      8.388685
  O      18.527571     38.904389      8.275262
  O      16.976689     36.825848      8.375507
  O      16.903101     38.297859      6.185921
  O      20.735178     29.633381      8.379824
  O      21.131732     34.344136      8.344723
  H       4.074657     24.986772      8.036591
  H       1.410409     29.602015      8.036749
  H       1.410409     35.007985      8.036749
  H       4.074657     39.623228      8.036591
  H       8.948181     22.173255      8.038302
  H       8.948181     42.436745      8.038302
  H      14.277762     22.173204      8.038282
  H      14.277762     42.436796      8.038282
  H      18.960557     24.876228      8.036406
  H      18.960557     39.733772      8.036406
  H      21.624717     29.491420      8.036583
  H      21.624717     35.118580      8.036583
  H      13.335906     34.060314      5.951821
  H      11.223606     34.722078      5.490546
  H       9.046138     32.651759      5.544270
  H       9.871553     30.243710      5.753379
  H      12.382433     29.916016      5.870537
  H      14.029912     31.782412      5.961547
  H      13.634697     39.655837      5.888378
  H      11.062972     39.361995      5.825866
  H       8.537108     39.576328      5.747184
  H       6.731611     37.592492      5.368369
  H       5.178999     34.986525      5.481516
  H       3.340417     32.828275      5.724105
  H       4.195427     30.189705      5.819123
  H       6.068947     28.217795      5.782721
  H       6.963788     25.646402      5.880885
  H       9.589722     24.912293      5.871185
  H      12.247363     25.476151      5.791421
  H      14.965250     25.052983      5.883915
  H      16.934308     26.894253      5.888105
  H      17.792299     29.454131      5.815422
  H      19.492455     31.599147      5.882040
  H      18.876785     34.199102      5.874437
  H      17.112386     36.215420      5.805190
  H      16.126333     38.787955      5.868724
  P       2.854117     39.741081      9.937909
  O       2.869561     38.345978     10.419425
  O       3.133986     40.030730      8.463469
  O       1.439257     40.433982     10.219037
  O       3.800657     40.706198     10.806357
  C       5.199405     40.696278     10.583679
  C       5.918734     40.387323     11.874862
  O       5.594840     39.062890     12.338238
  C       7.430134     40.429622     11.744373
  O       7.989543     40.845702     12.969383
  C       7.782715     38.972127     11.470914
  O       9.093114     38.721026     11.888197
  C       6.709056     38.246375     12.288320
  N       6.313313     36.956421     11.708118
  C       5.033274     36.493206     11.477209
  N       5.010602     35.244699     11.083674
  C       6.321608     34.880500     11.027940
  C       6.935276     33.716173     10.567694
  N       6.304658     32.634461     10.131105
  N       8.296046     33.752421     10.597210
  C       9.019437     34.837901     10.980078
  N       8.497480     35.940421     11.412401
  C       7.149847     35.938445     11.409529
  H       0.934802     39.843075     10.784853
  H       5.478387     39.991692      9.794134
  H       5.499703     41.694268     10.247380
  H       5.590818     41.082985     12.650720
  H       7.756994     41.072892     10.919551
  H       8.867911     40.446142     13.006329
  H       7.647337     38.753931     10.407897
  H       9.289792     37.795004     11.682333
  H       7.093777     38.034771     13.295184
  H       4.176042     37.155167     11.543862
  H       5.314260     32.720753      9.951654
  H       6.797702     31.955028      9.570165
  H      10.091957     34.737375     10.881440
  H       8.797181     32.999924     10.132628
163
Coordinates from ORCA-job /data/Seafile/amp/al_surf/protonated_al_surf/frames/frame12/dry/amp_al_frame12_dry E -13417.891447133685
  Si      3.473578     33.831309      7.700837
  Si      3.487828     30.743965      7.838848
  O       2.120493     34.434815      8.352916
  O       2.148942     30.057685      8.466749
  O       3.605210     32.299392      8.308241
  O       3.409278     33.730810      6.060498
  O       3.465223     30.701386      6.197979
  Si      6.148930     26.127727      7.876742
  Si      8.787545     24.533156      7.893155
  O       4.733849     25.559910      8.444961
  O       7.433381     25.280949      8.415022
  O       8.723579     23.009202      8.465560
  O       6.199770     26.128269      6.231602
  O       8.755413     24.590958      6.249126
  Si      6.137618     29.186460      7.777226
  Si      6.184451     35.354627      7.418214
  Si      8.955975     33.777699      7.456266
  Si      8.905784     30.697514      7.670605
  O       4.845310     29.983295      8.367711
  O       4.839228     34.643178      8.054504
  O       7.465708     34.389358      7.734653
  O       7.482587     30.035048      8.143260
  O       6.257038     27.679067      8.374831
  O       8.878889     32.248511      8.172167
  O       5.897732     29.092684      6.156916
  O       5.941736     35.479860      5.802244
  O       9.207748     33.549838      5.859280
  O       9.032740     30.646015      6.043317
  Si      6.554485     38.390170      7.458922
  Si      9.096986     40.080067      7.804244
  O       5.214347     39.153284      7.628033
  O       7.838054     39.137684      8.210202
  O       6.492661     36.814649      8.021597
  O       8.932889     41.572295      8.468106
  O       7.140488     38.280698      5.902596
  O       9.207928     40.150823      6.161924
  Si     11.471485     26.027912      7.797121
  Si     14.141254     24.529191      7.864643
  O      10.118983     25.336694      8.398178
  O      12.826409     25.344846      8.383558
  O      13.925414     23.000273      8.386136
  O      11.401542     25.739444      6.179019
  O      14.167169     24.617447      6.221081
  Si     11.553571     29.202354      7.774083
  Al     11.708993     35.368473      7.696171
  Si     14.305157     33.719165      7.879437
  Si     14.215562     30.685529      7.835900
  O      10.168736     29.891046      8.320156
  O      10.126895     34.632024      8.113552
  O      13.070999     34.535873      8.473289
  O      12.890839     29.882302      8.404941
  O      11.477161     27.614461      8.124265
  O      14.397736     32.163780      8.468189
  O      11.579105     29.432642      6.149554
  O      11.991107     35.014667      5.988709
  O      14.130294     33.525930      6.251942
  O      13.981713     30.829625      6.217471
  Si     11.792847     38.637369      7.789677
  Si     14.493314     40.074014      7.861856
  O      10.482170     39.431291      8.366119
  O      13.150279     39.349190      8.411588
  O      11.739455     37.075175      8.079653
  O      14.678078     41.620981      8.369833
  O      11.890561     38.993905      6.171378
  O      14.503219     39.959074      6.219175
  Si     16.863846     25.973946      7.892780
  O      15.508502     25.223572      8.416326
  O      18.101049     25.060594      8.434738
  O      16.780420     26.005887      6.249541
  Si     16.931504     29.044296      7.821163
  Si     17.069819     35.291419      7.824608
  Si     19.703514     33.715270      7.859836
  Si     19.552857     30.631713      7.861553
  O      15.517277     29.754431      8.154918
  O      15.757846     34.429939      8.197288
  O      18.405618     34.532635      8.409912
  O      18.169496     29.935494      8.391792
  O      16.923545     27.518520      8.419227
  O      19.705369     32.164507      8.398339
  O      17.145706     28.846374      6.200907
  O      17.326671     35.357138      6.198319
  O      19.583603     33.627026      6.220129
  O      19.477581     30.688963      6.218280
  Si     17.050087     38.364901      7.824058
  O      15.838586     39.294457      8.389062
  O      18.528031     38.904062      8.274626
  O      16.976952     36.825785      8.375938
  O      16.902674     38.297116      6.186133
  O      20.734739     29.632752      8.378831
  O      21.131763     34.344067      8.344574
  H       4.074657     24.986772      8.036591
  H       1.410409     29.602015      8.036749
  H       1.410409     35.007985      8.036749
  H       4.074657     39.623228      8.036591
  H       8.948181     22.173255      8.038302
  H       8.948181     42.436745      8.038302
  H      14.277762     22.173204      8.038282
  H      14.277762     42.436796      8.038282
  H      18.960557     24.876228      8.036406
  H      18.960557     39.733772      8.036406
  H      21.624717     29.491420      8.036583
  H      21.624717     35.118580      8.036583
  H      13.336106     34.061452      5.952361
  H      11.224101     34.723132      5.491363
  H       9.045359     32.652406      5.543890
  H       9.870920     30.244168      5.753153
  H      12.382436     29.916420      5.870399
  H      14.029725     31.783030      5.961677
  H      13.635326     39.655478      5.888583
  H      11.063151     39.361796      5.826191
  H       8.537108     39.577156      5.747644
  H       6.729267     37.595243      5.367877
  H       5.177811     34.986599      5.482321
  H       3.340370     32.829115      5.723197
  H       4.195168     30.189375      5.819092
  H       6.068887     28.218115      5.782141
  H       6.963312     25.645982      5.880759
  H       9.589646     24.912036      5.870925
  H      12.247251     25.476109      5.791077
  H      14.964762     25.053436      5.883536
  H      16.933889     26.894712      5.887870
  H      17.792039     29.454267      5.815136
  H      19.491858     31.599544      5.881876
  H      18.876377     34.199181      5.874709
  H      17.112053     36.215080      5.805666
  H      16.126014     38.787427      5.869008
  P       2.853097     39.741069      9.936928
  O       2.867854     38.346020     10.418686
  O       3.133815     40.030586      8.462600
  O       1.438107     40.434232     10.216653
  O       3.799259     40.705853     10.806040
  C       5.198144     40.695936     10.583602
  C       5.917075     40.386979     11.874809
  O       5.593030     39.062547     12.338147
  C       7.428510     40.429225     11.744369
  O       7.987787     40.846089     12.969070
  C       7.781205     38.971680     11.471530
  O       9.091430     38.721082     11.889912
  C       6.707185     38.246082     12.288589
  N       6.311604     36.956021     11.708396
  C       5.031755     36.492307     11.477577
  N       5.009433     35.243796     11.083996
  C       6.320599     34.880003     11.028457
  C       6.934546     33.716032     10.567832
  N       6.304222     32.634413     10.130763
  N       8.295284     33.752606     10.597444
  C       9.018351     34.838234     10.980650
  N       8.496101     35.940603     11.412964
  C       7.148469     35.938271     11.410017
  H       0.934059     39.844392     10.783965
  H       5.477172     39.991362      9.794075
  H       5.498289     41.693926     10.247195
  H       5.589277     41.082474     12.650840
  H       7.755165     41.072048     10.919046
  H       8.865967     40.446281     13.006841
  H       7.646873     38.753108     10.408423
  H       9.289413     37.795419     11.683800
  H       7.091736     38.034424     13.295533
  H       4.174239     37.153897     11.544344
  H       5.313867     32.720620      9.951327
  H       6.797535     31.955198      9.569761
  H      10.090899     34.737917     10.882263
  H       8.796710     33.000252     10.132878
