160
Coordinates from ORCA-job /data/Seafile/cmp/frames/frame14/dry/cmp_frame14_dry E -13391.960975225125
  Si          3.54261177528921     33.94610377480677      7.87528117633001
  Si          3.43757326293606     30.84773651827387      7.88389526469192
  O           2.29193330844909     34.85718846656501      8.40213238123356
  O           2.05007140467635     30.19527521791250      8.45311078651285
  O           3.46947781921164     32.39678339339643      8.40358311712955
  O           3.59997705862261     33.88826541487745      6.23030220546838
  O           3.46606156970126     30.89972413884656      6.23864272867647
  Si          6.17445250768841     26.08242993267983      7.84782942361959
  Si          8.85866513973471     24.55014817461625      7.85784097386308
  O           4.94063734334526     25.17758692988022      8.41406942873451
  O           7.54797149643692     25.37467384321986      8.36989407316499
  O           8.75703319971040     23.03029935133749      8.44553356902667
  O           6.21968485712028     26.14108740077886      6.20093628930200
  O           8.83143176705900     24.56757273085946      6.21250730756873
  Si          6.02011941327021     29.16661296582348      7.77038780845923
  Si          6.21723972743215     35.50553029358655      7.87872430511403
  Si          8.98037065711203     33.87325206045052      8.18379526608839
  Si          8.78924977911639     30.72959946550713      7.68709311733464
  O           4.75840785745445     30.01810641895011      8.37819936726568
  O           4.89188981331993     34.68901729099333      8.40176082191532
  O           7.55304000469838     34.73852676593310      8.31561372081563
  O           7.42360539341470     29.89866193069616      8.06809449730728
  O           6.04316595834187     27.63120584087443      8.34364095322188
  O           8.63988418430059     32.22342961174893      8.25239765599525
  O           5.68973372976990     29.08322826924033      6.15724234731139
  O           6.05933725234539     35.67673134829042      6.24356112719051
  O           9.21297799516602     33.88247579489239      6.48746140445151
  O           8.91867498022276     30.83028284414572      6.05178520537119
  Si          6.24215985788685     38.59286113659037      7.87549600449462
  Si          8.97211370319737     40.06012703224766      7.84693621271301
  O           4.97455051432937     39.49955288842602      8.37582807286253
  O           7.58741158333790     39.38010035851298      8.38825671675184
  O           6.20682463340416     37.05666691665530      8.42872317860196
  O           9.20237492525129     41.57900844556189      8.40071228536451
  O           6.33976900256534     38.52852220550715      6.23289629755505
  O           8.92808410908626     40.01638110879431      6.20134361370877
  Si         11.53733685638448     26.06409787179248      7.74919398341184
  Si         14.20637116852543     24.54492873001057      7.83897407379769
  O          10.21529325371550     25.32056090609429      8.35086054392833
  O          12.91540812893890     25.41019075230897      8.34401773979223
  O          13.96833440683683     23.02356255897674      8.37596841878726
  O          11.48713165430659     25.76653254317010      6.13261997986624
  O          14.24887346735482     24.60955862052076      6.19548922706607
  Si         11.47241486488456     29.23721442804550      7.66419997432052
  Si         11.64751428635310     35.41997212041538      7.72812727169266
  Si         14.25013885115158     33.81505952526106      7.61265925017952
  Si         14.13094963688711     30.75990066604883      7.59814051171690
  O          10.08749575498728     29.87421391771245      8.21516387156177
  O          10.31712829694139     34.85724716400190      8.43035212160823
  O          13.05217157993340     34.72557909056822      8.23349884430823
  O          12.85005511646404     29.93923454903518      8.19018349355480
  O          11.51057197650390     27.64805899626187      8.08202878305056
  O          14.28696502493057     32.27803983542695      8.17591686796155
  O          11.44542842570652     29.38406197081978      6.02682054232845
  O          11.56131170714387     35.12585582350361      6.11465639620503
  O          13.99455797819921     33.70432366794573      5.99151161462907
  O          13.87511247510508     30.87234739384672      5.97558791116053
  Si         11.68568946086635     38.60694541276204      7.74406829799197
  Si         14.38962506855512     40.06891085596298      7.84808336776713
  O          10.28974773209842     39.22025118830339      8.32910750794502
  O          13.00663113946834     39.36092145197215      8.35588046743456
  O          11.78878958709081     37.02382940631731      8.03325163302998
  O          14.57116222793845     41.59298393343740      8.40623767966249
  O          11.74201304727500     38.93811283609296      6.13057118902276
  O          14.40519536603828     40.00673599080840      6.20264792714077
  Si         16.89716198200044     26.06000586300085      7.87215523994488
  O          15.59225519482212     25.21296740835730      8.39055078030605
  O          18.24615750109268     25.36506646874535      8.46721091677373
  O          16.83329846039411     26.03198329076285      6.22934625604347
  Si         16.89202871131300     29.12437179558235      7.73028313454812
  Si         17.06147394694865     35.33599976284179      7.72329622607974
  Si         19.68531676338900     33.73803568010649      7.83592657736157
  Si         19.55272752683020     30.64849299270172      7.83337840022623
  O          15.48299600856063     29.90000238054260      7.87726412863181
  O          15.68567768636608     34.50934495244408      7.93680609068861
  O          18.34277853847458     34.52794151225867      8.33216444334062
  O          18.14682446411841     29.97394243762369      8.31447866073102
  O          16.77335556984855     27.61237109380761      8.37285403336753
  O          19.69399114953557     32.18891787438287      8.35367750862494
  O          17.21012831320124     28.83106176120698      6.13371071524317
  O          17.39794408665310     35.46121540852813      6.11165898183284
  O          19.63937749543536     33.67725627438294      6.18973914293899
  O          19.53198958209171     30.69459054621141      6.18356515811208
  Si         16.99802965646902     38.40809965157771      7.81959033756101
  O          15.70714559185637     39.25049489508368      8.36215518319357
  O          18.42670049911203     38.99281296543787      8.35216660672915
  O          16.93552033895740     36.85425672916684      8.31153232311589
  O          16.92718286138668     38.41753671630578      6.17336443848592
  O          20.73569796888345     29.66268811478548      8.37387344734032
  O          21.07088234500512     34.40646513559007      8.38682182510656
  H           4.07465734132775     24.98677196064252      8.03659112791601
  H           1.41040897504591     29.60201497281161      8.03674925757764
  H           1.41040896704026     35.00798500707041      8.03674925386144
  H           4.07465743951565     39.62322797463899      8.03659116014886
  H           8.94818085229574     22.17325463654836      8.03830168354841
  H           8.94818088528270     42.43674522075458      8.03830171709832
  H          14.27776165768572     22.17320400526179      8.03828222922040
  H          14.27776172481905     42.43679616431574      8.03828219187212
  H          18.96055660777651     24.87622774777223      8.03640577614987
  H          18.96055665944413     39.73377233851171      8.03640575186102
  H          21.62471726762866     29.49141992047540      8.03658340406942
  H          21.62471719841251     35.11858004920914      8.03658340542197
  H          13.17944914630208     34.17814529778334      5.73529367020972
  H          10.70160700614858     34.66169816322081      5.96421559342592
  H           8.94647198608896     33.05745994280278      6.06864166476600
  H           9.68959552506987     30.35773026022353      5.70615118302959
  H          12.23384070553697     29.84248250811252      5.69040712153770
  H          13.91413377622547     31.79356035703269      5.66464376770885
  H          13.55789127383545     39.70583716628776      5.83568762845241
  H          10.88911351288744     39.18624891859439      5.75066706122592
  H           8.14414344852559     39.55438724389637      5.86700456245287
  H           6.24035015606178     37.61994748383304      5.90131079098176
  H           5.41017744338390     35.08113880947698      5.84930881790545
  H           3.57672445997115     32.98199468291654      5.88977606416818
  H           4.14367057486534     30.31360682637289      5.86408939778957
  H           5.93180974988553     28.24033523552447      5.75305661565619
  H           6.95321591198082     25.63382843789352      5.82722376617660
  H           9.65430365890234     24.90885560477277      5.82987181261386
  H          12.33469398131719     25.50131015290080      5.75221092529456
  H          15.04200622652080     25.05844947468911      5.86354982711213
  H          17.00642864898216     26.91269827826834      5.85170634717160
  H          17.89105752458413     29.41325032042529      5.76830068546019
  H          19.55253476342687     31.60051550865851      5.84050296816584
  H          18.95849752318049     34.26301461896897      5.82056170775602
  H          17.19928259698931     36.32865076497876      5.73554225784308
  H          16.14926004166450     38.88645044048172      5.83662121477323
  P          10.23604572748707     32.76896479793096     10.87499828398427
  O          13.45201341449365     33.58166819144984     12.96026357055599
  O          15.04874782413093     36.09692319248764     12.76319383488857
  O          16.35562760640970     34.45545610545485     11.15747351334283
  O          10.88913077676035     33.86597004185437     11.85310126511162
  O          16.67249249320238     31.82898828311813     11.28212900976965
  O           9.44923698086279     31.83065180054685     11.68695410524671
  O          11.17303880562313     32.42130678652030      9.78810636435839
  O           9.01434395097042     33.75016346015173     10.10883881201359
  N          14.47952504868662     31.79910542868778     11.85021857073006
  N          15.52918413985830     29.89828744534039     10.92831666641311
  N          14.34815197092562     27.98936021344901     10.54882980070883
  C          14.26732183019585     35.44579463566381     11.79464206070302
  C          14.99217103253592     34.20075090472827     11.28997289000676
  C          13.02682855741684     34.83873471269626     12.42323557984871
  C          14.64148305416277     33.16552649831029     12.37134904203177
  C          11.94237384158073     34.67512635110629     11.37508739718335
  C          13.29796061541516     31.15386453746081     11.90546571122469
  C          15.62636919497256     31.17603665295738     11.33811893013679
  C          13.18794825799455     29.87614151800649     11.47596683103702
  C          14.36775396324284     29.26961180304312     10.98082871120718
  H          14.01432838491076     36.12352836693398     10.96895661415636
  H          14.54518510656042     33.87186458768751     10.34692720612766
  H          12.67237502338483     35.43177688425823     13.26820137959254
  H          15.44746918745544     33.12338928336310     13.11249558295451
  H          12.35678862246005     34.22437393170466     10.47289103024240
  H          11.55429229276418     35.66826617906909     11.11930434664689
  H          15.96477707575662     35.92789540862339     12.50029925961791
  H          16.76683196807982     33.56259614511743     11.15081032757024
  H          12.47002066191940     31.71459736489210     12.31319158077496
  H          12.23117521717341     29.37512346924442     11.49038439351346
  H          13.46772642379075     27.56928844399490     10.30964094564433
  H          15.15785641337921     27.67931693102999     10.03614314827335
  H           8.17736928805513     33.40103316748178     10.44154631254523
