69
Coordinates from ORCA-job amp_dimer_geom E -2983.406864705010
  O          29.87461282983073     41.84049809451673     64.72985543420718
  P          29.47709563626418     40.81868020632471     65.71986154934400
  C          31.71637532635609     39.53802022842796     65.13990059459469
  H          32.35004449066907     40.39885383030932     64.89710918453551
  H          31.23005137132433     39.20689353387290     64.21301485558354
  O          30.77954942661604     39.89068421498742     66.11575844185634
  C          32.55864964430307     38.39324459382540     65.65126680364762
  H          33.36239291593165     38.19850757130801     64.93006872897485
  O          33.14667790927507     38.72756807028990     66.91525963337980
  C          31.80431368958200     37.08361810809564     65.86730158779950
  H          30.75913465257107     37.27894662100705     66.11996323005565
  O          31.92277677267964     36.28196923291519     64.71522492528504
  C          32.55712673211542     36.44925195120474     67.04653991120257
  H          31.91680222338962     35.81631722742748     67.66470917711747
  O          33.67273527057839     35.73657838707483     66.57405097473229
  H          33.42334492066206     35.45236617962824     65.68110761704173
  C          33.05280834953096     37.66782793147175     67.81421321748526
  H          34.02997471785727     37.45070077197762     68.25470403581740
  N          31.36172320774265     36.35202048555391     72.47177134831766
  C          32.36105641215538     35.88307664563911     71.71913292987816
  H          32.89929691137828     35.03626272015371     72.13927411607848
  N          32.77078819511235     36.29365318205980     70.52869154220038
  C          32.06517810715552     37.34179211309500     70.09985670958361
  C          31.03744207624142     37.97360550548854     70.79758017362704
  C          30.66747470682174     37.39812221098600     72.01418402572548
  N          29.62362001850232     37.88110051648877     72.74327578361346
  H          29.26114070995486     37.22545326849096     73.41582160190291
  H          28.92317093792870     38.37479508467198     72.20161408413028
  N          30.53326390649164     39.02635487355670     70.08254780834433
  C          31.21669249326055     39.02277371686296     68.96706936418930
  H          31.07297288930339     39.69399696584154     68.13079691813698
  N          32.16161928941500     38.02348623753385     68.91807539463234
  O          28.52340875863402     39.73933336475861     65.01348566393195
  H          28.30099104815098     39.03448029013303     65.65881483892896
  O          28.92080039479873     41.18812541377147     67.06267190341885
  P          30.81681812658559     35.13361443085062     64.33991676021503
  C          30.50245993526445     33.12603925541040     66.04317662260229
  H          31.19153835812380     32.81617414049725     66.83774786504770
  H          30.75661760712702     32.57787794599073     65.12836386599007
  O          30.64361626903075     34.50256898272823     65.85151391491796
  C          29.09230588247688     32.77694472507467     66.46146030076788
  H          29.04789674666990     31.68698931781754     66.61441949590336
  O          28.76813339405623     33.41953739887975     67.69877425819119
  C          27.99401501140695     33.17407903596336     65.46513661776979
  H          28.31531028815616     34.03479510364905     64.87041798579422
  O          27.63874363663254     32.14642264794799     64.57614696664135
  H          26.97512861979157     31.62582366352328     65.04656259484841
  C          26.84522692474333     33.55931376283778     66.39694856798171
  H          26.12601098569935     34.24317196758727     65.94940131528902
  O          26.11866012329619     32.38819542716142     66.77123226162499
  H          26.63213633931682     31.94065733132593     67.45181499173724
  C          27.55787493397668     34.13747672627893     67.61001725479703
  H          26.98786286838321     33.95044165498081     68.52447026583012
  N          27.18080781952740     38.25540666034068     70.51219586959010
  C          26.98875067895368     36.96160814691458     70.74115029119196
  H          26.70329340241117     36.70891328114196     71.76178943105123
  N          27.10424836187408     35.93500341022568     69.91115594614079
  C          27.47686005410049     36.34968564641973     68.69744614159006
  C          27.68542560757867     37.65548591994106     68.28639494771512
  C          27.51776127107947     38.66481894972770     69.26302550177675
  N          27.64993528955625     39.95696441753949     69.01811211790432
  H          27.67465835323267     40.53662853447936     69.83999913020723
  H          28.12865077093260     40.34379933339030     68.15991894039696
  N          28.04710667179957     37.67642668381446     66.95686673592823
  C          28.06801227911360     36.42835424996622     66.57432472494554
  H          28.38266353345529     36.09994956031305     65.58394320088640
  N          27.72141217767762     35.56678049682866     67.59221181300872
  O          31.49842629307056     34.15481278813449     63.46858714051012
  O          29.52215844230333     35.77347605255312     63.99313305188061
