195
Coordinates from ORCA-job amp_dimer_frame15
  Si          3.91080289255492     33.81933505726550      7.99392308979752
  Si          3.85594661016502     30.80402963729875      7.90358539718981
  O           2.55962116505760     34.54491590544048      8.51870118352066
  O           2.56694629435633     30.06153750352398      8.54926832125958
  O           3.83413475931903     32.29507634658620      8.53433521467844
  O           4.07195031426873     33.83415242793114      6.36364008576535
  O           3.77640338184545     30.95382341414606      6.27363297243920
  Si          6.49188331748103     26.12251000749369      7.63642104631828
  Si          9.23711120287786     24.84943966849567      7.79140598967643
  O           5.15237088589412     25.32351299878598      8.08077629445481
  O           7.81627341237061     25.44450737855796      8.29043790931593
  O           9.53212384820941     23.41179197869591      8.48348051181558
  O           6.67208083668824     26.21663971134388      6.01265555238058
  O           9.14342624826050     24.80074211641087      6.15612565080167
  Si          6.34650807459290     29.11764244499450      7.59662490613497
  Si          6.57398003031909     35.19269206588615      7.96381824079208
  Si          9.12620850304370     33.48044031909752      7.62782734359453
  Si          9.14209068090986     30.47524915343768      7.41490814722137
  O           5.23521402175809     30.05081029025988      8.30639437574611
  O           5.21389835446337     34.58219990377280      8.59853823520697
  O           7.75650270122227     34.11928134199519      8.18441027982646
  O           7.80096377624341     29.73882755525861      7.89920546472287
  O           6.28105467773154     27.62299614171153      8.21007179765705
  O           9.19125551862289     31.94062593504665      8.10562399091093
  O           6.00538064682029     29.11099812804963      5.99818879030799
  O           6.35759580146065     35.57445966520726      6.39058219014851
  O           9.23583958536933     33.59628057950544      6.00167200904515
  O           9.17230361906337     30.68048989330902      5.79375836032490
  Si          6.76001128222161     38.13820714335768      8.40663874110273
  Si          9.27526631535216     39.81202997938067      8.53304261136768
  O           5.33544263660859     38.53161426068854      9.07342142228251
  O           7.95597052726628     39.01978967969143      9.05634605636872
  O           6.97952115480906     36.56200154113739      8.72783418569462
  O           9.39651865768432     41.27200836262496      9.22331174373023
  O           6.83784011737413     38.40399356049413      6.79115342066722
  O           9.25047606681501     39.88571222152307      6.89684462565769
  Si         11.91727945190738     26.13301592139380      7.63719249403726
  Si         14.43609329878490     24.55794949247879      8.04601343657001
  O          10.45560513712919     25.81646861108250      8.26060359501058
  O          13.06459296805710     25.33410328232890      8.46205374221391
  O          14.52174900293284     23.15532727219277      8.85012946101206
  O          11.89562108198381     25.65563399146539      6.07599187478488
  O          14.40271884771806     24.37824626559921      6.41621740584545
  Si         11.85765158907187     29.20366594260959      7.30536810836278
  Si         11.60441821627401     35.18032690791577      7.71011836854084
  Si         14.29318113860039     33.87359276150632      7.42220455250042
  Si         14.32461074770287     30.88402483024523      7.24252298206612
  O          10.40998032894871     29.60201434306877      7.90537933610782
  O          10.36633888205171     34.30224609304940      8.27161411367148
  O          13.01089029528469     34.51943249518432      8.17028489979955
  O          13.00121785524042     30.19419826477161      7.87871129710775
  O          12.21240763310714     27.70899068347865      7.78810637359329
  O          14.52631210764104     32.34516339604232      7.90776214999306
  O          11.75919589308469     29.32249689302361      5.67783910284294
  O          11.57522462008515     35.23422306666619      6.07637720527919
  O          14.05711576209944     33.84535352118230      5.80510939029821
  O          14.13232128941771     30.99488151051040      5.62314641821951
  Si         11.79458714692437     38.23054189971887      8.20991511390561
  Si         14.48633466718964     39.53350194301114      8.52857665952048
  O          10.62055611239321     39.02601528924281      8.99130290872123
  O          13.23196388390370     38.55809473644485      8.87845281742567
  O          11.50812585317011     36.65122422665699      8.35554785629057
  O          14.48739180723894     40.85836184100382      9.46273712234433
  O          11.87516688368024     38.70643751029107      6.64833564593144
  O          14.46889374714064     39.87275249862127      6.92441508338895
  Si         16.98049291533054     26.15140335284255      7.73499638003430
  O          15.74331366658918     25.40969061654549      8.47511142076994
  O          18.30809535900435     25.49355517885881      8.39149150306178
  O          16.85473110762544     25.86797712791799      6.12560759530595
  Si         16.89557830931630     29.12517412744933      7.15868367212681
  Si         17.01056356053938     35.32503270276768      7.34790121867007
  Si         19.36129604630096     33.63095244913043      6.67044847254948
  Si         19.44218157762792     30.61371615591750      6.63324288504031
  O          15.58482182236318     29.95299985027623      7.58914828046460
  O          15.59162908466891     34.72988190796787      7.83601811220153
  O          18.14368918076670     34.19230630070929      7.58627164619800
  O          18.21253799149995     30.00239700734338      7.49958762038318
  O          16.91356391383528     27.74836122734355      8.00525508640861
  O          19.75133632640114     32.12719837119841      7.13303291828817
  O          16.86427022486122     28.71111030042169      5.57685147500066
  O          17.01415202275421     35.69229789889027      5.75846575245008
  O          18.90337326591607     33.49183646246277      5.10430896795045
  O          19.03113923579732     30.61937353534504      5.04850546890263
  Si         17.16520640499844     38.23355581057680      8.02478216395630
  O          15.88482669891933     38.78766000202961      8.85892331108258
  O          18.55001786180917     38.86453888963120      8.57896376184332
  O          17.33323281366298     36.63468542939712      8.24402957884225
  O          16.92061461311676     38.50767076243643      6.42821536862460
  O          20.69787451039326     29.63043548191820      6.91721803078248
  O          20.60016464194321     34.64964210894522      6.91182280316794
  H           5.10430032394123     24.38515509275647      7.87634959835806
  H           2.44405227930030     29.12732612370685      8.35693667966931
  H           2.50760419321251     35.50282208105799      8.45316665677390
  H           5.05469865940253     39.45046055923872      9.03312176039538
  H           8.89493789925178     22.70444879474733      8.34757630123331
  H           8.66113729659998     41.88206638732553      9.11444736902757
  H          13.72173783001142     22.62715072810718      8.92329658921229
  H          13.69914168765941     41.40926310359178      9.46285150889323
  H          19.16226723913003     25.84530076071630      8.12424441838250
  H          18.63495294974488     39.82220432365546      8.59312246820053
  H          21.53246735411106     29.82777581717467      6.48238873928349
  H          21.42159519136461     34.48275774228837      6.44046500613654
  H          13.27417452155651     34.33805767321544      5.50944279126327
  H          10.82910912481436     34.75921881216898      5.67493807262299
  H           9.20419412743601     32.74930082775360      5.53082775301964
  H           9.93218931874307     30.26792161508033      5.35496088074911
  H          12.48435162943033     29.81675731108567      5.26454863398052
  H          14.03886175765164     31.90410725908094      5.29590691735716
  H          13.64794554651373     39.62129251383062      6.47144113825744
  H          11.05911718558793     39.10543781267636      6.30815340933518
  H           8.49523239956785     39.42377718497893      6.49567705773988
  H           6.59084643178435     37.64335150773305      6.24439147125233
  H           5.67606628083181     35.04904698716679      5.94396628361102
  H           3.96601422899529     32.96750757595753      5.94140259352218
  H           4.37993788815339     30.37580984102965      5.78322187936820
  H           6.21362705545785     28.28718323151598      5.53577124777405
  H           7.49055846263061     25.81311993383540      5.68159207762778
  H           9.99176557951984     24.91692169254417      5.70286750245699
  H          12.70569786310970     25.19900761227662      5.79498142138170
  H          15.17724408112227     24.74494455880730      5.95989684395394
  H          16.86858676885027     26.66748863951814      5.57661832054408
  H          17.40718025809632     29.26157874763895      4.99380729009047
  H          18.83741412262282     31.50038695906762      4.69216567572516
  H          18.33067943720806     34.19648288235070      4.77406466129342
  H          16.92209030342239     36.63810141788103      5.56606662778404
  H          16.10747631903654     39.00472417363899      6.23724189598020
  O          16.58993268154941     30.04256318577910     10.95493811660949
  P          15.37413808129164     29.39366110986850     11.51404844618612
  C          14.30581693621079     31.79953492073453     11.66084634789665
  H          14.82937674736662     32.23528908454292     10.80516670263134
  H          14.90766338856776     31.98631643691657     12.55795843609251
  O          14.11153111620205     30.41774750023468     11.44693928028971
  C          12.98129241860341     32.49188160675441     11.84034760745960
  H          13.17590878144813     33.57024914267517     11.88239213529689
  O          12.12006423268091     32.20497008470803     10.73182949185642
  C          12.14572066058636     32.11490781693114     13.05492512202130
  H          12.12245666645666     31.02733578984379     13.17670677290732
  O          12.67479667303337     32.69289746742503     14.23166279263228
  C          10.76179907058676     32.59800403836697     12.60377829572342
  H           9.95111370012154     32.12328629503843     13.16154643635929
  O          10.65064365378921     33.99381188898513     12.60563504775105
  H          10.67442554088395     34.25231033561408     13.55929313391315
  C          10.79021022467274     32.12107455144501     11.16046749738565
  H          10.14739011890025     32.73680925236007     10.53084892293495
  N           6.70267801995622     29.06335599497329     11.33662434031452
  C           6.81969881170992     30.39119253196813     11.30550776440976
  H           5.88492993761957     30.94318754615837     11.35409407100548
  N           7.92396363663665     31.12149048425082     11.22503510599950
  C           9.01383162359597     30.35403422919805     11.14783000744172
  C           9.04780835426673     28.96428784580785     11.15554894560551
  C           7.81062118719919     28.31055576400476     11.27128910384486
  N           7.70133789862662     26.97779592896000     11.35483403753082
  H           6.78800957332706     26.56109700528160     11.28961138143225
  H           8.50071253200583     26.40067461048371     11.15681657835078
  N          10.34262766075951     28.51028625586295     11.07505104473241
  C          11.06992204058047     29.59699935431768     11.02477179971802
  H          12.14769972877486     29.63879306476188     10.96164065552915
  N          10.32255059780195     30.74453475625493     11.06090032746815
  O          15.60418328383853     29.19178288877278     13.08262885287035
  H          14.84930048958859     28.65890096443445     13.46472869074903
  O          14.84094222242731     28.12772591979902     10.91433671697439
  P          11.75960560626389     32.99797366620193     15.52223813406522
  C          10.00594416669093     31.40792446588854     16.61748115948106
  H           9.01409793791259     31.18546282046579     16.21765878125196
  H           9.92164466505910     32.29603265104608     17.25123240551307
  O          10.88122970759964     31.64452760908824     15.52235228309375
  C          10.48913430967894     30.26201086896282     17.46608570077278
  H           9.92878795382962     30.27365067058135     18.40884262718121
  O          10.28257973756679     29.01242923216193     16.80436821096905
  C          11.98275126446519     30.28008315343461     17.75341188860062
  H          12.49871558048766     30.48969441160957     16.81269083992392
  O          12.38169078395679     31.19663334329742     18.72751377330543
  H          12.55195347541082     32.01913224389993     18.22266440299551
  C          12.23603344049064     28.82783027058960     18.11623122259520
  H          13.28733951521107     28.53805753552147     18.02675584948821
  O          11.73666380754163     28.50774051692397     19.39407406929504
  H          12.06987221548092     29.17382924449935     20.00732292318397
  C          11.35009500630828     28.12912327671011     17.08908699344551
  H          10.94665332904738     27.19406494089531     17.48040529738097
  N          11.16007762628034     25.40079090755783     12.78109231181330
  C          10.37716103641161     25.42942201190948     13.85646174259332
  H           9.51677561171741     24.76583387183619     13.82473484400976
  N          10.50403679281871     26.16270608932586     14.95671485773460
  C          11.59090830273991     26.93251575224882     14.90332314706501
  C          12.49692457910808     27.01006388087185     13.85490379695858
  C          12.24271409836661     26.19933547368854     12.72983274946887
  N          13.02195577436339     26.17821814320384     11.65103456915694
  H          12.70881184077697     25.63380101333649     10.86283356043969
  H          13.72565032124806     26.91049405177991     11.47974265765040
  N          13.49187882852073     27.91085174585476     14.16510394163893
  C          13.18891719940498     28.36217926425123     15.35166329312270
  H          13.77799479715021     29.08931837141170     15.88824366734793
  N          12.05239540444362     27.80527061278281     15.86159463270482
  O          10.86779360931594     34.17021545361014     15.24869991333037
  O          12.65459649610279     33.06170940816514     16.71379080927731
