160
Coordinates from ORCA-job /data/Seafile/cmp/al_surf/frames/frame15/dry/cmp_al_frame15_dry E -13344.968837529037
  Si          3.50333036659707     33.92464540932163      7.85551154245058
  Si          3.42843200743940     30.84299799328891      7.91793935613782
  O           2.30006905653670     34.89626810258574      8.38761570579927
  O           2.03673135567284     30.18969690123217      8.47551897368260
  O           3.40874717259854     32.39888149780994      8.41863051960406
  O           3.50413375968521     33.83515663405947      6.20931414020660
  O           3.47023263976047     30.86902936711563      6.26969503711367
  Si          6.11876387609775     26.16334176571425      7.91207084994797
  Si          8.76508521848276     24.54754776533951      7.88104188822160
  O           4.73688264142580     25.51608167022326      8.49345518397816
  O           7.43056664110693     25.31795224700160      8.40334596415952
  O           8.67285173659995     23.01012009040009      8.43797456341968
  O           6.12984372827515     26.13806829627318      6.25960405045936
  O           8.73938522930108     24.58805066872909      6.23289741913402
  Si          6.06509594289405     29.24711285197769      7.86777156399039
  Si          6.15274858008813     35.47357637951973      7.75779252273108
  Si          8.90425120805230     33.87564759285063      7.65813140809609
  Si          8.84384313960587     30.80268994597870      7.71290013164017
  O           4.76706197732385     30.07625262331153      8.43630760938318
  O           4.87490256620762     34.64423535828133      8.34045750192070
  O           7.51431772846933     34.68995922379167      8.05375814127911
  O           7.43954734800618     30.06102853465105      8.06126560900468
  O           6.17629546242631     27.70886856935688      8.39295142752596
  O           8.78974413720047     32.33425180839932      8.23751781536809
  O           5.70332116864265     29.14111699180622      6.24769923896120
  O           5.88693228543612     35.73824027966853      6.14891232503191
  O           8.92997469356141     33.74480571356614      6.01542340967341
  O           9.00628085181015     30.87162156559433      6.06798115005062
  Si          6.19991559167300     38.54401033941982      7.87514507618108
  Si          8.87630826817772     40.08546616567131      7.87469702794831
  O           4.93718629346478     39.42741384185300      8.43308154841699
  O           7.57214506867205     39.25180770937504      8.40589025928073
  O           6.18675951539909     36.99288052691521      8.38883697653074
  O           8.68570632887497     41.60740839013242      8.44918976843686
  O           6.23798943976595     38.54921480895002      6.23043781896110
  O           8.86686684094671     40.04044403715250      6.22683270232881
  Si         11.44944695216471     26.05767723823800      7.76638956509369
  Si         14.13220643185615     24.53530524006159      7.83950290795678
  O          10.12210994089890     25.32034847324061      8.36806648068644
  O          12.82211371117282     25.36584448913693      8.32629397401771
  O          13.91595552169057     23.00372203955630      8.37114834492319
  O          11.37393932631421     25.75899081140974      6.14466168463174
  O          14.19935347062108     24.58821080085782      6.19406831945471
  Si         11.49622077731352     29.24109942404003      7.72996345221889
  Al         11.70054514299705     35.42107091153400      7.75472455564098
  Si         14.29602708190261     33.75438545311385      7.88051543332106
  Si         14.17977464339941     30.71196689901108      7.83562661831677
  O          10.11899426674943     29.92511459256794      8.24024933667016
  O          10.16539895871283     34.68239814014123      8.17940321309858
  O          13.11488816155326     34.63669667451203      8.47007118772849
  O          12.85443235166085     29.90128945099136      8.34764388489988
  O          11.44803356146629     27.63985200412812      8.08104284130937
  O          14.35690437334926     32.19817395570885      8.46212276772946
  O          11.55626266533824     29.44359662243378      6.09721427747597
  O          11.95311591560224     35.07576562336311      6.02423959487489
  O          14.11091520487026     33.58168881691054      6.24915957394577
  O          14.01710895877496     30.86314792791040      6.20586692947457
  Si         11.66306521718665     38.72294086692812      7.77731160972936
  Si         14.41614478838044     40.08151716165654      7.85876653659181
  O          10.28553845878309     39.44469222145236      8.36854172362933
  O          13.00217511164901     39.48467293231153      8.38887957173702
  O          11.66308256002764     37.16837400949758      8.01907238330312
  O          14.69441792257790     41.62421462791224      8.35261197759770
  O          11.74190333441636     39.17423481282114      6.17947659528313
  O          14.43362984833674     39.96747310693691      6.21369222409930
  Si         16.86041346364147     25.98495832932641      7.89512482484326
  O          15.50903216281931     25.21687463295769      8.39658077727346
  O          18.10939649102425     25.08062308296495      8.44502230310591
  O          16.81398045865859     26.01774570780367      6.24865228909502
  Si         16.89472309069045     29.06184455555474      7.83096991490504
  Si         17.07751064114528     35.29813183380750      7.81942826227525
  Si         19.70840397670203     33.71654554095812      7.86007545994740
  Si         19.54554436485601     30.62977442718606      7.86155883185543
  O          15.50092146957829     29.79284012554118      8.16757343577735
  O          15.78573955393553     34.41876914052349      8.17463581931488
  O          18.43139525197366     34.56405941998448      8.40605361283860
  O          18.16336354034667     29.93564824211033      8.38026761567306
  O          16.90330500773845     27.52972411189599      8.42043461288457
  O          19.70164988294032     32.16663454477449      8.39616680019860
  O          17.11074570982794     28.85048486753658      6.20766309087854
  O          17.36405705780313     35.37207116175205      6.19303484141690
  O          19.59359551236688     33.63600237053264      6.21789167367712
  O          19.49942221871544     30.69341506893385      6.21642553320459
  Si         17.00202254416995     38.38715708328531      7.84024200312390
  O          15.72657052465852     39.24872122236567      8.38631521843175
  O          18.44887374308299     38.97416266389095      8.34453594481903
  O          16.96925837939187     36.84014867865191      8.35632832518886
  O          16.91007649493561     38.37684940113655      6.19574237919196
  O          20.73821976228987     29.63999598115681      8.38623444008715
  O          21.15374222636336     34.32743685885847      8.33560143549715
  H           4.07465730455417     24.98677191987014      8.03659114633221
  H           1.41040897734699     29.60201497628105      8.03674925894018
  H           1.41040901497911     35.00798497825543      8.03674926059159
  H           4.07465743943194     39.62322796540742      8.03659116144138
  H           8.94818085584584     22.17325470788183      8.03830169083656
  H           8.94818088203062     42.43674530592955      8.03830168756936
  H          14.27776169790519     22.17320381649865      8.03828218713406
  H          14.27776172681233     42.43679618986909      8.03828218886787
  H          18.96055659410484     24.87622776970031      8.03640578656547
  H          18.96055666548699     39.73377235537937      8.03640577063216
  H          21.62471718788042     29.49141994119779      8.03658340939687
  H          21.62471722991279     35.11858006957286      8.03658341069037
  H          13.30199151736207     34.10968150659098      5.97496451973161
  H          11.15689845600710     34.74906280236812      5.59710796016452
  H           8.92651756931294     32.82005201585289      5.72714454349924
  H           9.80704369260348     30.41912700586121      5.76269172362555
  H          12.36488432259538     29.91653040834775      5.82982853391047
  H          14.04152356981012     31.81699426529099      5.95914081094198
  H          13.56128824280388     39.70487870847893      5.86855458964810
  H          10.88205621752773     39.29176193251269      5.76086341976597
  H           8.07460761926195     39.61106007520109      5.87413609102202
  H           6.12165792630702     37.65481032496034      5.86607329259100
  H           5.27679257958634     35.11030727122186      5.74395941519947
  H           3.52466196881530     32.91665491868179      5.89864233679085
  H           4.18507991805055     30.29698250240947      5.93573284290314
  H           5.91570373363392     28.28342658289120      5.86074836809059
  H           6.90487726110973     25.68000757270929      5.90563531535156
  H           9.56689737446694     24.93824135653411      5.86600881852739
  H          12.22083552713258     25.52059623857749      5.74915305028430
  H          14.99120915222933     25.04566207391030      5.87387203738440
  H          16.93662137753387     26.91911847062122      5.90401500530391
  H          17.73430660964832     29.47285503679979      5.81204778126203
  H          19.50003454019993     31.60752747597713      5.88995856112038
  H          18.87921638153493     34.20622371349506      5.88160449467074
  H          17.12226246819964     36.21626813941210      5.79184196899629
  H          16.11102197297477     38.82646248181270      5.87683653143812
  P           7.30052038480742     30.06096148919974     12.10934308431439
  O          10.85159251278546     31.28071256277029     10.79175070036007
  O          13.47174934091386     30.04528165644701     11.77182378611786
  O          13.38754403952568     32.38363668486805     13.00135737409278
  O           8.72490026917500     29.60851851715601     11.41389279263813
  O          12.72536707550747     34.68090154398416     11.83495677162728
  O           7.33245678547510     31.54367134832507     12.28958772775159
  O           7.00061662592775     29.13047415030396     13.21789450006565
  O           6.32646060439798     29.76109566852332     10.83327478029180
  N          10.82793344589417     33.53407746228862     11.36844137600226
  N          10.90097493794596     35.87681297367085     11.18349701541163
  N           9.01097483142013     37.02846779236786     10.62452405100860
  C          12.25830149750658     30.32807490293959     12.42608394050867
  C          12.14773235056292     31.83138723643495     12.66736982213638
  C          11.06727060306780     30.06713932168347     11.51563121689844
  C          11.62287897411296     32.31100711224708     11.31214361926286
  C           9.82039207105042     29.68203915004737     12.28398696613775
  C           9.48046511158477     33.52546701847010     11.31165947343206
  C          11.54223484965275     34.73429381083010     11.48246041547495
  C           8.81001194763238     34.69545917969613     11.17362487281540
  C           9.59631294963355     35.85847539687244     10.99050696907890
  H          12.18039957233989     29.75436085554814     13.35904017000779
  H          11.39036748926894     32.03164230898598     13.43687634479615
  H          11.31199600820778     29.28816451390422     10.78907025926601
  H          12.47365053970142     32.53983003171100     10.65886854884709
  H           9.63848121573950     30.42267273250209     13.07492886439858
  H           9.98795439257102     28.71336631240754     12.77466219554261
  H          14.06132550963233     30.77122870275458     12.02775053633968
  H          13.35412404360066     33.30094827334700     12.63341249155673
  H           8.96313199095162     32.57171185981999     11.38544511460621
  H           7.73113736875362     34.69958068911939     11.12726521755845
  H           8.12505840686602     36.97048448615332     10.15164890852306
  H           9.64729848585748     37.72330399680682     10.26653354809863
  H           6.04627515398768     30.62941793315941     10.52845927041030
