160
Coordinates from ORCA-job /data/Seafile/cmp/al_surf/frames/frame15/cmp_al_frame15 E -13345.320556336716
  Si          3.45002402277211     33.84283035005060      7.81505916157404
  Si          3.47896792388595     30.74277580557943      7.81614203744847
  O           2.21338208271007     34.67521139603335      8.46650970711524
  O           2.23731355584572     29.90375714436852      8.45066980377807
  O           3.44886572887545     32.29142093227309      8.34520648974586
  O           3.41457312796938     33.84501830481021      6.17698321287535
  O           3.45853160471369     30.81110414688257      6.18292678595960
  Si          6.15483935533592     26.08571730375349      7.79588678648488
  Si          8.85386653706601     24.53327899503380      7.78903238261810
  O           4.87145670960761     25.34087300741842      8.46283177080231
  O           7.52217097328328     25.34376903927211      8.29452151933994
  O           8.79826215511127     23.04368403683363      8.44670699110040
  O           6.09978099148765     26.11363812081814      6.15911247293889
  O           8.82360516897954     24.49899204440828      6.15452499919230
  Si          6.12485749761260     29.16738516791854      7.67946648370838
  Si          6.09301658299358     35.41165976434599      7.64683782291326
  Si          8.83913368434011     33.82919794306412      7.52821322577807
  Si          8.86288947613016     30.74113605645325      7.58416084428337
  O           4.88508127697709     30.03794911406148      8.31807819915944
  O           4.82871048180113     34.59249120651182      8.28506159089431
  O           7.46324815640832     34.61554919399315      7.96978472945556
  O           7.51234464776450     29.93755319566311      8.02294765716537
  O           6.16565702331930     27.65457477469368      8.28552154286032
  O           8.74369105731068     32.27791388712404      8.09047288730384
  O           5.84793554982480     29.10712016014078      6.06894599181044
  O           5.85814077087076     35.58392496986154      6.03252105718366
  O           8.88478893836768     33.73848680732246      5.88706002879440
  O           8.99770783614170     30.76849705054246      5.95105229106584
  Si          6.14921474860560     38.50031714304112      7.74104131684610
  Si          8.85085237142751     40.09270050375401      7.74705663813344
  O           4.92240273621242     39.33659089766906      8.42219132453590
  O           7.54855519215006     39.21500694503928      8.20825985950090
  O           6.17024934324820     36.93544912363059      8.24500928069834
  O           8.64599674743474     41.58153979596649      8.38435464802449
  O           6.07347250827209     38.52913120238435      6.10918545163030
  O           8.96948887176023     40.10570169678605      6.11022605804124
  Si         11.52476765885402     26.08084456233696      7.69036565607348
  Si         14.19192837766166     24.53020346218237      7.78715020486222
  O          10.18543820577887     25.35777234949933      8.28513685179477
  O          12.88004760671858     25.38821412678162      8.27763619316633
  O          14.00343182873919     23.03338276786689      8.39778626045664
  O          11.46856196381654     25.88621496562164      6.06623396875264
  O          14.20615023128399     24.53010843895168      6.14946409238130
  Si         11.54099407778517     29.23948022627109      7.66760751114648
  Al         11.62488705195600     35.39037014779397      7.64863469401687
  Si         14.26778297170496     33.79440636594342      7.80278521026405
  Si         14.20751244305766     30.74510379308646      7.74587859957052
  O          10.17307487069467     29.96500211175085      8.19650101244446
  O          10.11199336403861     34.61024172821752      8.08903316184943
  O          13.03843331813236     34.62343180692189      8.40620594207128
  O          12.87735256407081     29.94890488814134      8.29136041226825
  O          11.49577621101139     27.66399837610333      8.08458705638554
  O          14.33201668581887     32.24049730861057      8.37850684085548
  O          11.57051928623424     29.39909478903314      6.03829269413523
  O          11.90523702692540     35.11758960894206      5.91931466218427
  O          14.10815799460170     33.65653400551215      6.17011865592124
  O          14.04737924015829     30.86919854335694      6.11979694159715
  Si         11.60063541954609     38.66038719480042      7.69897092021342
  Si         14.33841286414766     40.08362250268295      7.80844142984587
  O          10.24847849935469     39.42110789808332      8.26434111031309
  O          12.94722894130069     39.39177540145245      8.31975385649786
  O          11.59162504897314     37.10520046365709      8.04335722986298
  O          14.54058459425826     41.58319717649560      8.41898525041220
  O          11.68623751057568     38.95540334706990      6.07626821386374
  O          14.36698148845215     40.05686232349321      6.16948805878239
  Si         16.90597130265336     26.03326544672144      7.82377412166490
  O          15.54932002536780     25.26522161437130      8.33031425469859
  O          18.18491209540283     25.26407379407458      8.47365581377814
  O          16.89094318126800     25.99902639135599      6.18748163853296
  Si         16.91531855594587     29.11911418550741      7.73716751965700
  Si         17.02694672801096     35.34593539236549      7.74163749636151
  Si         19.68200702486376     33.77523014943795      7.80688129448844
  Si         19.57801431374685     30.67082143678718      7.81768193752541
  O          15.52235365364710     29.86359559043960      8.13304370161995
  O          15.71264410767710     34.49412296062901      8.16303556452016
  O          18.35261084462149     34.58204644946209      8.32823753069743
  O          18.18298988876424     29.96444003108505      8.32471445700629
  O          16.87239408866733     27.59527479553627      8.32831931101047
  O          19.63314776693359     32.22263093078045      8.33762122106917
  O          17.06725028368701     28.97725972867706      6.11342324733251
  O          17.21340567699120     35.38678683094614      6.11299889628993
  O          19.65668421145136     33.72672243993769      6.17006478812963
  O          19.56730185239447     30.65981629328767      6.17927035660203
  Si         16.97503834795973     38.43984900437871      7.79867736874586
  O          15.63830055796173     39.22217932626455      8.32788256403629
  O          18.35357852991210     39.06668804781022      8.40005615462663
  O          16.93273163755762     36.87747852403088      8.30617859806540
  O          16.96414901050918     38.43022455462889      6.15998921185417
  O          20.78746099071269     29.77591183730105      8.43764559058338
  O          21.05961755730675     34.41368138416419      8.39756746357757
  H           4.07465729232754     24.98677191060262      8.03659114713726
  H           1.41040897102927     29.60201497070853      8.03674925726227
  H           1.41040900776093     35.00798498403073      8.03674926182464
  H           4.07465743608303     39.62322796944247      8.03659116106084
  H           8.94818084844358     22.17325470734060      8.03830169092131
  H           8.94818088120017     42.43674530408084      8.03830168764048
  H          14.27776169737529     22.17320381505626      8.03828218701298
  H          14.27776172491644     42.43679619936970      8.03828218911768
  H          18.96055658719377     24.87622777657834      8.03640578647621
  H          18.96055666449844     39.73377235442109      8.03640577021097
  H          21.62471723236927     29.49141992903053      8.03658340957991
  H          21.62471723309351     35.11858007518180      8.03658341075355
  H          13.29121494698198     34.15354480828265      5.88422649841808
  H          11.14781186527376     34.74997305766482      5.45484580342635
  H           8.91050419481656     32.83136998274947      5.55195568482949
  H           9.79789024826183     30.33545954134956      5.61490057533797
  H          12.34797382919303     29.88305915245138      5.71203524542266
  H          14.04348549276931     31.80490258943848      5.83279350850388
  H          13.52724754113697     39.76121795982553      5.78109062243467
  H          10.86998292502264     39.31246607663682      5.69869064406827
  H           8.17279484607693     39.88491369663692      5.61556147026131
  H           5.96219181171848     37.65553522545352      5.70595544238008
  H           5.14871596329822     35.03772597801036      5.66581025765191
  H           3.42281706050858     32.96555339651868      5.77349692417728
  H           4.10939188457493     30.24158537178310      5.74639993451631
  H           5.94969908898749     28.23036537889206      5.67189159093383
  H           6.80521588021329     25.62918758432352      5.71181546479157
  H           9.61517324146351     24.86290776422035      5.73268568259901
  H          12.27841372917698     25.54208801316571      5.66574184080466
  H          14.96825856093252     24.97566138905035      5.75412150014888
  H          17.02043225930719     26.86229945554168      5.76849207906097
  H          17.77175115816964     29.51403838272088      5.72374305142429
  H          19.58076501910923     31.53705356335304      5.77151945612145
  H          18.95057907312635     34.25649368930661      5.77022576806943
  H          17.09987737799456     36.25838342346536      5.71023430307089
  H          16.19677187326375     38.86697541532405      5.76436685004473
  P           6.78408903780225     31.37838207224153     11.80916046966211
  O          10.58988150650370     32.30769069204566     10.80195228610152
  O          12.97343357316217     30.85588237764391     11.86672294521838
  O          13.19974473181569     33.25976616334850     12.98047542150824
  O           8.26216389540635     30.76301533671985     11.51320474659182
  O          12.59556681277820     35.62346558005930     11.88734639627994
  O           6.62284882537434     32.65630788207880     11.05385936728154
  O           6.53127342206511     31.33951067708386     13.27653514317763
  O           5.88902868417027     30.22775158226686     11.11549212538461
  N          10.64945412341944     34.58163023264308     11.37296915587916
  N          10.76603340080890     36.92588883290986     11.58534114513908
  N           8.89388548642019     38.20106031190320     11.32086270721831
  C          11.82837999188045     31.32976493526026     12.54023344682977
  C          11.89613451693632     32.84469281225329     12.68528035198548
  C          10.60991619227809     31.15356975857097     11.65358640456120
  C          11.40060792470495     33.31802419063841     11.31086870176770
  C           9.31506743374638     31.02454536233535     12.42300494030097
  C           9.31823592585876     34.63998062556127     11.16214619586910
  C          11.38396700908160     35.73707544355124     11.62878121017380
  C           8.66880346422589     35.82554788257116     11.16664622987344
  C           9.45823443863016     36.98964771820861     11.35562312601896
  H          11.71007295901637     30.82979695302349     13.50747900297576
  H          11.18506473594827     33.17108028748321     13.45452098029713
  H          10.73208756161462     30.28163805296380     11.00700546381104
  H          12.24795214138115     33.50282161138108     10.64296949462755
  H           9.12234802429924     31.93597338280370     12.99745712533434
  H           9.40385900701878     30.19362208288346     13.13115752095972
  H          13.69349513468866     31.45437163819635     12.11373714267971
  H          13.24338630008160     34.18244043826858     12.64761254505426
  H           8.80924912524594     33.70118971345718     10.98821051701927
  H           7.60463394933755     35.87912073617431     10.98896062934884
  H           7.93530818859357     38.31220851246108     11.04081552558361
  H           9.48110863741639     39.01729326415624     11.35434139460846
  H           5.59165052182972     30.47412071594905     10.22938498636094
