161
2 Eopt=-24.3698254837 (Eh) Einter=-41.968361 (kcal/mol)
Si 3.55619756093286731868 33.84476442261722439753 7.82276357834682745107
Si 3.55590021508673093109 30.76676464248359010867 7.82284079816446276112
O  2.14725507090814282662 34.47991502372452288228 8.40973852792791376487
O  2.14683493761441823722 30.13191591097941568478 8.40984764343831159294
O  3.71004510904167172924 32.30576445223875481361 8.41280327384287396342
O  3.55520840946504534941 33.84672284606261172257 6.16676352489190371386
O  3.55491063270248286443 30.76472336571557164575 6.16684084219174444286
Si 6.21945435823658687724 26.15150720092912450809 7.82297308188732376522
Si 8.88330596996589072489 24.61424976026665589757 7.82302827562052627286
O  4.81038912258532125321 25.51665836957718624944 8.40997994479859833916
O  7.47536352607302756468 25.24940042041048471333 8.41000352022959951626
O  9.03815422750082397840 23.07524947899374367921 8.41306749238609619113
O  6.21946467159110305545 26.14946602942650955015 6.16697313192210039290
O  8.88331682718934168008 24.61620855481872283121 6.16702822480516488213
Si 6.21975165052219569617 29.22950713344751605405 7.82289629821031251566
Si 6.22034607917561022106 35.38150694895426084940 7.82274214311916171738
Si 8.88419745307425046121 33.84424976661206585504 7.82279767518305657603
Si 8.88390008318572022006 30.76624971024949672938 7.82287491519750144420
O  4.81080926652794005349 29.86465800565083839047 8.40987141393839898740
O  4.81128092656098527158 34.74665786366102793181 8.40974902522806644356
O  7.47625507471105610335 34.47940031251564363401 8.40977289239709691060
O  7.47583501267102867871 30.13140043719128868815 8.40988179782889844205
O  6.37359925298590379583 27.69050700886860028049 8.41293572166420844383
O  9.03904498332281569617 32.30524944421674859996 8.41283752292182107624
O  6.21976243139113016412 29.23146574700077238163 6.16689624713395190270
O  6.22035653727707860128 35.37946534236881035440 6.16674219798747724752
O  8.88420829278249790661 33.84620805275259414202 6.16679785594174578733
O  8.88391050653588187913 30.76420830457116650791 6.16687499234654978864
Si 6.22064343050182255723 38.45950674793972723364 7.82266470233601118878
Si 8.88479196089591383156 39.99624950037671311520 7.82264305081959410160
O  4.81170078753899055357 39.09465713904577910398 8.40963963055103036481
O  7.47672682101835395230 39.36140026848332240661 8.40965003172809844045
O  6.37449096673199200325 36.92050682816517337415 8.41270448343531818125
O  9.03993734326937570245 41.53524933999077717317 8.41260523395595960494
O  6.22065423029428199442 38.46146494291678408217 6.16666464425603333410
O  8.88480247284442725686 39.99420773029628861650 6.16664310184701136563
Si 11.54845427461749807208 26.15099232332266154799 7.82300714491696957964
Si 14.21330584649452077883 24.61373496970420049479 7.82306254413485913091
O  10.13938923365567390533 25.51614301305381360407 8.41001392888937182590
O  12.80436339771279463662 25.24888564445517147306 8.41003767211877573118
O  14.36715410268285708639 23.07473485841659055495 8.41310182042130705327
O  11.54846468135625414675 26.14895111243609093776 6.16700719678882958164
O  14.21231681116915979146 24.61569388572258887393 6.16706248847961724380
Si 11.54875149186218230568 29.22899225809401357878 7.82293042213919243011
Al 11.54934588856506039178 35.38099255350802252451 7.82277624245972713624
Si 14.21419740900453554389 33.84373485161290062706 7.82283185875026987333
Si 14.21389983424054648253 30.76573485113204853292 7.82290905663100755163
O  10.13980918520849527908 29.86414306358807380093 8.40990556912741027418
O  10.14028102439015910363 34.74614281360818779376 8.40978341878107649165
O  12.80525457922079901607 34.47888527803116431869 8.40980699323733382755
O  12.80483482543684381483 30.13088562640679057836 8.40991592748685157233
O  11.70259910446312545673 27.68999212755197447677 8.41296980766268021057
O  14.36804485845668288846 32.30473474642787579114 8.41287152008914418388
O  11.54876230737647979652 29.23095091041357562744 6.16693036962121610145
O  11.54935627472946713112 35.37895055547515710259 6.16677636612043755804
O  14.21320800141225859647 33.84569328802055565575 6.16683186642236957908
O  14.21291020518655123794 30.76369351732003920574 6.16690907185660464052
Si 11.54964333160297407233 38.45899205238169571430 7.82269886538828007616
Si 14.21479182243603744951 39.99573456667974369338 7.82267713564092570522
O  10.14070098649821183301 39.09414296560355950305 8.40967387666813870339
O  12.80572674063267690769 39.36088551815605995898 8.40968415354286058516
O  11.70349088432512907332 36.91999205820423668456 8.41273859812288904436
O  14.36893717838891504357 41.53473451352814294069 8.41263927977083092458
O  11.54965410718830298720 38.46095034578355154053 6.16669882028019245013
O  14.21380227596693757164 39.99369288665532451432 6.16667717468215137444
Si 16.87745391095488045607 26.15047761317731556119 7.82304130678179365788
O  15.46838899815199397381 25.51562837325174015746 8.41004824127263894695
O  18.13336274896681032942 25.24837058871438344454 8.41007177109487003008
O  16.87746415417845469165 26.14843622883497786802 6.16704135717506041203
Si 16.87775123111222441707 29.22847752467291471135 7.82296442166889693937
Si 16.87834565123444008350 35.38047740817287944992 7.82281020279264449613
Si 19.54219697590237814211 33.84322009639559780680 7.82286558228619988142
Si 19.54189956454337107061 30.76522001761522773222 7.82294276196651150457
O  15.46880890877541503414 29.86362830913821397871 8.40993960133403284374
O  15.46928064843984884646 34.74562832529157674344 8.40981725145572411861
O  18.13425471131703048400 34.47837081480550125434 8.40984083292877748761
O  18.13383458929235558799 30.13037082445859127233 8.40994984784470567263
O  17.03159883954440445564 27.68947742874802742108 8.41300387097673230130
O  19.69704456978807272094 32.30421987490918667163 8.41290516861052317665
O  16.87776192933695185161 29.23043612869082608086 6.16696437414177367486
O  16.87835594083844981128 35.37843578673290778625 6.16681025530188176020
O  19.54220750901750847106 33.84517861637210245362 6.16686553296476436259
O  19.54190971096945617091 30.76317845027112340972 6.16694281227826657243
Si 16.87864310276088275486 38.45847736579975162385 7.82273277611695139200
O  15.46970085929689453508 39.09362822504196088857 8.40970791640857662230
O  18.13472631139561030977 39.36037116164678195673 8.40971798130088110668
O  17.03249069244193591999 36.91947734925950896923 8.41277247218565804587
O  16.87865370952415133843 38.46043574344197679693 6.16673271500450947968
O  20.79780834065839556501 29.86311288079349779423 8.40997325094456904537
O  20.79828007505634701602 34.74511392618148164502 8.40985083214390094497
H  4.07465742963478927408 24.98677204316540212403 8.03659115511886135153
H  1.41040896935538917489 29.60201496979161461809 8.03674925647872129275
H  1.41040900783081646352 35.00798498360015997832 8.03674926261561672902
H  4.07465743590055318180 39.62322797105078109325 8.03659115981172078591
H  8.94818084641953070957 22.17325470389391028903 8.03830168911844644697
H  8.94818087928114636043 42.43674530187394822178 8.03830168094996899697
H  14.27776169798254812804 22.17320385318664222041 8.03828218831555396662
H  14.27776172978936486402 42.43679616280883237778 8.03828219193790083352
H  18.96055660361449923812 24.87622775525943197295 8.03640577674244305229
H  18.96055653434353160947 39.73377223179652872886 8.03640577670607392236
H  21.62471722964188458604 29.49141993052177213031 8.03658340867093379245
H  21.62471723345478125111 35.11858007522290137103 8.03658341035848344802
H  13.39922795491953166902 34.28531247235831358466 5.85463176745698543613
H  10.85603171028451363611 34.89218233301885163655 5.71721595863990650344
H  8.79316677332968943404 32.97374190491248668877 5.76219939989447826889
H  9.66357961502359152917 30.35160700855951887434 5.76895568213481446662
H  12.30629750005747702346 29.68608882569470708290 5.77123880511095066481
H  14.17430145846464206727 31.65300279512673853333 5.78286316931263222330
H  13.45700859271422444863 39.52750482969378253983 5.78093078887615074990
H  10.82185198564370764984 38.95872177519586898597 5.76976940814972394378
H  8.14980839582146110445 39.50861002893897477861 5.76627385355342969575
H  6.23194667504688748494 37.58116492126676178032 5.76471310444074358514
H  5.44704955362979870159 34.95093754055630341782 5.77257540992818185543
H  3.60664936420824044916 32.96826993158889962388 5.76388710699968420670
H  4.32819223195702384999 30.34484056126374085238 5.76402041656450592200
H  6.20754699130401910168 28.34935900090469473867 5.76818373889298552371
H  7.00943285652958802956 25.75772182345997407538 5.76748914500068643463
H  9.64047060708774417037 25.06526887581356533019 5.76511829281440668638
H  12.31477063338186184183 25.70825778344560319510 5.77188275813594131591
H  14.95393929826943590911 25.09100721825145541288 5.76597661929101334977
H  16.85170393373924468960 27.02666099277614719654 5.76146800088285981900
H  17.64768340227638176998 29.66420704517028283931 5.77142433816841649019
H  19.48180900509081681093 31.64168672046037400492 5.76490010362407900857
H  18.77140968642203233685 34.27358367805304339981 5.76790924675124205834
H  16.89481964937529312465 36.26079389856082713095 5.76914703402976769553
H  16.09152696880545363456 38.86028469839290266918 5.76951241513462864674
P  11.72671753601910538123 32.08673101400240312842 11.21574060352681101449
O  9.33132150446162889068 34.77762361199869189932 12.97465364205331539438
O  6.46643840706147798869 35.27920321293564143161 12.05315064529195545617
O  7.85150982470528013835 37.34166600806514679789 11.08862637564394404421
O  10.43821586337201878791 32.49340608327474910766 12.10214960017077068244
O  10.41038173943658051712 38.52072479143954808478 11.51388962354511669162
O  12.96878895091165340148 32.64777408896467392196 11.86671934581277554344
O  11.55253235993919069813 32.60700457345458858072 9.80573122913221695285
O  11.77831139676612437484 30.49661489529183100444 11.09631698680573030913
N  10.86495711922956530771 36.31380095924058792889 11.92403143941618104407
N  12.48446792956515061235 37.73671091230873742006 10.96299763243964342507
N  14.52540012683963865925 36.84304674363210096999 10.16105389735297848119
C  7.60993003663324962815 34.89074614539860164086 11.33085545040700381492
C  8.53285696357968959092 36.10876017174877006255 11.11262220616148610475
C  8.50688962526582770352 33.93379311015370802807 12.16623771536705689300
C  9.49070596632584084773 36.05190333896182153239 12.33070730752946886355
C  9.40678640175109137544 33.02006078213885587047 11.31492539014370102279
C  11.73506182469045455719 35.27021711053713204365 11.83439531447554315946
C  11.20673214019013741449 37.59539866554346332350 11.48180306131253836099
C  12.96685255226850941312 35.42959158071319336614 11.29558784829312045872
C  13.35800576292744779039 36.68714634611817615450 10.83216904594354801361
H  7.27541926447121323207 34.43897442325867785939 10.38636165495063323760
H  9.09950445732669521703 36.00900514020356268929 10.17199105525412505813
H  7.89571892565537680753 33.34590828800153161637 12.86563672986737039139
H  9.19757508827330383383 36.81199600191430221230 13.06627573519016216608
H  9.87770887363444849427 33.60254578174257034107 10.50471195143532909810
H  8.85408558751452723357 32.18678068456534901998 10.85100304467084875171
H  6.19149555910029558703 36.16585277620371385865 11.72937570597697920505
H  8.55371277262342566416 38.02787854240046527821 11.13715732246245870840
H  11.39783100834231355236 34.30659084817484227869 12.17486031322352779682
H  13.61624930397530874870 34.57897265669326003490 11.16874686262039162443
H  14.95307635598231144058 36.05156973821741672737 9.69082090854734801155
H  14.76283369040052839694 37.69390705624437742927 9.66123617350394781056
H  12.14852310937387613876 30.31001378750084995772 10.20898209457268990263
H  12.66186402256294130098 38.56020399385973007611 10.39286498486795728979
