162
14 Eopt=-407.5254194099 (Eh) Einter=-13.698257 (kcal/mol)
Si 3.55625020342814135432 33.84481351777298385741 7.82283052192165673233
Si 3.55593639195512345452 30.76681375048690014751 7.82283149616768103130
O  2.14730559709645874022 34.47995713558436392532 8.40980825110293750413
O  2.14686231963704621251 30.13195801680770813391 8.40980966015741060460
O  3.71008409656125515141 32.30579812021905183883 8.41283350884579839146
O  3.55527628749372404116 33.84681297644372222067 6.16683050741359561897
O  3.55496202335269284589 30.76481349815190924346 6.16683148092116262262
Si 6.21946582695738925395 26.15154202993795706789 7.82287392704910722330
Si 8.88330919946200125992 24.61427028872736144649 7.82291552674443479987
O  4.81039182402910014957 25.51668622933412677867 8.40985212647652957685
O  7.47536482356842757468 25.24941406378451347337 8.40989359552007087473
O  9.03814383675822696773 23.07525464260564262986 8.41291806286559840089
O  6.21949138174996818407 26.14954192355256878955 6.16687394492879992214
O  8.88333533387147511462 24.61627018686754553300 6.16691554499330329975
Si 6.21977961413401647661 29.22954196540872473520 7.82287341225022281321
Si 6.22040692819069107600 35.38154178826160745075 7.82287165503692527579
Si 8.88425010744714249711 33.84427022518391936501 7.82291377935181220238
Si 8.88393625550344978592 30.76627025768857492949 7.82291467608522594901
O  4.81083521989124562879 29.86468585589922852819 8.40985130539726100096
O  4.81133299209985310085 34.74668571393527116697 8.40984984536349244877
O  7.47630573795812392035 34.47941393374972562924 8.40989158708357287253
O  7.47586237044849966082 30.13141408511167540496 8.40989277468812090888
O  6.37361355468532053692 27.69052643337167296522 8.41287612447482224809
O  9.03908403693253426070 32.30525463860167434405 8.41291663200131267786
O  6.21980561955679167596 29.23154162852006265894 6.16687340521301408103
O  6.22043261076036824164 35.37954121063303603023 6.16687165090491262731
O  8.88427617145874570781 33.84626969415668895635 6.16691376176340622095
O  8.88396189480108944281 30.76426994301894168871 6.16691459625073434836
Si 6.22072074770144567424 38.45954160508544106278 7.82287044101093798076
Si 8.88487749792780689972 39.99627009486786732850 7.82291135280836957833
O  4.81177610595699967178 39.09468497609271508964 8.40984815235943550249
O  7.47680356779799826228 39.36141385641673906548 8.40988966413729777116
O  6.37455463209734229935 36.92052622811922191204 8.41287352460030213308
O  9.04002569361297858563 41.53525449281557513359 8.41291308191585684995
O  6.22074678744262321572 38.46154080485987236671 6.16687043961874881148
O  8.88490322602548943109 39.99426934452769444306 6.16691135397370349125
Si 11.54846574447515727968 26.15099867823285961776 7.82295698784486415178
Si 14.21330911887044656794 24.61372707388633074288 7.82299880437092198804
O  10.13939193503292734988 25.51614235768927585468 8.40993508813176404715
O  12.80436466565978825827 25.24887074117568275256 8.40997670686621212610
O  14.36714371858491645639 23.07471152315326534676 8.41300136335476445026
O  11.54849138429578303544 26.14899848649390889932 6.16695698139904102675
O  14.21233531182378051483 24.61572701590609213440 6.16699878081789698570
Si 11.54877942795043743729 29.22899867668916584762 7.82295652741126712471
Si 11.54940674671554923236 35.38099852317154869752 7.82295480084582184332
Si 14.21424993274460746306 33.84372686339742841710 7.82299679672684078469
Si 14.21393597084736271086 30.76572709453126819312 7.82299763324050712043
O  10.13983507330086908382 29.86414241054955809318 8.40993435364657671016
O  10.14033288980235880672 34.74614237895253410215 8.40993306721686018079
O  12.80530558330912072051 34.47887069199806830966 8.40997468744613563274
O  12.80486230925309065753 30.13087057181311934073 8.40997596458256424512
O  11.70261342858039377290 27.68998304971189838852 8.41295918078172100252
O  14.36808379975885863189 32.30471137483184662642 8.41299968435096623409
O  11.54880548211760427080 29.23099828051091009229 6.16695649326444694793
O  11.54943233924908341237 35.37899793563131822793 6.16695480131301732030
O  14.21327586821733568456 33.84572642745796855479 6.16699678688161778695
O  14.21296159074318410376 30.76372662175683458941 6.16699767982840363345
Si 11.54972065772179057319 38.45899842552068292889 7.82295359196181294692
Si 14.21487735679187025539 39.99572667177900342494 7.82299441689507801811
O  10.14077630371831517664 39.09414231237300185740 8.40993138119253913487
O  12.80580347734581359020 39.36087061058620406584 8.40997276795635073654
O  11.70355452267398987942 36.91998300282416778373 8.41295663580803676496
O  14.36902552479774897165 41.53471118135872330868 8.41299609863218300632
O  11.54974665238293773939 38.46099771188374205622 6.16695359151981747914
O  14.21390301371588904544 39.99372599819056262049 6.16699440308480806294
Si 16.87746530884628270996 26.15045547819178040072 7.82304014116157020453
O  15.46839169503115840598 25.51559922832484517130 8.41001835997983171467
O  18.13336401434851197223 25.24832716897577711279 8.41005978022174005559
O  16.87749087832539629517 26.14845510038948717124 6.16704011182109823608
Si 16.87777886497632096052 29.22845582608718828510 7.82303939858511920846
Si 16.87840650060775260499 35.38045526333246471040 7.82303765181132426676
Si 19.54224961681819650039 33.84318369590155839433 7.82307944542365252261
Si 19.54193557389991653395 30.76518398989288982648 7.82308032017051768747
O  15.46883487734369211353 29.86359905825565519422 8.41001742659513951139
O  15.46933269414670952813 34.74559913068077321441 8.41001601413372412708
O  18.13430533906141661760 34.47832742615965173627 8.41005747932181968451
O  18.13386226513010512917 30.13032690798989321479 8.41005892634640872529
O  17.03161328517692751916 27.68943978604256273002 8.41304222292941616956
O  19.69708352256316175044 32.30416801726563846842 8.41308228734880536592
O  16.87780519131712964054 29.23045487006972464883 6.16703949233514769901
O  16.87843199475000233178 35.37845465785041199069 6.16703765329048536614
O  19.54227535868486498316 33.84518324491355656392 6.16707943751271514543
O  19.54196109109732049092 30.76318298518665983465 6.16708036209206245104
Si 16.87872042573556541356 38.45845522948193462298 7.82303646038326494505
O  15.46977615108365178287 39.09359903443694150837 8.41001439877941159295
O  18.13480302853211156844 39.36032777499318768832 8.41005555162999662855
O  17.03255432242831801659 36.91943977505732732425 8.41303947294697351822
O  16.87874623687552855245 38.46045460903743418157 6.16703645972296055078
O  20.79783428416215684820 29.86305518979438744509 8.41010008165644151745
O  20.79833211196346809402 34.74505628945185264911 8.41009857008049088734
H  4.07465742803613917289 24.98677204441553811876 8.03659115339057095184
H  1.41040896917089142448 29.60201496890574901499 8.03674925633732151198
H  1.41040901461481382739 35.00798498173254102994 8.03674926456920779572
H  4.07465743667685398322 39.62322797219709968886 8.03659115988999239732
H  8.94818085110086158807 22.17325470630926531612 8.03830168803178501946
H  8.94818087839587761323 42.43674530331337280131 8.03830168072815887115
H  14.27776169717136767190 22.17320385284849493246 8.03828218848090259030
H  14.27776173115170088579 42.43679616271331411781 8.03828219178907765752
H  18.96055658797712339947 24.87622777787046857156 8.03640578058013055340
H  18.96055653559392339957 39.73377222672839081952 8.03640577823557400450
H  21.62471724212239365670 29.49141995025266282937 8.03658341455574287693
H  21.62471723689272096181 35.11858007129890069109 8.03658341149865051989
H  13.43954240724050208655 34.27033906132629681451 5.76911863064292340653
H  10.79702478230375284340 34.91824967573492699557 5.76839602514692373347
H  8.90770700422673478158 32.96594596192816339908 5.76499475673488870342
H  9.65945433236870520943 30.34299408480176296621 5.76888005220738087075
H  12.30259136559986821169 29.68912269770782685896 5.76803922696450577234
H  14.18560353833311538096 31.64418152175441534268 5.76552258506524317738
H  13.46208429049572075087 39.53603768241237048642 5.76468154400771215506
H  10.78553467863467218990 38.90473306679241716211 5.77122838976952223788
H  8.14831461442063087475 39.50994490505097900268 5.76699955037103073607
H  6.23317386246009874640 37.58286575786652861098 5.76180503595805149075
H  5.45415702091756671166 34.93908511454473142521 5.77152547614448785396
H  3.60566386847576492158 32.96814933217330434445 5.76410508793191933563
H  4.32812544128679199673 30.34544671569684481938 5.76331957713909570629
H  6.21212642332862685635 28.34933201704422955913 5.76816829155313559596
H  7.00946743081700684996 25.75759721553812653383 5.76754704144454510839
H  9.64012206967219320575 25.06582757876765654714 5.76488469488324462020
H  12.31500792515429232310 25.70853944705717708530 5.77192568454448817761
H  14.95343798991276074162 25.09203406335354458179 5.76610003190330466794
H  16.85241663163562364502 27.02653750994697645638 5.76116217796598029111
H  17.64630211768204404166 29.66655902637610964234 5.77122747342058950437
H  19.48194553942310491834 31.64158904760012802626 5.76482832069867434654
H  18.77355784195155408156 34.27390175948541184425 5.76498788497839420586
H  16.88031298508144928405 36.26100719847833886433 5.76894103311394612632
H  16.09309773695883194478 38.86024083817275709407 5.76722976411389787188
P  9.91206325862751924660 34.71860973033982844527 14.23881091689938571676
O  11.22091125906257680356 34.09492906379901455693 14.54353748630425258170
O  8.61292649848464009210 34.07820032003299814960 14.57472692790832979881
O  9.87299642664799392833 36.25925664345552235091 14.82183972279283423745
O  9.88140668295439539293 35.12212952224034978599 12.59035948997109422010
C  10.85643792385134887013 34.51749236244887697467 11.81649633880023486654
C  10.32357924938226645395 33.22470389116229227966 11.18528171711289331824
O  11.30402268550361988275 32.56385192146883156283 10.37080047596644050145
C  9.92264186969613248834 32.17394593532477387043 12.20842134228541553398
O  9.04195156501339525335 31.21174043695445377011 11.65762732077869046066
C  11.27243708013003953283 31.48948668334383782508 12.51235594545296159197
O  11.10445377215837581275 30.16814801928183698010 12.92098436350593715360
C  11.98722355919744231301 31.60001580073019056272 11.13153201980827589068
N  13.39485128290708892962 31.91142980141047758025 11.22122148407024155858
C  14.00994346522163169766 33.13079293298552840952 11.20917801707842720305
N  15.30809933501755182306 33.07149744628660670287 11.20919029380614517777
C  15.59781090279908610796 31.73226372097558112273 11.20885861582387477142
C  16.78773634205215614656 30.99886943619808832295 11.13302530001510426416
N  18.01376745240833443518 31.59729363548662206540 11.09159666918502118449
N  16.72021343891992373187 29.66670213806959921499 11.15684892155828933369
C  15.52500681900044376960 29.09124186243990095591 11.20502468859777422949
N  14.33785619045650427950 29.65926952742155364717 11.22421070261954767489
C  14.39928093051761592847 30.99056844473108540683 11.21792963943047816144
H  8.97243647990934611869 36.51988996135130349785 14.64605794747258826760
H  11.14894387075515602703 35.20349106844155073759 11.01001695829267745808
H  11.71882284428203746529 34.28853638151053218053 12.45323422399372503833
H  9.48246947982865506788 33.48003249543802439803 10.53563947775148967878
H  9.44393087048238655257 32.59093394339671334592 13.09589882527767024101
H  9.22947278182784813794 31.13369046412931240297 10.71371231862735839968
H  11.81549191834951706426 32.03247010845360165376 13.29031372216559958588
H  10.23587745170707918874 29.89806112253150516267 12.57468875215093362385
H  11.93949255143612120378 30.62464574985552800968 10.62403340834860543396
H  13.45575007422087310260 34.04538807653964482824 11.18044730326127833564
H  17.99373722685513854458 32.55786293035845346822 10.78471023802644701561
H  18.74583402299872503249 31.02635675408168580702 10.69997782553783949311
H  15.53348055502464930555 28.00943701772511218451 11.21727975986876657544
