163
7 Eopt=-23.8212843804 (Eh) Einter=-43.093661 (kcal/mol)
Si 3.55625017296792389487 33.84481356011745134538 7.82283054332676375253
Si 3.55593638154384983352 30.76681376403749368365 7.82283150407571259422
O  2.14730563297527332622 34.47995708110167356608 8.40980824613889055286
O  2.14686231692836138052 30.13195802089850872107 8.40980965946048186765
O  3.71008412518322572282 32.30579810247069616480 8.41283350264253471096
O  3.55527630624426116412 33.84681296600392386154 6.16683050784311603820
O  3.55496202491458834771 30.76481349679665555641 6.16683148153376681222
Si 6.21946585450655575755 26.15154206775060430346 7.82287394266402102971
Si 8.88330922004962175720 24.61427032329504527297 7.82291554147473622294
O  4.81039181829907125376 25.51668623355877585368 8.40985212790834069096
O  7.47536479279344234783 25.24941401141091290583 8.40989357643532464692
O  9.03814384300263107264 23.07525464039467166799 8.41291806265721930913
O  6.21949137377006877614 26.14954191140310513219 6.16687394331358973432
O  8.88333532813434523234 24.61627018268580613380 6.16691554197231006640
Si 6.21977966430967033062 29.22954192480629487250 7.82287346736873256958
Si 6.22040700597502382863 35.38154179311909075523 7.82287170452973779078
Si 8.88425006270941608477 33.84427032784063271720 7.82291365044411701746
Si 8.88393618174126054043 30.76627020640663090489 7.82291466443792415930
O  4.81083520689329091624 29.86468583984560609679 8.40985130347724307853
O  4.81133299418643112233 34.74668574092486750260 8.40984983075377812156
O  7.47630570254723547663 34.47941389718775440087 8.40989159971166522212
O  7.47586229943356084249 30.13141418795983383916 8.40989270354327089763
O  6.37361354730416973524 27.69052643097632326885 8.41287610111730543849
O  9.03908428157682131143 32.30525430744215498180 8.41291672343832708236
O  6.21980563283941112473 29.23154162884996409844 6.16687339330287898065
O  6.22043259946594329080 35.37954122333322004579 6.16687163200031385202
O  8.88427620428133479891 33.84626969021645237490 6.16691383078569632659
O  8.88396188886730087120 30.76426989736973638401 6.16691460482988951242
Si 6.22072099274041523387 38.45954155625950932063 7.82287058436650806215
Si 8.88487757292944735354 39.99626994425841530756 7.82291138289522258731
O  4.81177604544560466593 39.09468494480533706792 8.40984814884716236350
O  7.47680339093056378630 39.36141403239509628520 8.40988954421844780995
O  6.37455448789920975372 36.92052617914103507246 8.41287347317796374568
O  9.04002573166780010183 41.53525449438976835381 8.41291308752278510497
O  6.22074680316322847773 38.46154080954092080447 6.16687041248436784713
O  8.88490319403066663995 39.99426939539186065531 6.16691134898338866321
Si 11.54846573874316639774 26.15099868118629800051 7.82295698832147579083
Si 14.21330912320070005705 24.61372706446966418525 7.82299880048073426053
O  10.13939193180279652040 25.51614235822120235753 8.40993508056719818455
O  12.80436467152862256569 25.24887073391574787706 8.40997670996723201142
O  14.36714364283679756795 23.07471167179716431406 8.41300136645563156890
O  11.54849138308708056400 26.14899848695140960331 6.16695698187615981567
O  14.21233531191512788894 24.61572701179543898320 6.16699878067875051357
Si 11.54877942616370489759 29.22899858942148298979 7.82295645971380970707
Si 11.54940687522729625414 35.38099856693180100820 7.82295503147361870333
Si 14.21424979502322472058 33.84372689641181608522 7.82299687257850795419
Si 14.21393588866570745211 30.76572706630456366383 7.82299767979245697092
O  10.13983514554228548832 29.86414253436868193603 8.40993441619587578373
O  10.14033279905775941643 34.74614248048228404286 8.40993298859256910305
O  12.80530551764385194247 34.47887058029558460248 8.40997456760577222212
O  12.80486221001086732940 30.13087062505044144700 8.40997596932642821344
O  11.70261343376306228947 27.68998305101240120507 8.41295917825773997833
O  14.36808401459119366450 32.30471138661286545357 8.41299963442384246548
O  11.54880548704712239783 29.23099827788143656448 6.16695651409929901376
O  11.54943229146042682487 35.37899794645508677604 6.16695474113558006479
O  14.21327588876557967978 33.84572639540038352379 6.16699677435032356243
O  14.21296163282501900937 30.76372663056713463448 6.16699767941315446507
Si 11.54972062798825938046 38.45899843743554669118 7.82295360879121659536
Si 14.21487735656566897546 39.99572666259816600132 7.82299441480754165212
O  10.14077630574221267068 39.09414233449424358469 8.40993137089454556587
O  12.80580347675683405839 39.36087061196038661137 8.40997276785959968493
O  11.70355453868231698777 36.91998296237402854558 8.41295658650816946533
O  14.36902555695819216908 41.53471122040716068113 8.41299609752333488188
O  11.54974665537993416820 38.46099770929463090852 6.16695359046498037259
O  14.21390301406531797568 39.99372599721400689532 6.16699440384581354380
Si 16.87746539732541606327 26.15045546638151208185 7.82304011462189219372
O  15.46839169872746921897 25.51559921658189722393 8.41001837290250264800
O  18.13336401745511139438 25.24832718060667247073 8.41005977541625604488
O  16.87749085219452993556 26.14845510337318756910 6.16704011530868001500
Si 16.87777919319119135366 29.22845540119878648966 7.82303948437709451014
Si 16.87840651203108777167 35.38045524946734587957 7.82303766050786375530
Si 19.54224960346173034509 33.84318369989793495733 7.82307944173940938981
Si 19.54193573316974408272 30.76518362316177856997 7.82308037257577559842
O  15.46883485112731726474 29.86359910645618143121 8.41001744442151988324
O  15.46933270336905508202 34.74559915523217767941 8.41001600418994144093
O  18.13430534524241721783 34.47832741992780114515 8.41005747710361539760
O  18.13386197240326680458 30.13032742000682162598 8.41005878649758287224
O  17.03161313562940293309 27.68943984379878031632 8.41304222239099885883
O  19.69708344879069983335 32.30416803469980635555 8.41308232783261189525
O  16.87780510800350342038 29.23045500309519439952 6.16703947929417850560
O  16.87843199558125206750 35.37845465953743229193 6.16703765340706944187
O  19.54227536239002560592 33.84518324260178445684 6.16707943636070599069
O  19.54196108963295586136 30.76318307941232532698 6.16708037163151345794
Si 16.87872042473448885858 38.45845523004196309103 7.82303646020226839397
O  15.46977615018865215291 39.09359903306199868211 8.41001439899345726303
O  18.13480302900843099678 39.36032777548945915669 8.41005555125682136008
O  17.03255431989319390595 36.91943977613287586337 8.41303947306518828952
O  16.87874623710317578684 38.46045460921498460038 6.16703645968864044846
O  20.79783429008827511097 29.86305522893152541997 8.41010005779333091880
O  20.79833212210856885349 34.74505628478272001303 8.41009857257611059822
H  4.07465742986859602581 24.98677204067468693438 8.03659115476965624225
H  1.41040897060620018522 29.60201496642547880356 8.03674925693028185947
H  1.41040901440675980894 35.00798500472387786431 8.03674926412553247701
H  4.07465745329538631125 39.62322799573775711224 8.03659117227930153149
H  8.94818084686374959347 22.17325470612060200892 8.03830168964262448128
H  8.94818085556734565955 42.43674530857640547765 8.03830168560183189186
H  14.27776171178977726584 22.17320383807220451899 8.03828218196433219589
H  14.27776172544163912903 42.43679615412513328465 8.03828219534376486877
H  18.96055658469712312808 24.87622777368586213242 8.03640577884907258976
H  18.96055653578615718402 39.73377222655181384425 8.03640577826488389235
H  21.62471722912059490795 29.49141993077332202233 8.03658340933880666057
H  21.62471723384222599407 35.11858007569738759912 8.03658341069804116330
H  13.43954240963024915345 34.27033907663544454181 5.76911863187674800457
H  10.79702480482577797716 34.91824966296514531905 5.76839602703027320985
H  8.90770698860094967131 32.96594596467251392369 5.76499474341252859944
H  9.65945434089548449208 30.34299411956153491587 5.76888005120592595176
H  12.30259135478335430491 29.68912270475200188002 5.76803922300555527158
H  14.18560352806339963649 31.64418152393191618899 5.76552258658490313081
H  13.46208429190507160911 39.53603768341084645499 5.76468154366378549014
H  10.78553467962696821303 38.90473306517669982441 5.77122838956780981334
H  8.14831462358711178240 39.50994488701211793114 5.76699955120367313555
H  6.23317384367861748729 37.58286575390572181732 5.76180503850135661281
H  5.45415702371893296174 34.93908510777215070675 5.77152547795201265046
H  3.60566385780856712984 32.96814933401769565080 5.76410508546287836396
H  4.32812544091466744334 30.34544671691392991875 5.76331957654326831886
H  6.21212641354966343954 28.34933201753421272429 5.76816829246892659455
H  7.00946743403910410564 25.75759722017086872370 5.76754704169160881122
H  9.64012207180558178266 25.06582757795454696748 5.76488469570977013490
H  12.31500792444447789364 25.70853944663214107891 5.77192568375788717105
H  14.95343798843318339209 25.09203406548253312280 5.76610003201589194077
H  16.85241664016458429387 27.02653749623628343102 5.76116217502285365981
H  17.64630213747654607914 29.66655897641346939508 5.77122747432688854019
H  19.48194552403458956746 31.64158903599418692920 5.76482831444805121635
H  18.77355783962871882409 34.27390176042968761294 5.76498788594928601725
H  16.88031298315293327050 36.26100719909439362709 5.76894103257213686220
H  16.09309773682814181939 38.86024083799525641325 5.76722976421945432435
P  12.48933301791309347095 31.87504638648283261659 10.88053169188714086602
O  11.73584327255694326197 32.09701310168430410386 9.57832120732586389522
O  13.70180682728787147084 30.97675550089594054270 10.78535136362739521587
O  12.89881607236160299124 33.36476005791062959815 11.29826001845108152111
O  11.45518526640302958697 31.24415385536674349964 11.95412599492453509242
C  10.60914948216239039880 30.35483024418993380777 11.28353472112453736997
C  9.35221604654004501356 30.00580110756536811323 12.10564365508473017030
O  8.95549777855151774020 31.09507531914745470658 12.93991997121055170794
C  8.13645682298762018547 29.69655813707566949233 11.19274789761327681958
O  7.27806368091649869001 28.74977105490082252004 11.77975933972278177464
C  7.41929328757498218749 31.06865794653475987275 11.06231400878805892773
O  6.01718410835827466343 30.91849917689024707101 11.14151625640275966589
C  7.96894554762420170846 31.88642616060743506523 12.26434719939563322555
N  8.50202803035960030797 33.19217765393909758131 11.86108098383430231593
C  9.82273540464789007842 33.52418786382954607461 11.62169483369216038682
N  9.95835950976765893472 34.75791920573345805678 11.23084839635453135998
C  8.70623027750941602676 35.28486623932789711944 11.22057391628790234961
C  8.25217343123214241984 36.54320380446544902497 10.79793596413304257453
N  9.05704439278664530377 37.42982334638437436070 10.16321571519844724207
N  6.90971773763849839156 36.72009640883405978684 10.93170536173809637148
C  6.07063348064909114044 35.72722280863938237871 11.38609401331326154150
N  6.43013475988018079477 34.53411735529491721763 11.73995408389579608865
C  7.76243641285602592461 34.32773583673867534571 11.63728686992809002732
H  12.87667532214181242978 33.84485465372656420868 10.43896680816837374550
H  10.30814283214334281524 30.85745564894009973500 10.34764412555500889823
H  11.19433260501077320725 29.46163800401420829189 11.00192148362992128341
H  9.54678321813175045918 29.16395374153247388449 12.78662493954662338069
H  8.45618681550486783749 29.28901929117584757023 10.22252528660870396493
H  6.65014921378167933597 29.22285974043087719565 12.36946318987827986291
H  7.67459660467189763722 31.58837557244995153383 10.12508813855757416889
H  5.66034645806260794387 30.53086649397094376468 10.30537339648500250178
H  7.15624458330745127910 32.06057045830478813286 12.98082789673306791656
H  10.66313139842893598086 32.86287073101849642853 11.74618640073250475098
H  9.94646307182534528124 37.16498249405501042020 9.74416842986537545812
H  8.61734737091251901120 38.17160944900179941897 9.61672600857281700826
H  5.01270748919416941902 35.93692568596949854509 11.41634505170816460407
H  6.50752025103017039953 37.54647923291681621549 10.48512153528456458673
