161
7 Eopt=-23.1931994367 (Eh) Einter=-38.488417 (kcal/mol)
Si 3.55625019757722782288 33.84481352241177631868 7.82283052349396967884
Si 3.55593639419356577491 30.76681375059121492654 7.82283149603705307840
O  2.14730563674219254722 34.47995712166849813229 8.40980825185815739076
O  2.14686231977134767135 30.13195801662721962089 8.40980966048970124405
O  3.71008409432517005655 32.30579811981358773210 8.41283350925424677769
O  3.55527628730154354741 33.84681297565167312769 6.16683050729244985888
O  3.55496202304456065946 30.76481349810035936798 6.16683148085431032115
Si 6.21946585434506094003 26.15154207820252807437 7.82287394253325363280
Si 8.88330929907022515124 24.61427019357890699780 7.82291560529334706331
O  4.81039181779455127241 25.51668623643878319740 8.40985212687248484542
O  7.47536478051824371249 25.24941399317589230122 8.40989358020437727248
O  9.03814384204823184632 23.07525464261653880271 8.41291804114638708256
O  6.21949137472780932967 26.14954191027474905695 6.16687394322360393772
O  8.88333532081413501658 24.61627021279485560967 6.16691553353015109451
Si 6.21977959942601188459 29.22954199028728794474 7.82287340353010396399
Si 6.22040692259596550429 35.38154178155631512936 7.82287165031470266285
Si 8.88425015943970386445 33.84427021534618518217 7.82291376476004529650
Si 8.88393633241033420234 30.76627035413110178297 7.82291463526909947035
O  4.81083521999378316281 29.86468585551790866361 8.40985130316441242826
O  4.81133299334098119004 34.74668571324263410816 8.40984984569373317242
O  7.47630574138309889065 34.47941394607927634297 8.40989159773652872332
O  7.47586238588842544317 30.13141403772323911880 8.40989279991802618497
O  6.37361355492024461711 27.69052642901056415781 8.41287612245647586917
O  9.03908395420350174732 32.30525463104464023445 8.41291664924861848363
O  6.21980562114967483467 29.23154162370826725237 6.16687340644837966863
O  6.22043261235954769717 35.37954121103657456615 6.16687165183999042029
O  8.88427615340235732333 33.84626969594235390559 6.16691376294398274638
O  8.88396188707677580965 30.76426992491600387325 6.16691460149456549544
Si 6.22072074878157099675 38.45954160461749893329 7.82287044045156232386
Si 8.88487749909799973125 39.99627009753965012351 7.82291135258562597699
O  4.81177610583215820128 39.09468497574409440176 8.40984815271088770317
O  7.47680356609345952990 39.36141385913825274656 8.40988966354866107622
O  6.37455463252467691149 36.92052622849210763434 8.41287352610630989602
O  9.04002569335758821012 41.53525449415918302520 8.41291308213824429174
O  6.22074678674882530771 38.46154080474931191702 6.16687043989489502849
O  8.88490322566952883676 39.99426934599284777505 6.16691135382075206195
Si 11.54846578890257546846 26.15099879177527597562 7.82295731437029395750
Si 14.21330931642651584923 24.61372736955200579700 7.82299893317683814331
O  10.13939181684632551139 25.51614258536643120578 8.40993497486357632908
O  12.80436435721918364550 25.24887028455398763072 8.40997649594399732109
O  14.36714378162794858440 23.07471151515245111341 8.41300136208662685533
O  11.54849138899845861772 26.14899842365268511912 6.16695691674046919672
O  14.21233525237679096165 24.61572699011478349007 6.16699875870694036450
Si 11.54877926420617839653 29.22899864363683164470 7.82295654196413625669
Si 11.54940674491748531238 35.38099852266025635572 7.82295480052007352612
Si 14.21424992647958518432 33.84372687211769203941 7.82299679957151905541
Si 14.21393600674371882064 30.76572682919886858599 7.82299767229944542635
O  10.13983503431362009906 29.86414230652314572012 8.40993437608799077054
O  10.14033288733182303076 34.74614237875501743247 8.40993306372953597361
O  12.80530558917579853073 34.47887069223981626465 8.40997468745154641567
O  12.80486219796129176984 30.13087072939387311976 8.40997591651634124332
O  11.70261376687968635224 27.68998306721588420487 8.41295907583859658985
O  14.36808378112209005906 32.30471138563360256057 8.41299969450482620914
O  11.54880553826480671376 29.23099829877785893473 6.16695651450214299416
O  11.54943234002985796849 35.37899793520849556216 6.16695480131827267201
O  14.21327587054196328609 33.84572642206452286473 6.16699678517232730002
O  14.21296158466986625513 30.76372667111879266599 6.16699766893540957113
Si 11.54972065829917404756 38.45899842434934612356 7.82295359189606820394
Si 14.21487735418975084656 39.99572667038204087930 7.82299441753022950508
O  10.14077630380533889820 39.09414231506350034806 8.40993138142723317685
O  12.80580347696935916701 39.36087061173913070888 8.40997276727365594695
O  11.70355452238165661072 36.91998300187043469123 8.41295663596991261102
O  14.36902552323552484381 41.53471116417611597171 8.41299609775841616965
O  11.54974665225632257659 38.46099771185809146345 6.16695359147626476215
O  14.21390301441349812706 39.99372599912446446524 6.16699440300893098055
Si 16.87746540396579320031 26.15045545662578874158 7.82304012119318503693
O  15.46839166301223755795 25.51559922198904928337 8.41001832360386636367
O  18.13336401892420468585 25.24832717758815547882 8.41005977413700023249
O  16.87749085395844517166 26.14845510497698199970 6.16704011676720398327
Si 16.87777912979553818218 29.22845527159609346768 7.82303946777074177277
Si 16.87840650077227877546 35.38045526463736223377 7.82303765183791455229
Si 19.54224960800747368239 33.84318370830919064929 7.82307943876827227569
Si 19.54193572126204969663 30.76518364402028993254 7.82308036749073565375
O  15.46883493473131920837 29.86359934762925050222 8.41001747200815685801
O  15.46933269820029721586 34.74559912709047893031 8.41001601372753526675
O  18.13430534355452294903 34.47832742573555009358 8.41005747990861607377
O  18.13386197602490312875 30.13032740520290886366 8.41005880272412653653
O  17.03161312451376119270 27.68943985164142418398 8.41304220533339552901
O  19.69708354647067949372 32.30416803546558668359 8.41308232533986100066
O  16.87780512662045495631 29.23045500420887776727 6.16703947527316831412
O  16.87843199477437394762 35.37845465780405618261 6.16703765302585615871
O  19.54227536266935061349 33.84518324465176419835 6.16707943887204557143
O  19.54196108536658726962 30.76318307441236754585 6.16708037271609832430
Si 16.87872042572231379154 38.45845522906537894414 7.82303646015277998060
O  15.46977615205571154888 39.09359903591802520850 8.41001439952250962051
O  18.13480302866733495648 39.36032777486833822422 8.41005555162266382752
O  17.03255432068071684171 36.91943977495057538363 8.41303947279079444854
O  16.87874623692430731126 38.46045460896882417501 6.16703645962848412410
O  20.79783428937927780566 29.86305523105571779752 8.41010006178921187825
O  20.79833211966015227290 34.74505628356257602718 8.41009857356032597409
H  4.07465743036902239282 24.98677203867234197787 8.03659115508877697209
H  1.41040896897900758233 29.60201496906952556287 8.03674925624954639147
H  1.41040900867297303023 35.00798498522425461488 8.03674926199511929781
H  4.07465743672475344539 39.62322797231752247171 8.03659115984340921557
H  8.94818084764132848363 22.17325470962771660766 8.03830169253267534657
H  8.94818087853720278702 42.43674530295770352950 8.03830168091314867240
H  14.27776165346877412787 22.17320384484671080827 8.03828220056104036928
H  14.27776172867659454369 42.43679616363006346091 8.03828219215611738946
H  18.96055658461201431919 24.87622777497937676117 8.03640577925695609451
H  18.96055653557175801893 39.73377222676026576664 8.03640577824991986233
H  21.62471722917101502048 29.49141992907808784707 8.03658340781611357784
H  21.62471723390456190828 35.11858007479629861791 8.03658341048167557119
H  13.43954240626469065489 34.27033906241684491079 5.76911863117825163272
H  10.79702478285400957247 34.91824967676630819824 5.76839602493598491151
H  8.90770701096668560126 32.96594596113423136785 5.76499475689936868861
H  9.65945431666166598461 30.34299409712026474040 5.76888005072577492172
H  12.30259135575223261583 29.68912268152747913064 5.76803922375189248584
H  14.18560354636162301745 31.64418151968561332410 5.76552258276101614598
H  13.46208429055133315444 39.53603768200932222499 5.76468154406069732687
H  10.78553467860136017009 38.90473306694900657021 5.77122838975951069074
H  8.14831461465733397631 39.50994490460146124633 5.76699955036905276273
H  6.23317386274200391227 37.58286575807725427012 5.76180503590000192560
H  5.45415702054441009494 34.93908511505067338021 5.77152547620159328545
H  3.60566386872199995395 32.96814933229208577359 5.76410508781638064590
H  4.32812544108703534107 30.34544671571174490055 5.76331957713724829517
H  6.21212642401588777119 28.34933201754821752161 5.76816829118752849581
H  7.00946743037196018378 25.75759722229025427964 5.76754704114399441295
H  9.64012206040489516568 25.06582756180425874959 5.76488469556512583836
H  12.31500792609480043893 25.70853948433235558468 5.77192569241003194946
H  14.95343801121859250713 25.09203404498961020863 5.76610003803554072022
H  16.85241663843008197432 27.02653749959597107022 5.76116217506702188444
H  17.64630213202321584731 29.66655898953714753929 5.77122747391943224926
H  19.48194552691935399480 31.64158903494955410451 5.76482831480423829618
H  18.77355784109523639813 34.27390176039749292158 5.76498788544037488180
H  16.88031298512558464608 36.26100719850504816577 5.76894103312132244810
H  16.09309773695899181689 38.86024083819569341358 5.76722976414037891146
P  8.76689310268095489675 27.45102837687679553369 11.14857577000450383764
O  10.11245240822790769641 30.79701936126522454629 12.93557624327788602159
O  9.19870473964847334969 33.57469837258824441051 12.05322389046733277951
O  11.63163718886399067287 33.30547380689846903579 10.99397493425296445935
O  8.62306133439558308851 28.75932572664121167350 12.07821867472400434451
O  13.89378621086357235015 31.61005958982577013217 11.44288027605067803449
O  9.82866216735336628574 26.54116248610797867968 11.72640135396650151733
O  9.10704744023905377048 27.85501211710280244915 9.73116691630291974491
O  7.30986571721133326918 26.80075590311977862257 11.06233299180266094197
N  12.16041540193981163043 30.16739966645045001314 11.82957663189451480434
N  14.19665163649491113063 29.41031633339077089317 10.91379750413720017832
N  14.38199783370701467788 27.19611637955785710119 10.09721767552721694017
C  9.36263320086370143258 32.38387754709734878134 11.32217523828381011697
C  10.86085557446090277267 32.12824132594793269391 11.05426459861365806603
C  8.95839769277924879987 31.14255826745208466377 12.16630011348704698548
C  11.29373571230598827242 31.25645680549987659447 12.26084243296655529321
C  8.54714398586639134692 29.92905726739908445211 11.31473175604353542667
C  11.65317962346264302198 28.90634801924672458995 11.73709057492962060110
C  13.45732041847920967825 30.47051077104683969310 11.40780226512751838186
C  12.38239587513416140041 27.89768515071574483954 11.20401708026077969294
C  13.68341687343887436157 28.14898373569721456988 10.75907540983373422705
H  8.77693981358318708885 32.47107482869297001571 10.39629052647564577683
H  11.00205520054010577269 31.57206726252960038437 10.11368042696659941271
H  8.17667134610526957772 31.40552750956971550522 12.89369423849605311716
H  11.84540000754920185955 31.87160149693750810229 12.98440727775340519656
H  9.24632200217216571048 29.80588787255110716501 10.47041803468581200320
H  7.53047113529082690064 30.02476394661684722109 10.90039907423573595224
H  9.85409822987546490936 34.23052322974201189254 11.72703062209818369865
H  12.56850184931044012160 33.01417459277042354415 11.05294567819442974610
H  10.64394915973610267201 28.74673891192034247410 12.07466369402408545852
H  11.94313446378304632844 26.92216056193063167257 11.07546340357843206448
H  13.89754817969165401337 26.41833685320386138073 9.64565318764893575576
H  15.25837705886686990198 27.38325225590270761700 9.60858669929631936668
H  6.96216196685751675943 27.05647287661906830181 10.18071852275516064879
H  15.10184476077649762260 29.62548959607856602361 10.50587951539898057263
