161
11 Eopt=-24.3550955433 (Eh) Einter=-32.725182 (kcal/mol)
Si 3.55619755834617290446 33.84476441898509335715 7.82276357933949206824
Si 3.55590021694138247454 30.76676464289601398150 7.82284079871181692312
O  2.14725496146595951075 34.47991501681719483940 8.40973852903045759888
O  2.14683493688624515983 30.13191591081362474824 8.40984764398923800854
O  3.71004511265927305885 32.30576445385047890113 8.41280327227231516929
O  3.55520841238796325712 33.84672284742410397484 6.16676352292872387295
O  3.55491063263405315809 30.76472336604855328801 6.16684084257266640350
Si 6.21945436398851203563 26.15150720991657706804 7.82297308178244943377
Si 8.88330595490058350094 24.61424971152879592751 7.82302827302781356167
O  4.81038912272259988612 25.51665837161512229159 8.40997994644752111526
O  7.47536351989701230991 25.24940040298528032281 8.41000351588462180530
O  9.03815422552017366797 23.07524947249789804005 8.41306749494054528782
O  6.21946467038076544753 26.14946602834616484756 6.16697313188779805415
O  8.88331682321915216960 24.61620855128695239955 6.16702822357905589001
Si 6.21975164844368855199 29.22950713304683745264 7.82289629590387569635
Si 6.22034606473897966339 35.38150693491255083245 7.82274214828208425132
Si 8.88419744599381289163 33.84424976985680899588 7.82279795239160868903
Si 8.88390007668792769380 30.76624970822780014146 7.82287495412877564860
O  4.81080926606178227445 29.86465800563123451639 8.40987141452384534546
O  4.81128092824276087924 34.74665786769089237396 8.40974902348764530302
O  7.47625510704563200903 34.47940032216172312474 8.40977286793412481813
O  7.47583500591971805704 30.13140043968826375931 8.40988179824589998645
O  6.37359925371636037994 27.69050701012736936946 8.41293572149206525523
O  9.03904505546796599447 32.30524945346411413993 8.41283739828680410255
O  6.21976243094751080065 29.23146574680744791408 6.16689624696646365720
O  6.22035653874240779260 35.37946534147057775499 6.16674219853954497239
O  8.88420831085494455692 33.84620806718952223946 6.16679777921837235510
O  8.88391051009309506981 30.76420830689518126633 6.16687499349354961709
Si 6.22064342886296905988 38.45950675940631668936 7.82266469590877200346
Si 8.88479195325798265515 39.99624948488528275448 7.82264304808861243856
O  4.81170078735958917093 39.09465713690487120857 8.40963963087472166080
O  7.47672682198349658478 39.36140026800066493706 8.40965003221509199705
O  6.37449096742813203775 36.92050681903282338681 8.41270448601354381424
O  9.03993734333466925079 41.53524934121011114030 8.41260523534952753266
O  6.22065423065432820948 38.46146494213481048519 6.16666464612484777064
O  8.88480247342432605251 39.99420773090307079656 6.16664310191024789276
Si 11.54845427772603017047 26.15099234339211875522 7.82300714636521643541
Si 14.21330585557258530116 24.61373498582451091465 7.82306254551062885128
O  10.13938923114646151191 25.51614300296449400207 8.41001393020119003552
O  12.80436338364824422342 25.24888562514964007732 8.41003766753855863669
O  14.36715410324537600673 23.07473485677830637997 8.41310182177234189282
O  11.54846467633863937863 26.14895110464518523941 6.16700719620360349182
O  14.21231680755848714170 24.61569388355728804640 6.16706248770205434084
Si 11.54875150959693819175 29.22899227345603989647 7.82293041947960521298
Al 11.54934591388471787354 35.38099184086932780247 7.82277567751420299658
Si 14.21419704780059056759 33.84373502903543595721 7.82283200708352399744
Si 14.21389977045100394548 30.76573487262626827032 7.82290909763385222675
O  10.13980914023652601941 29.86414304091118410156 8.40990554951127577965
O  10.14028086909804926563 34.74614294834000816081 8.40978340561886561488
O  12.80525510933379607081 34.47888565211856359838 8.40980717664371191233
O  12.80483482510354598105 30.13088562927810798442 8.40991591888348999362
O  11.70259911934814134327 27.68999212612749261098 8.41296980854852449738
O  14.36804494535729936899 32.30473463132800304720 8.41287140401263222600
O  11.54876230156208904987 29.23095091155268931971 6.16693037211344119441
O  11.54935626186292729756 35.37895062019194369896 6.16677651267827808823
O  14.21320802829916374321 33.84569324391438982502 6.16683184278605001083
O  14.21291023174984857746 30.76369352308046956068 6.16690906677149897064
Si 11.54964338956964731153 38.45899212796324917463 7.82269887933326124596
Si 14.21479183334923135362 39.99573456642567492736 7.82267713572781708820
O  10.14070099851284112447 39.09414298819838506915 8.40967387745014960387
O  12.80572672426571578796 39.36088553711612547659 8.40968414679650067001
O  11.70349079739491315877 36.91999218777193902952 8.41273874520867970261
O  14.36893717888569810270 41.53473451375396052754 8.41263927823997725852
O  11.54965410518849111554 38.46095033667610607608 6.16669881438624045700
O  14.21380227419401265365 39.99369288862020255237 6.16667717660037784100
Si 16.87745391564298813591 26.15047761469335441120 7.82304130322247459617
O  15.46838899784719600916 25.51562836983337234642 8.41004824281219676152
O  18.13336275521120199983 25.24837058025088865065 8.41007176772105147222
O  16.87746415332313887347 26.14843622792005461974 6.16704135734970471105
Si 16.87775124256415537616 29.22847753114399438346 7.82296441332207947994
Si 16.87834562166766971814 35.38047751303249555122 7.82281028949009193951
Si 19.54219698941913563317 33.84322007763584139184 7.82286557039458063656
Si 19.54189956977797493209 30.76522001406401685131 7.82294275913276049295
O  15.46880890306337619222 29.86362830187670525106 8.40993960265236495388
O  15.46928070901313212460 34.74562812279537382665 8.40981720654382769453
O  18.13425469705084225325 34.47837084038233257388 8.40984082267755184148
O  18.13383458752075227949 30.13037082567753799367 8.40994984911557352802
O  17.03159883390538453796 27.68947742679501544671 8.41300387522252890449
O  19.69704456170106965374 32.30421987753221202411 8.41290517249273150924
O  16.87776192724599866324 29.23043612961815895801 6.16696437735408764524
O  16.87835593453593219238 35.37843577339826595107 6.16681021528632378192
O  19.54220750518368276971 33.84517861815615447085 6.16686553917366353517
O  19.54190971143478350314 30.76317845149080199008 6.16694281222704265844
Si 16.87864311074734757767 38.45847737431770951844 7.82273278036769603716
O  15.46970084884457108387 39.09362819509287589881 8.40970791740535972281
O  18.13472631156827929999 39.36037116862358686831 8.40971797682222543813
O  17.03249069032714047012 36.91947735221887683110 8.41277245854887212317
O  16.87865370971879741546 38.46043574206336046473 6.16673271592081917447
O  20.79780833996036903955 29.86311288097361682503 8.40997325047557175992
O  20.79828007365892972302 34.74511392986610047728 8.40985083444811465370
H  4.07465742950501486064 24.98677204176152599757 8.03659115488037478769
H  1.41040896897982825919 29.60201496983312452471 8.03674925619803737220
H  1.41040901190068268534 35.00798498690848248316 8.03674926301984804411
H  4.07465743684618963982 39.62322797129557727658 8.03659115977494664662
H  8.94818084804624369610 22.17325470730170167144 8.03830168986251436536
H  8.94818087947603757470 42.43674530250308407631 8.03830168060203043012
H  14.27776169753444435173 22.17320385320034858978 8.03828218860481769070
H  14.27776172981596580769 42.43679616189059800035 8.03828219210300787267
H  18.96055656512104548028 24.87622779353388580148 8.03640578147126838360
H  18.96055653382434513787 39.73377222723891577516 8.03640577877759909597
H  21.62471722979047683566 29.49141993080990076237 8.03658340886235578182
H  21.62471723394127920415 35.11858007326493691380 8.03658340973092144566
H  13.39922796087705947343 34.28531250038111721778 5.85463177310777993512
H  10.85603170755237201206 34.89218230764783612585 5.71721595244466662677
H  8.79316677401356905364 32.97374190374949165516 5.76219940641035766049
H  9.66357961458724545878 30.35160700944259914991 5.76895568192800034524
H  12.30629749907992831481 29.68608882148697958314 5.77123880453436388649
H  14.17430145078834335948 31.65300280778365049628 5.78286317383935255521
H  13.45700859297612872467 39.52750482859073599684 5.78093078853634612102
H  10.82185198587897190237 38.95872177860231033719 5.76976940851182451553
H  8.14980839600157480618 39.50861002840842672867 5.76627385386953328350
H  6.23194667504472921138 37.58116492068982239516 5.76471310407192394365
H  5.44704955356508868647 34.95093754211866610149 5.77257540988166173435
H  3.60664936268333224945 32.96826993051059417894 5.76388710723999064811
H  4.32819223180351642100 30.34484056088145109698 5.76402041666230147143
H  6.20754699151370736843 28.34935900020281707157 5.76818373922686333799
H  7.00943285696096740622 25.75772182359073525504 5.76748914516294863830
H  9.64047061062909449447 25.06526887774739265069 5.76511829309335954719
H  12.31477063530743620845 25.70825778533803074311 5.77188275806004469359
H  14.95393929934273202775 25.09100721788439614102 5.76597661961587526491
H  16.85170393389908127801 27.02666099267558763586 5.76146800076780163380
H  17.64768340298414273093 29.66420704391969564995 5.77142433810295685248
H  19.48180900438408613695 31.64168672112839786337 5.76490010373979799851
H  18.77140968738962456541 34.27358367635656577477 5.76790924532321813700
H  16.89481965785315509265 36.26079389189676760452 5.76914703887095647872
H  16.09152696879937849417 38.86028470051103766991 5.76951241514681534284
P  15.69317084062964084978 33.14155234402695526796 11.36305375707297393717
O  11.92397400993215050846 32.54962780496455110324 10.29067259245818277691
O  9.54102703139689012346 33.99645245743200661082 11.50626845104490314498
O  9.42481572407506362765 31.45805867851396087076 12.49897942923735172371
O  14.28943815017326279815 33.66846312374062932804 10.78880496832882585068
O  10.51693980585941723405 28.91922051783865299512 11.65947546286148295280
O  16.18708122309111274717 31.97908011719982113163 10.53168970169267382175
O  15.49763875451294126151 32.67855601458451531016 12.79509846304181941434
O  16.74384490972128247677 34.34687205010028065999 11.26742806646356243050
N  12.25277786769688859181 30.36531416200572053299 11.27568231522568709124
N  12.55238050142580874535 28.03045132026976560269 11.12454643106709362144
N  14.56545365120203072706 27.17621207692450013838 10.23879035863820519126
C  10.73694086531932256889 33.54806663666617083663 12.09309292520257095305
C  10.70790618143293748687 32.01627659195019504068 12.31612991653368816003
C  11.92200775190769590495 33.72414912403149145348 11.10153294490593900434
C  11.33059540409595911115 31.46554335425176063268 11.01402996848132254115
C  13.30395104768841818554 33.87592153586000165433 11.75898694475129246939
C  13.59698568765265136449 30.54806126769751273287 11.10866652715095526105
C  11.69677699708542739643 29.08508764317634742724 11.38950724415268567213
C  14.42244386965081837104 29.48740066243211543906 10.91099266102499498743
C  13.87600110425343302722 28.20130484280422678012 10.80673094015282664770
H  10.88739419283959364293 34.10746984632484668509 13.02714249812514779592
H  11.33398547962795888111 31.73157340140842919141 13.17535828808470910189
H  11.72802940288862849627 34.55620276513758426518 10.40843909957541768563
H  10.53765933768939966342 31.07843994684986554944 10.35639589319906406217
H  13.43380059473841647844 33.11893950034561129314 12.54762184563710647467
H  13.45081309838629834985 34.87103739055152828996 12.20639386392553760174
H  9.36365379518281848448 33.48214570762679187510 10.69141157806247299789
H  9.52470737231119279897 30.49904958130914067738 12.29192350131494748666
H  13.95301554030947777107 31.55286788477972237388 10.95336063714186458640
H  15.45398848033013372572 29.65653500216655658051 10.64894053896351522326
H  15.42320481958188871374 27.34343432903788340127 9.71054627284302007695
H  14.04283414359474058131 26.43178078964143651319 9.77123796749435769016
H  17.19153844161389343981 34.33557227229509578592 10.39520718661481524236
H  12.12913290153412582129 27.12052833992146005926 11.00170967950936429247
