159
Coordinates from ORCA-job ump_frame15_dry E -13411.858331862617
  Si          3.52618879265906     33.96196503911852      7.91115756249962
  Si          3.43205920247757     30.86632224459834      7.88647156556172
  O           2.26992056524062     34.85950608463508      8.44491116639544
  O           2.04616553623154     30.20376932616107      8.44870163511994
  O           3.45679105503630     32.41026816341888      8.42238529209948
  O           3.58389792312470     33.92499351725242      6.26331042019172
  O           3.45558553214114     30.94023834448935      6.24166880059032
  Si          6.12298164203790     26.17841912895951      7.83131846522270
  Si          8.76308386514977     24.55194358793658      7.83666007536279
  O           4.72052219542495     25.58896915143514      8.42487271127155
  O           7.42473255051007     25.33376956454907      8.35125413426588
  O           8.67271762454073     23.02367538890309      8.41204283502981
  O           6.15130601685603     26.14367997054171      6.18597289229534
  O           8.72366948074427     24.58569076614849      6.18938256036056
  Si          6.05575287435183     29.26301474193609      7.73568417365903
  Si          6.18660751333058     35.53461072238450      7.92860665536419
  Si          8.96152445291938     33.93180209945783      8.24790498381379
  Si          8.81377877160099     30.76119216539641      7.46633456257441
  O           4.76415931123092     30.04964913494508      8.37022136434755
  O           4.85652916206430     34.72730082385038      8.43950225216874
  O           7.52064409418558     34.79886554608050      8.37369142970227
  O           7.42344082313196     30.07057229535194      8.01457880704906
  O           6.19284456981227     27.73650309758113      8.30782300622053
  O           8.85833783751186     32.30904437312613      7.85027180542166
  O           5.68060858301434     29.17213204793139      6.13286744354799
  O           6.06172738138926     35.64097155795584      6.27418522280629
  O           9.19108605012893     34.43763528943069      6.58750314834518
  O           8.81760037962860     30.54004070667682      5.84352540660119
  Si          6.24706868550814     38.62234067715139      7.87087794102678
  Si          8.99586580193436     40.05191344931767      7.85991892977939
  O           4.99819188859219     39.57729631731019      8.32558289769861
  O           7.59576256402612     39.39960775944820      8.39333284829127
  O           6.15161615295809     37.10002328167627      8.44090145984363
  O           9.24534747157057     41.58189304317180      8.37605044176250
  O           6.38152848059695     38.52463236679466      6.23027339765468
  O           8.97835093227280     39.96149250343669      6.21542915351634
  Si         11.46269088996185     26.04424265844492      7.71053270636058
  Si         14.14375728664564     24.53830564210200      7.83039776259276
  O          10.12256208193173     25.33015109567923      8.30627489550237
  O          12.83002895934167     25.37674764906421      8.31252844200005
  O          13.92413091043823     23.01122859394177      8.36346069582870
  O          11.41032876207414     25.72447969352535      6.09655609261086
  O          14.20046511805736     24.59803241826960      6.18499136071411
  Si         11.49723209736773     29.22218116718825      7.59059027962203
  Si         11.72864614752410     35.38093287218538      7.84643586144356
  Si         14.31791227714335     33.79467058373708      7.69186994809182
  Si         14.18924852192427     30.72675685640016      7.65504871422650
  O          10.11970059674400     29.93730337236638      8.03667807282195
  O          10.50768003366355     34.62118761847509      8.58255349941463
  O          13.14614256971872     34.70746689983910      8.35278363948239
  O          12.86232607648567     29.93434645487230      8.17140239642391
  O          11.46787252539116     27.63736292701685      8.00775715398325
  O          14.31107248926267     32.25001061219891      8.23637311073391
  O          11.58228701184828     29.33667629956987      5.95183640155698
  O          11.66178195157142     35.13542176907936      6.22954543985252
  O          14.05984968416590     33.71024934465527      6.07263686050264
  O          14.07727579363811     30.83432880310719      6.01962872670190
  Si         11.68894371164004     38.55696166657797      7.82862221135307
  Si         14.37946356387162     40.05432455234388      7.86678279336183
  O          10.30010496498645     39.21186758050146      8.38197116575117
  O          13.01742999369639     39.33031526575785      8.40591045723166
  O          11.77087453112657     36.98282490641327      8.19134872186107
  O          14.55886763717860     41.58652580572807      8.40418134596693
  O          11.75210104927442     38.81686403881638      6.20223338672083
  O          14.37194458526447     39.97068228052328      6.22280861811524
  Si         16.86467758214426     26.00806085124369      7.88442590290911
  O          15.52316707649200     25.22081972219355      8.38109647729725
  O          18.15518434226994     25.19492048427231      8.46762356914096
  O          16.82491207404940     26.01353780188583      6.23904125402852
  Si         16.90045264688120     29.08147829298781      7.77080358583282
  Si         17.10015111864928     35.33391645247228      7.71694990396215
  Si         19.71292698560406     33.71933923447082      7.82187542667658
  Si         19.54966168303666     30.63160868709141      7.84064951300470
  O          15.50332965627513     29.85016714521158      8.06883335738869
  O          15.76987488040408     34.46007210538108      8.01421709793323
  O          18.40520040436319     34.56205136155152      8.32438288779573
  O          18.15753410166190     29.94260157154005      8.34214524732479
  O          16.84441220663277     27.56676713714235      8.39007431994823
  O          19.68702560625695     32.17594977044376      8.35496698081923
  O          17.13163025185029     28.86136518556044      6.15463521337175
  O          17.39010024420138     35.44094093900767      6.09970791341074
  O          19.64211445062418     33.64115718264063      6.17751736001643
  O          19.50512375304093     30.67459261313496      6.19302065557955
  Si         16.99769129328547     38.40837625978388      7.81174587715932
  O          15.71520329996930     39.25048649086816      8.36973701885828
  O          18.43428442104011     38.98109930596688      8.33520584816448
  O          16.95028385986441     36.84970225955205      8.30215589795091
  O          16.90910373764829     38.41159889419207      6.16771034450263
  O          20.73777551181661     29.65350682129316      8.38014716462753
  O          21.12282048047658     34.35254547352520      8.34766580123248
  H           4.07465773441407     24.98677222549432      8.03659119604936
  H           1.41040895509664     29.60201496217991      8.03674925528240
  H           1.41040901251531     35.00798498726665      8.03674925063925
  H           4.07465747397914     39.62322795707669      8.03659115856453
  H           8.94818084537503     22.17325469091366      8.03830168684649
  H           8.94818089193918     42.43674539196745      8.03830165596363
  H          14.27776168734520     22.17320386526516      8.03828217239045
  H          14.27776172590456     42.43679617558740      8.03828218915302
  H          18.96055656660845     24.87622778042670      8.03640578158956
  H          18.96055628554805     39.73377193425713      8.03640583262209
  H          21.62471713767379     29.49141995445095      8.03658340299064
  H          21.62471722824401     35.11858006838255      8.03658340901803
  H          13.23431279214008     34.17179520729626      5.82302657130061
  H          10.73139092265945     34.82918092359997      6.05073591358066
  H           8.40739714782505     34.32793435931230      6.04677024566561
  H           9.66583448118773     30.22089144068958      5.51257783422560
  H          12.38532838315424     29.78077590697130      5.64261573661915
  H          14.07968251611963     31.75615324247595      5.71147196978720
  H          13.52801429608705     39.63264663778415      5.87851085985012
  H          10.90269332406489     39.07111938759324      5.81679593496977
  H           8.18936193546552     39.50471293482075      5.88401060325126
  H           6.27984540710581     37.61048533189418      5.91630770513253
  H           5.32538321741524     35.12255188826109      5.92124506618139
  H           3.56598986960720     33.02175313021841      5.91332017230552
  H           4.13630577614209     30.36077890322799      5.86077459386708
  H           5.96870823392906     28.36386756758262      5.69444124965789
  H           6.91859883107707     25.66573097928420      5.83958593557632
  H           9.55488299610201     24.90519151674734      5.80592697584708
  H          12.26101029089569     25.47159390515884      5.71608367775644
  H          14.99970021593991     25.03516268327686      5.85603023306578
  H          16.97005976958745     26.89993431339096      5.86918897248889
  H          17.79937312128325     29.45039998643180      5.77698637591062
  H          19.54200510414389     31.57835572458901      5.84521324849200
  H          18.96519608811355     34.22673223653470      5.80314573346329
  H          17.18305827631667     36.30423762943681      5.71827617992656
  H          16.12404826433897     38.87524059377968      5.83895243033290
  N          13.43806271624205     29.15306719670798     11.29302418198559
  C          14.54965619848702     28.38003151334264     11.51521439620427
  N          15.72926087236487     29.05886870811788     11.53352640722694
  C          15.92319428251963     30.44551373713240     11.44722206771668
  C          14.69069343789326     31.17128896845132     11.27298513234629
  C          13.51953167399763     30.51552131086036     11.18840628564001
  O          14.48439996177707     27.16982631972340     11.69398919078250
  O          17.04372989254911     30.90084552332751     11.52405599044432
  C          12.17610699108272     28.42597798914298     11.12295216388900
  C          11.54916939561274     27.92635944131835     12.42253959684450
  C          10.07820583394913     27.82381215863009     12.01407646993162
  C           9.92315594985331     28.96698453657487     11.01763221621712
  O           9.84531459790679     26.59823511439975     11.37315211190338
  O          11.24812494197283     29.28470251091299     10.55771072626490
  C           9.28131837934198     30.19849651713284     11.61129730255341
  O           9.20028085231059     31.21038458045783     10.63077710517199
  P           9.57096151072369     32.72704259078539     11.00847060347574
  O           9.32318991069516     32.99922266873988     12.42476411706343
  O          11.12103061303998     32.83458508598807     10.61960998076442
  O           8.81998588681759     33.56674647714174      9.96577746822391
  H          16.55505892054119     28.49597023330591     11.67641658144291
  H          14.72944212616037     32.24505998043644     11.18077780330693
  H          12.58015296173591     31.02540374079992     11.01382948767049
  H          12.39631588839430     27.57353875389961     10.46974936150660
  H           9.40969266533100     27.94892646179387     12.87557603924348
  H           9.34643017357326     28.62355642358702     10.15692050260257
  H          10.45355251723877     25.96888554479288     11.78617811437217
  H           8.26939992561619     29.93833732336611     11.94057792379002
  H           9.83627459968734     30.55111687597275     12.48618781023118
  H          11.22175246120943     33.48634274139551      9.90425771337799
  O          12.03074762223918     26.68672358136240     12.85534653452906
  H          11.66982515532404     28.69849704180311     13.19473564255469
  H          12.94738858549775     26.60927856773673     12.53000019139793
