195
4 Eopt=-32.2235067751 (Eh) Einter=-86.447628 (kcal/mol)
Si 3.55625021843099187180 33.84481351329713305631 7.82283052575427895192
Si 3.55593639002782069269 30.76681374962241477533 7.82283149715314518602
O  2.14730552909879257584 34.47995713715382493092 8.40980824871896182060
O  2.14686231996005005840 30.13195801627553294111 8.40980965974311978073
O  3.71008409981948439338 32.30579811924869204631 8.41283350723600698018
O  3.55527628728606437392 33.84681297417849776821 6.16683050704759949667
O  3.55496202361777058343 30.76481349779831475644 6.16683148084504750841
Si 6.21946585133892781982 26.15154206587488516789 7.82287394253341883399
Si 8.88330921987602195600 24.61427032450455243406 7.82291554217962215034
O  4.81039181930219150729 25.51668623339201857902 8.40985212647808921815
O  7.47536479244969687130 25.24941400887771436601 8.40989357679076121599
O  9.03814384293722916652 23.07525463958670286502 8.41291806277939002712
O  6.21949137441225197165 26.14954191133071503828 6.16687394237626840265
O  8.88333532756735522184 24.61627018227877883305 6.16691554237754591128
Si 6.21977960744601254817 29.22954197402036768949 7.82287340497369498848
Si 6.22040695857811876124 35.38154175489854935677 7.82287169158588024942
Si 8.88425030164293083601 33.84427011580513777744 7.82291393478927599148
Si 8.88393627561626786360 30.76627034488224765596 7.82291459786144294242
O  4.81083521872019304055 29.86468586324065199733 8.40985130412614623197
O  4.81133297675513116332 34.74668573947641903032 8.40984983308962519288
O  7.47630569994232185849 34.47941396228537769275 8.40989156724827147116
O  7.47586238819415260792 30.13141404299183179205 8.40989281144872613538
O  6.37361355079121771894 27.69052643533602520165 8.41287612036870058319
O  9.03908395523065166799 32.30525462959383276029 8.41291659859036222713
O  6.21980562217390087199 29.23154162679574596950 6.16687340299785713427
O  6.22043260452617197132 35.37954121431036469403 6.16687164003984999994
O  8.88427612311635073183 33.84626970059034789529 6.16691371826513545784
O  8.88396189408913627972 30.76426991915873898620 6.16691462238266563389
Si 6.22072075584683581440 38.45954160491908169206 7.82287043957126737581
Si 8.88487749811836380331 39.99627009472385452682 7.82291135257158565253
O  4.81177610490889051675 39.09468497715889157007 8.40984815477920122362
O  7.47680356674162371888 39.36141385570144990425 8.40988966286008121642
O  6.37455461952943203130 36.92052623069109529297 8.41287352303563373823
O  9.04002569351348128635 41.53525449279243986211 8.41291308204945309512
O  6.22074678684459225764 38.46154080377492334719 6.16687044012898422096
O  8.88490322590373082789 39.99426934464763405686 6.16691135407242363442
Si 11.54846568203819678899 26.15099861882006138103 7.82295701562531764495
Si 14.21330914756768848406 24.61372696535531900963 7.82299884668170530944
O  10.13939193906012370405 25.51614236601153606898 8.40993506577682659042
O  12.80436468694795593137 25.24887080132804584309 8.40997671805241431287
O  14.36714371029140124847 23.07471153701553845394 8.41300134262054832845
O  11.54849139650660738710 26.14899850565559091820 6.16695697694900690777
O  14.21233531428317142797 24.61572702185523198182 6.16699876998968132824
Si 11.54877933300018355567 29.22899877785940248032 7.82295652838979904686
Si 11.54940684523914029569 35.38099833135523653027 7.82295492145088466884
Si 14.21424998664237904222 33.84372680823603474209 7.82299678809884468933
Si 14.21393585322678632110 30.76572695098287013593 7.82299748386059334848
O  10.13983510677117294563 29.86414232819333847146 8.40993436658923343430
O  10.14033273279646074627 34.74614257447954202007 8.40993294009618885809
O  12.80530556395471464270 34.47887073580564276654 8.40997465497007468116
O  12.80486243756413777817 30.13087040293310536754 8.40997602889465944997
O  11.70261346882564446048 27.68998306788072127915 8.41295915188060483558
O  14.36808375310557295279 32.30471140252639372648 8.41299973900068387422
O  11.54880550619711065963 29.23099825118391947854 6.16695649281668334396
O  11.54943230024305478310 35.37899800679944917192 6.16695477716713469363
O  14.21327586523207386904 33.84572644542842567716 6.16699678703511899869
O  14.21296160844223877007 30.76372662081931252942 6.16699771773407334763
Si 11.54972064090438799155 38.45899842709284399689 7.82295360092546054886
Si 14.21487735236583738185 39.99572666187987124431 7.82299441431384323664
O  10.14077630671467566970 39.09414231207112777611 8.40993137984120942008
O  12.80580347853149270065 39.36087061215860671837 8.40997276730954546053
O  11.70355453682326718479 36.91998301998377485234 8.41295661963172669573
O  14.36902554895467964968 41.53471123328179004375 8.41299609732083020219
O  11.54974665370091280181 38.46099771166755232343 6.16695359083078553653
O  14.21390301468123595896 39.99372599972289776815 6.16699440405142418342
Si 16.87746554165405399317 26.15045539569948118697 7.82304018626247721357
O  15.46839160622888975638 25.51559933021740178560 8.41001832423962447649
O  18.13336400129474412779 25.24832717617453070602 8.41005974497046082661
O  16.87749084735319016204 26.14845511851726200803 6.16704010448822881330
Si 16.87777917889705037169 29.22845532772600662952 7.82303948128828885444
Si 16.87840651965663951728 35.38045527516279520341 7.82303765099603243272
Si 19.54224962445670854549 33.84318372613753922451 7.82307942189664995425
Si 19.54193569945518760278 30.76518371268909390892 7.82308034607422442264
O  15.46883501412101580286 29.86359940892949893509 8.41001752267995072998
O  15.46933267368589781654 34.74559915192220671543 8.41001601920233632370
O  18.13430532817600493445 34.47832739895664388996 8.41005747772541489837
O  18.13386200209946608197 30.13032732479221209587 8.41005879005532896997
O  17.03161298739930984425 27.68943983760387794746 8.41304218702267370134
O  19.69708351562309545102 32.30416801356054889993 8.41308234895428341815
O  16.87780511647335401904 29.23045499199809071911 6.16703946683173498400
O  16.87843199502975366499 35.37845465621578711080 6.16703765487094202058
O  19.54227535553235739485 33.84518324068161376772 6.16707944355021542293
O  19.54196107917901414908 30.76318305524353036162 6.16708037488576188423
Si 16.87872042612612233370 38.45845523055894688014 7.82303645906132416599
O  15.46977615164491126620 39.09359903571114358556 8.41001440023315893768
O  18.13480302836365254393 39.36032777489256773151 8.41005555142415772707
O  17.03255431877395409401 36.91943977144366328957 8.41303947351210013039
O  16.87874623679180530189 38.46045460859603082326 6.16703645975114866928
O  20.79783431176127805884 29.86305523444184473192 8.41010007108036639067
O  20.79833211865158659748 34.74505627689258346891 8.41009857613462585846
H  4.07465742955885978915 24.98677204117209527112 8.03659115489968911561
H  1.41040896905474077982 29.60201496906672247178 8.03674925631443848317
H  1.41040902488806274562 35.00798498490195953536 8.03674926925512345122
H  4.07465743660227630585 39.62322797194558177125 8.03659115960016912084
H  8.94818084711276817700 22.17325470613266702458 8.03830168949322754202
H  8.94818087845832721428 42.43674530331085748003 8.03830168070980377593
H  14.27776170199793881466 22.17320385078095767994 8.03828218891205814600
H  14.27776172641112317763 42.43679615673048743929 8.03828219481306049943
H  18.96055658689035183784 24.87622777992462630436 8.03640578310483633118
H  18.96055653579537647602 39.73377222656455387551 8.03640577824443091970
H  21.62471721961410509039 29.49141992016941316024 8.03658340535653969994
H  21.62471723250716948428 35.11858007824375960126 8.03658340834641293782
H  13.43954241202094834762 34.27033904878518200121 5.76911862805723174574
H  10.79702479659134617407 34.91824965282072668060 5.76839602642956439382
H  8.90770702692245208709 32.96594596883403482934 5.76499476193111881628
H  9.65945432603404263716 30.34299409488859566864 5.76888004757142347501
H  12.30259134813821297882 29.68912271570313521352 5.76803922557098935897
H  14.18560353788979710998 31.64418152324083166604 5.76552257876147944415
H  13.46208429104698112155 39.53603768179202404554 5.76468154397037846337
H  10.78553467805558874204 38.90473306633650452113 5.77122839011906307860
H  8.14831461447560556621 39.50994490508148260233 5.76699955032354250051
H  6.23317386250059435326 37.58286576013880875280 5.76180503581286185266
H  5.45415702291058757112 34.93908511256347537710 5.77152547681564698223
H  3.60566386786696924105 32.96814933234151112629 5.76410508788072206698
H  4.32812544111165475869 30.34544671594920117741 5.76331957702629171791
H  6.21212642232520639851 28.34933201752308207233 5.76816829225235849776
H  7.00946743375938652321 25.75759721990168671368 5.76754704169302456762
H  9.64012207073613680564 25.06582757726928889497 5.76488469524591806703
H  12.31500792137333100129 25.70853943916510431222 5.77192568411237694193
H  14.95343798829913239956 25.09203406605783470695 5.76610003293938877533
H  16.85241663470190331964 27.02653749470889721351 5.76116217503522509702
H  17.64630213513196110853 29.66655898904432220320 5.77122747681585401835
H  19.48194553304281484429 31.64158904049836351646 5.76482831612019896994
H  18.77355784206223887622 34.27390176087004647343 5.76498788495647840335
H  16.88031298262632162732 36.26100719950200357289 5.76894103325974949570
H  16.09309773711453317446 38.86024083829693864800 5.76722976414491927954
O  16.19619723109587283716 26.41596982603183363381 11.19392387049032500101
P  15.61695844444464853495 27.80185876837678549123 11.00696964095260099725
C  14.40880676242031910306 27.09104001571117237290 13.10934387964514158398
H  15.28575897126356153422 26.49095258308313916018 13.39891965946492291550
H  13.73118033142033844740 26.48657103130320678019 12.48236537277801616597
O  14.84305052598829632871 28.16923446906246653043 12.35028429458404986008
C  13.68991353904041652356 27.68668835754972690211 14.32244458101206241452
H  13.13426254991906638736 26.92683318984089169135 14.88928640495625188578
O  14.62616898642886908988 28.29861507037714574153 15.23123656252976232395
C  12.71891386442830729209 28.79892925730300490272 13.83097381591398900014
H  13.02800930350437447203 29.11805605095464954957 12.81817648636251760763
O  11.38543226375791128646 28.34701829428351871343 13.75792522641562065644
C  12.91633434490929488447 29.94822521564955408735 14.84727628702562185481
H  12.81385542577036495970 30.94006329695317347728 14.37672344352846565130
O  11.96672151293116925785 29.83934129258190992573 15.88574401378488687442
H  11.16194625495302261697 29.40476663791859834873 15.52499341889860495769
C  14.35076228755774607748 29.70462626439158881908 15.37464199461777347722
H  14.38216530306925022842 29.92260876470638919500 16.44922513355557214254
N  17.10767827240907479336 34.20045870011379918196 15.15444905714373291516
C  16.15559964174242679746 33.77679075479875336896 15.99588117695368794102
H  15.88474715383075697162 34.50049402300241041530 16.75163163062214977117
N  15.47869208612882374609 32.65410441812005615247 16.05709644145412440253
C  15.83548911358771249525 31.78455810682020299396 15.10325928866241795845
C  16.84479425639587901742 32.08353340676081444371 14.18871797210933216604
C  17.46617084305541922618 33.34251677899642629654 14.21302526703726698543
N  18.32133802658699295307 33.62458970266352764611 13.16420960533233852630
H  18.50743124171111375631 34.58414839210329461139 12.91877622821225912730
H  18.17980947312818784667 33.04113511524798951768 12.32742104646082914599
N  17.00652596329471677450 31.08102555807787936715 13.29213013097117190853
C  16.12580365562263651213 30.17802688760200524598 13.60607444915112473893
H  15.96252858105631844410 29.32759091776593507461 12.97023189334986881249
N  15.36809758996021990640 30.53716605160373021022 14.70897773815596920599
O  14.45872503051938195995 27.79663047695411748350 9.90106712920776743658
H  13.57926653451031384634 27.71900385663013111071 10.32404703475042495597
O  16.68141347220208459134 28.86019328122374716372 10.84062455417382153655
P  10.96414203024194122804 28.19315613767350114927 12.20676713182065498131
C  9.71784485588947255508 30.28131670442295586554 12.50082138548771126807
H  9.76711721312076086576 29.88240882667717457366 13.52760403468207961453
H  8.77873390251377649918 29.93350846080511828973 12.03323556037000585661
O  10.77649471468332720292 29.73142080645012086393 11.77341755561504754724
C  9.81513112202097559589 31.80399370606690112595 12.52135141439145016307
H  9.04247417384621066105 32.23929499539909926398 13.17331039153679839160
O  11.07732561356542966280 32.22133844598766927447 13.06632279328775680938
C  9.63972347488643066526 32.41619956071669150788 11.10763104645030097117
H  9.74403975694594493007 31.62730271261887793344 10.34306444175545536268
O  8.34281399020093594743 32.97845699451842449434 11.01915756429378134840
H  8.14505372862429410930 33.35802557114224953239 10.12579686684006397002
C  10.77182963670337123574 33.47295199610923077671 11.01327488126746878550
H  11.29136574977527907038 33.45151825951700885753 10.03972718992846857589
O  10.29148500673552746321 34.77934078160703279536 11.23105815988452604870
H  9.70452985094751774398 35.04131123455296403790 10.48832853815608245895
C  11.76005122752799891828 33.06782586795917211475 12.13174616915104309101
H  12.04165268391355070321 33.97158833480622064371 12.68972987087662218642
N  16.71935118852212553975 33.87292821443399759573 10.89518178228280120834
C  15.72517853460696102275 34.69171804523072921711 11.24588555614055174203
H  15.98704130946851798001 35.74169477101174408062 11.24598519233494009484
N  14.48555629994787530279 34.43513414759391366715 11.57108446095627130035
C  14.19184533043920204420 33.13419828364111197061 11.47687817509333285670
C  15.12046218414090148485 32.15589806935123107223 11.12114212833590798368
C  16.43956261087914327845 32.57953874136330085776 10.82956066971853203995
N  17.43931592029608879102 31.65716080530868481446 10.56827164945880248581
H  18.15536244024664469521 31.84690175002817724703 9.86103505144036063257
H  17.18639248801538599309 30.67009066821045237816 10.57410756467926837843
N  14.50788231143294382264 30.93566307831392947492 11.05328538298516249938
C  13.24887028371991526399 31.13723918279447744339 11.33237272209630930320
H  12.49065363049772869886 30.37048264663485497294 11.29496815020394961948
N  12.99579882704371769364 32.46262814831700893592 11.62298222516230339352
O  9.63264210398878439889 27.47617331962903719500 12.10910826183881283669
O  12.08853589797096717007 27.54527616683798640906 11.43024562642559693870
