163
Coordinates from ORCA-job gmp_al_frame35_dry E -13492.554853924268
  Si          3.52658990337880     33.94950086104623      7.83320822756129
  Si          3.39351404384124     30.88746118347095      7.78035223946634
  O           2.31820106277676     34.91999150426984      8.34747336192064
  O           1.89856330920407     30.43750907920558      8.17064906010889
  O           3.48811313225972     32.42088641568824      8.36209705249054
  O           3.60427316253572     33.91207716876691      6.18521034824714
  O           3.60811386039754     31.04679974642269      6.14631230225537
  Si          6.23533780061827     26.07748310439341      7.72504254042203
  Si          8.92814589593134     24.54590905967957      7.81495305152110
  O           5.10097281541118     25.04367289850575      8.12049468084157
  O           7.65700398944592     25.44019239154160      8.26366424771635
  O           8.83441471139495     23.04105511799186      8.45281698010878
  O           6.43757962996714     26.35166581926305      6.10224340454158
  O           8.98021798634714     24.47707607888417      6.17086865794638
  Si          5.99404068316990     29.17529137515864      7.73468280069470
  Si          6.16554947818226     35.47087317801769      7.77572805671776
  Si          8.88947124987330     33.81681254388873      7.72785330305482
  Si          8.75954260649955     30.73360642325938      7.74910993559438
  O           4.69225177837263     29.99661824212894      8.29249698886055
  O           4.87767422273199     34.68933658999408      8.37272800632586
  O           7.51231164672267     34.65089624057736      8.11766942822868
  O           7.38056187622379     29.95082656086076      8.13733978906285
  O           6.03409288561818     27.62804489312938      8.31043502097927
  O           8.70919535635860     32.26754968137335      8.29539292524937
  O           5.82083135812933     29.11596288324673      6.10801879673329
  O           5.94734678710569     35.69879774143400      6.15980175696296
  O           8.98487856025360     33.70232217467974      6.09090690986080
  O           8.92046327240167     30.81113467515294      6.11394856994056
  Si          6.20832564962488     38.53929715849177      7.88419094044827
  Si          8.87715274208058     40.09059756726953      7.89527826031278
  O           4.92886344911962     39.39866812075899      8.43793712944178
  O           7.56475808549301     39.27223655448060      8.41850214807792
  O           6.22444815719555     36.98942105813470      8.40588649158643
  O           8.70750019345745     41.61342999271687      8.47231634804315
  O           6.25888919502878     38.53501200490178      6.24056424291346
  O           8.88229827806247     40.04457474082275      6.24684077433804
  Si         11.58398044935690     26.09199689630944      7.74416554058307
  Si         14.24077000698653     24.54119789509013      7.85165937532627
  O          10.29168155967827     25.30649878439307      8.32672908958822
  O          12.96956204487709     25.43661994881669      8.32402548448175
  O          14.00583269295315     23.02344169696188      8.40717411465535
  O          11.57066023745354     25.84875253927319      6.11506635175307
  O          14.31650845881561     24.56499924982885      6.20651715831679
  Si         11.47472106885807     29.27191721142146      7.75772812602774
  Al         11.64475758668489     35.39060372938835      7.82413165188858
  Si         14.27930300687690     33.80014222466566      7.87554497115606
  Si         14.15224426334413     30.76622047272038      7.80778051529001
  O          10.07982175989800     29.91612073618616      8.31197774894703
  O          10.14878119364489     34.59083942242876      8.31606732055232
  O          13.11109283782325     34.67010716481337      8.51306889097448
  O          12.82672431066549     29.97386040634712      8.36384731668820
  O          11.51069625733687     27.67353767620542      8.09548426795500
  O          14.35026680105415     32.24239843013584      8.44520487313324
  O          11.48512923669835     29.51174979518390      6.13255484543100
  O          11.84947774160815     35.05634069687361      6.09252109776533
  O          14.06082778915624     33.64638520031316      6.24927574592142
  O          13.95246048223188     30.91732772227238      6.18537532863162
  Si         11.63807678633217     38.67879297456594      7.83369976257530
  Si         14.38415258097666     40.06957689040381      7.88760513652316
  O          10.28520347359445     39.45032577393137      8.39004966257601
  O          12.99202843468475     39.43282475555998      8.43097521476043
  O          11.61385185016219     37.12931625101037      8.14050953981426
  O          14.63935044130304     41.61255236211706      8.38953043585412
  O          11.73837036344880     39.05665317255237      6.21891465000409
  O          14.39188327045842     39.96050633842360      6.24377434383640
  Si         16.92583133581979     26.05554071645047      7.91810442208457
  O          15.63166675997645     25.19453214775457      8.41191369717728
  O          18.27663597123282     25.35709133702743      8.51589220669786
  O          16.89051285549829     26.04261328592086      6.27148796513496
  Si         16.87757092709013     29.11801848368984      7.80967984602273
  Si         17.07534936379410     35.32304455465005      7.81025251657681
  Si         19.70280170389109     33.73381036969649      7.86051979661437
  Si         19.54792693853571     30.64930835547321      7.85604857191081
  O          15.47780551996866     29.85302949201182      8.12756155823770
  O          15.77264742857072     34.45474808019124      8.15979191218995
  O          18.41718892072576     34.57490276593978      8.40161360297441
  O          18.15140247232416     29.97679836701648      8.37054603836466
  O          16.84397592033156     27.60241955684000      8.42517716844094
  O          19.69601636792671     32.18506653112824      8.39393685287046
  O          17.11221227154838     28.89733475568801      6.19218021719979
  O          17.36720683950713     35.40435718429891      6.18732804363842
  O          19.60121680942515     33.66022180955568      6.21812803007014
  O          19.50565401982560     30.70869698513151      6.21075482719462
  Si         16.98943271187864     38.40731333348621      7.85276121755098
  O          15.70851496775255     39.25142217298763      8.41042677362651
  O          18.43201853848490     38.99465858580627      8.36384258021442
  O          16.96336223053697     36.85723356658568      8.36421300633501
  O          16.89543412827785     38.40416899877908      6.20944739122969
  O          20.74026210494703     29.66397248498158      8.38499409554839
  O          21.13800802047624     34.34677694321224      8.35667387519951
  H           4.07465744299445     24.98677205474547      8.03659115499283
  H           1.41040889325093     29.60201496858783      8.03674921704183
  H           1.41040900452251     35.00798498394327      8.03674926114514
  H           4.07465743986857     39.62322797750438      8.03659115987887
  H           8.94818084836456     22.17325469362714      8.03830168942248
  H           8.94818087309659     42.43674529242157      8.03830168166457
  H          14.27776177765102     22.17320382974025      8.03828215225430
  H          14.27776172415366     42.43679616688500      8.03828219204291
  H          18.96055658250140     24.87622777373608      8.03640577795811
  H          18.96055653234624     39.73377222672184      8.03640577846087
  H          21.62471723506077     29.49141992567733      8.03658340873107
  H          21.62471685466932     35.11857989553036      8.03658346175628
  H          13.22939385864731     34.15198105800469      5.99783567971849
  H          11.05632516899408     34.69457312467505      5.68640770354705
  H           8.89800541443970     32.79144342814543      5.77481756232383
  H           9.72686459938406     30.37453625867222      5.79785275617588
  H          12.28684807176228     29.97923620164694      5.83831482709416
  H          13.98194685751191     31.86973917137428      5.93609227169177
  H          13.52495168024556     39.66528570376454      5.90854358828243
  H          10.88465297397964     39.23480098900377      5.80758282390285
  H           8.09037600074029     39.62089624450191      5.88650454950558
  H           6.14636579382786     37.64022355821083      5.87636396678996
  H           5.26261856263324     35.11849993493269      5.79343834975053
  H           3.64080828774297     32.99478613573984      5.85998801873522
  H           4.24247411548964     30.41392175171177      5.78015855725484
  H           6.03357410053393     28.24276534256452      5.74188780780715
  H           7.08663655113618     25.76835496730698      5.69464567383994
  H           9.78744726432022     24.87250436295944      5.81111686014630
  H          12.41143190544680     25.53712065994139      5.75830391766471
  H          15.10457182447250     25.02557874383623      5.88183513242530
  H          17.01522648048748     26.93291162053988      5.90185031511707
  H          17.76073459045198     29.50169664050999      5.80722329619636
  H          19.51064803652097     31.62033222771230      5.87870481612075
  H          18.89356942191848     34.23292626389587      5.87391715842590
  H          17.12182945785318     36.24711675642065      5.78506740081492
  H          16.09350810032262     38.84984005915331      5.89192051809709
  P           1.76779148558480     26.29771571514667      8.55113274156423
  O           3.04526621810402     29.83290689648822     11.01203417017968
  O           5.60468397753692     29.26284946021580     13.44628489977854
  O           5.72065738091935     28.01905111464469     11.15605574107101
  O           2.23583542243973     26.43926504427333     10.10393527536422
  O           1.69501349012892     27.64258484557251      7.93003443692606
  O           0.24753649588837     25.74696920041104      8.68597682554035
  O           2.98179353796407     35.90415564499064     13.69648412715708
  O           2.58118799845684     25.17028952816510      7.99374929266186
  N           3.59033242757526     31.50615908708048     12.49896567372325
  N           2.23859289511258     32.86186194028930     13.65285373251091
  N           5.22477219214765     33.07981508689960     11.68698910127993
  N           4.72725012657987     35.25847755578322     12.39335810983205
  N           6.63245743601602     34.82246943226080     11.14268436189648
  C           4.41545655020376     29.13950536168728     12.73420213561932
  C           4.41790409588628     28.01655280637867     11.69435108041915
  C           4.06634152501977     30.33014222927569     11.83733671922343
  C           3.33490363130625     28.46798662425043     10.71003077383890
  C           2.04856032324178     27.67036983769558     10.76837397365774
  C           4.11563328319757     32.76052042486351     12.37584390959841
  C           2.46040862553948     31.63907757640369     13.27249584710414
  C           3.26787350484778     33.58849055824027     13.09984827921376
  C           3.55729337609945     34.98698967317195     13.14379494497185
  C           5.49965487067322     34.35325475539680     11.72808639494411
  H           3.60418097304074     28.99141320517992     13.45380038792649
  H           4.18350301907594     27.03503883643035     12.12031046391979
  H           4.94880130410452     30.63740368215621     11.26370598113683
  H           3.70825320924507     28.39714572518525      9.68673621758244
  H           1.25693097191002     28.26455644574486     10.30698940827930
  H           1.76627510566010     27.45364800871920     11.80492020627330
  H           6.30685387568990     29.04871379566167     12.81682929534527
  H           5.71982278209615     27.68667561563865     10.24818394834608
  H           1.83271530058542     30.78946691693195     13.49344746156251
  H           4.99598834116139     36.23062714509425     12.39999210006496
  H           6.65020657611314     35.77954193645375     10.82993723091508
  H           7.06422646773734     34.17586814413256     10.50108851271859
  H           0.29083335701117     24.79228918658072      8.78890112292598
