161
7 Eopt=-24.3635477186 (Eh) Einter=-38.029003 (kcal/mol)
Si 3.55619755741485565892 33.84476441978920036036 7.82276357888199491697
Si 3.55590021702643532819 30.76676464293829837970 7.82284079848158508952
O  2.14725499616581494422 34.47991502041850964133 8.40973852926701503918
O  2.14683493731708807672 30.13191591068874686243 8.40984764402952933438
O  3.71004511073549814171 32.30576445329229073877 8.41280327276080086563
O  3.55520841117916130969 33.84672284734444502874 6.16676352342925859773
O  3.55491063266010520749 30.76472336586920874879 6.16684084250631681101
Si 6.21945434885278736203 26.15150715619112631316 7.82297309177403743519
Si 8.88330603829905562918 24.61424959417492175362 7.82302831515265140183
O  4.81038912191311585076 25.51665837612420872915 8.40997993829996914883
O  7.47536352450171914796 25.24940047522229846777 8.41000353705940639770
O  9.03815418799154457474 23.07524949789610246853 8.41306747147721267766
O  6.21946467584858275757 26.14946604248573081009 6.16697312658441276767
O  8.88331681817438401083 24.61620855650804884363 6.16702821137921919359
Si 6.21975165201249424740 29.22950713327337979308 7.82289629631907867946
Si 6.22034606628201380829 35.38150693887492792555 7.82274214525555411370
Si 8.88419749747395037787 33.84424958253460857804 7.82279779991841373032
Si 8.88390008991859581045 30.76624970460628105684 7.82287493990583904235
O  4.81080926506730754966 29.86465800580368679107 8.40987141499146062529
O  4.81128092722611278020 34.74665786136750966762 8.40974902382608746620
O  7.47625510200663878635 34.47940035037088080117 8.40977289352395729338
O  7.47583500736565387257 30.13140043875191764755 8.40988180070508839492
O  6.37359925258122217429 27.69050701497502586790 8.41293572176815906971
O  9.03904501737960863750 32.30524947348663289404 8.41283745060646026559
O  6.21976243086236202373 29.23146574604269076758 6.16689624694221816270
O  6.22035653833888346753 35.37946534223896577487 6.16674219996867911675
O  8.88420829488370067395 33.84620807454413693449 6.16679780649294606576
O  8.88391050843116403257 30.76420830433595554609 6.16687499253557458445
Si 6.22064342764563082966 38.45950675833273635362 7.82266469620051374534
Si 8.88479196196894882576 39.99624950007669355045 7.82264305238407153809
O  4.81170078749433294263 39.09465713667323427671 8.40963963073340003973
O  7.47672682170585822803 39.36140026744183728624 8.40965003223990947845
O  6.37449096720516283909 36.92050681703761938479 8.41270448559467531879
O  9.03993734303275964237 41.53524934018160763571 8.41260523425817297039
O  6.22065423088540114804 38.46146494240825575162 6.16666464598079588910
O  8.88480247295977676458 39.99420773052634103806 6.16664310181169295078
Si 11.54845436548698955903 26.15099219584007528283 7.82300720743720923167
Si 14.21330584303375133004 24.61373495016826495885 7.82306253731993628264
O  10.13938911502751061278 25.51614313832828173645 8.41001386915022308699
O  12.80436338663642104052 25.24888567677177064752 8.41003765514148859950
O  14.36715409595451653502 23.07473485885359565373 8.41310182138497175686
O  11.54846465330784255343 26.14895113064775955536 6.16700718235747658014
O  14.21231681463115315012 24.61569388725087392800 6.16706249163213193754
Si 11.54875149209828144592 29.22899228108663649550 7.82293039974690351812
Al 11.54934595745101155728 35.38099216689774806355 7.82277650800493962180
Si 14.21419698087342631254 33.84373456826906334527 7.82283166695173726168
Si 14.21389963269865397422 30.76573488114175702890 7.82290895822171972185
O  10.13980914687016898768 29.86414305413424585822 8.40990554911021881423
O  10.14028079309285068632 34.74614304314849988486 8.40978320251333499868
O  12.80525506458555895506 34.47888576443511254865 8.40980704951305746420
O  12.80483487547620136127 30.13088559387781373289 8.40991594754737548101
O  11.70259910920329815553 27.68999214443139678110 8.41296981501085738842
O  14.36804501417712209843 32.30473476121486697821 8.41287156620389531270
O  11.54876230206257936572 29.23095090771306558963 6.16693037539549049342
O  11.54935626473109167023 35.37895056699164086922 6.16677634516225747774
O  14.21320806170587580652 33.84569336990630716855 6.16683190991179852602
O  14.21291030088053730651 30.76369350749143904977 6.16690911091316529280
Si 11.54964334817613114126 38.45899206806699766048 7.82269886969277372657
Si 14.21479182547902730960 39.99573458185066243686 7.82267713122524188663
O  10.14070098528483221401 39.09414296857377024708 8.40967387463603976983
O  12.80572674222125684196 39.36088552120699546322 8.40968415543914638022
O  11.70349084157683883234 36.91999207553672590620 8.41273859763477283025
O  14.36893717890901100986 41.53473451396914839506 8.41263927801018596142
O  11.54965410649523782638 38.46095034837759385482 6.16669881863782975984
O  14.21380227442283228356 39.99369288753747753162 6.16667717677893723049
Si 16.87745391341130130058 26.15047761168564122158 7.82304130650182472095
O  15.46838900089601764876 25.51562837632494051832 8.41004824313124466073
O  18.13336275258903640406 25.24837058561255886957 8.41007176965163161242
O  16.87746415380164322073 26.14843622945228673871 6.16704135716217738405
Si 16.87775122589718179711 29.22847752434201851202 7.82296441578260548511
Si 16.87834564550251315040 35.38047740817695796522 7.82281018711047426706
Si 19.54219697718636084005 33.84322009679620180123 7.82286558278442001324
Si 19.54189956517531001623 30.76522001648002202501 7.82294276198687299484
O  15.46880896152110906883 29.86362830861926909165 8.40993963434829439052
O  15.46928071042018082437 34.74562832714906335241 8.40981729071852868174
O  18.13425471313595238598 34.47837082484429060969 8.40984083402899429416
O  18.13383458666127978631 30.13037082218426121472 8.40994985123679406058
O  17.03159883433777110895 27.68947742616249740877 8.41300386806990907473
O  19.69704456952102589185 32.30421987452186982637 8.41290516834509816135
O  16.87776192872299674264 29.23043612889063425087 6.16696437333270353065
O  16.87835594292099727909 35.37843578489153628652 6.16681025403300964172
O  19.54220750793904315401 33.84517861459072918251 6.16686553302605844351
O  19.54190971131063037092 30.76317845060499323040 6.16694281212148442961
Si 16.87864312633649888085 38.45847737814737854478 7.82273276685068896796
O  15.46970084709972681480 39.09362819297443536470 8.40970792183175319678
O  18.13472631114321487189 39.36037116631936783051 8.40971797588714231608
O  17.03249066588669435873 36.91947736091449883133 8.41277248791406861983
O  16.87865370794832386991 38.46043573899795120496 6.16673271706518200119
O  20.79780834082776763694 29.86311288087571824690 8.40997325087409031141
O  20.79828007419132163136 34.74511392527397646290 8.40985083186359894114
H  4.07465743164062832449 24.98677204003459451087 8.03659115666666679090
H  1.41040896892614853186 29.60201496995867742612 8.03674925620167712736
H  1.41040900910460997864 35.00798498549229265109 8.03674926207524542576
H  4.07465743694464510583 39.62322797158911669158 8.03659115987197658626
H  8.94818086945427637602 22.17325470276027488126 8.03830168633113295584
H  8.94818087915386151110 42.43674530211524142942 8.03830168085109697529
H  14.27776170160712609913 22.17320385371422375442 8.03828218702038732602
H  14.27776173021582550859 42.43679616134888021861 8.03828219210817529472
H  18.96055658461146009586 24.87622777332465773270 8.03640577877819417552
H  18.96055653328530965496 39.73377222794913166126 8.03640577833473201963
H  21.62471722957229758322 29.49141993051369681211 8.03658340873431065177
H  21.62471723334093098856 35.11858007533123071653 8.03658341033968071088
H  13.39922793174535975425 34.28531244456861770686 5.85463176715004962603
H  10.85603171219232265798 34.89218232635162308952 5.71721595785169256487
H  8.79316677982823158288 32.97374190334955557091 5.76219940729545676561
H  9.66357961463057435481 30.35160700957636947805 5.76895568225950317043
H  12.30629749071664669202 29.68608882015083239025 5.77123880223901153386
H  14.17430142466564291226 31.65300279290793383780 5.78286316555557000640
H  13.45700859309165942079 39.52750482924223263126 5.78093078855108188918
H  10.82185198559875694002 38.95872177559263604962 5.76976940778343827532
H  8.14980839578318061456 39.50861002846852443326 5.76627385355785815335
H  6.23194667493631726529 37.58116492059854607533 5.76471310411497128712
H  5.44704955437460380807 34.95093754158828147638 5.77257540928860279905
H  3.60664936341170871970 32.96826993087993429299 5.76388710717370678083
H  4.32819223177515599588 30.34484056094211013033 5.76402041663820874362
H  6.20754699146256783138 28.34935900037434919341 5.76818373939608886047
H  7.00943285574453511799 25.75772181945169236883 5.76748914652884714371
H  9.64047060785281573203 25.06526888262406060903 5.76511829498443173492
H  12.31477064245067509773 25.70825778885492951531 5.77188276172835301736
H  14.95393929637892682649 25.09100721946233392146 5.76597661866371780093
H  16.85170393390990639659 27.02666099251040421336 5.76146800071939857446
H  17.64768340298344995176 29.66420704464039914683 5.77142433849831881787
H  19.48180900487722411185 31.64168672079483002335 5.76490010375122174935
H  18.77140968629901962572 34.27358367939027772309 5.76790924685174033471
H  16.89481965073398228583 36.26079389753899562265 5.76914703406092321814
H  16.09152697008158128256 38.86028470149489066898 5.76951241496045241774
P  8.82251422508622873409 27.48860232747384912955 11.33071828237375200388
O  7.02206171133549528207 30.73451609849368537652 12.79815897374400357478
O  4.43118598684368514284 31.85381314462870960824 11.67508349178183735262
O  6.29875100960074796319 33.39768487748136038817 10.62408109343862605556
O  7.56828001049771437181 28.15541284858388593193 12.11060966517198167480
O  9.07294950958756807324 33.87240587553460358095 11.00817998335882919037
O  10.06207011625217440098 27.64748006894805243405 12.18295589230212883081
O  8.98351818320623962677 28.14884549822502890493 9.98260261832276185601
O  8.52870245197862253406 25.94852421857340729616 11.03831272881825498189
N  8.94310610567403330151 31.71630084817987338397 11.74271805396474377403
N  10.95561398067448877214 32.58053729098974571343 10.86295379517753900700
N  12.91161983856268946624 31.23130989424548076272 10.81187218363928081999
C  5.45848322359133852899 31.12435555368298167878 11.05176892687832967965
C  6.66552301196559682239 32.04977182259893453420 10.79259169362564563244
C  6.05751058649198537154 30.04712550375856849882 11.99834447186680108643
C  7.52989264998932039674 31.86244473433932355988 12.06582786168166343543
C  6.74777710525455809432 28.89307158575299894210 11.24660224027887345244
C  9.54939726402308686204 30.51440675314864137135 11.94268172528943239286
C  9.62876337274752103212 32.80227254477967591129 11.19411184315756280228
C  10.85939646810880709893 30.33684694667866565965 11.64982010196771611277
C  11.59707602528209235970 31.39177737941548329559 11.10789058292748876511
H  5.04783812116090757627 30.69160900004800041074 10.13060866627229650305
H  7.22008224355877459288 31.72839642554922079398 9.89709529108420404953
H  5.29325639970374517418 29.67043539336197710554 12.69224304128912805822
H  7.41341389214823909271 32.73882479889229557557 12.71687322429419708669
H  7.39328632195784241077 29.30162522564846483419 10.45116179563840042022
H  6.02849127072712320796 28.20796842036974538814 10.77077586459346036918
H  4.36045310405848063340 32.71841914439921339408 11.21282457923731001870
H  7.13484639196644643278 33.91202299259122554531 10.53114102025116771699
H  8.94832449921653605429 29.70502323431984947888 12.32016478276305448958
H  11.31073777852768813545 29.36561889557523130634 11.76753867987988400046
H  13.33419062803028865005 30.31643143572367904426 10.83208549835745593271
H  13.36608685874484159228 31.79938240545359917633 10.10298868804585836756
H  9.04461494192015358351 25.74953530134972368160 10.22785090941742680570
H  11.43539431519005056259 33.29999649331710287470 10.33548046726719427113
