163
7 Eopt=-23.7206888241 (Eh) Einter=-28.209770 (kcal/mol)
Si 3.55619755617635480149 33.84476442151581920825 7.82276357742808947648
Si 3.55590021705338532598 30.76676464288329881924 7.82284079853197322763
O  2.14725498178556684081 34.47991502143821662685 8.40973852864502902094
O  2.14683493724788654333 30.13191591078348707811 8.40984764397779471778
O  3.71004511081896559688 32.30576445370122939948 8.41280327330295207844
O  3.55520841121735831081 33.84672284719656687457 6.16676352329770605110
O  3.55491063267688645055 30.76472336591565692743 6.16684084251965192180
Si 6.21945436191785816504 26.15150720657561578264 7.82297308175749783743
Si 8.88330594258992078949 24.61424969089744152484 7.82302827161302793968
O  4.81038912274579555373 25.51665837086756383201 8.40997994588018116247
O  7.47536352325861397361 25.24940041054978578927 8.41000351775918275621
O  9.03815422683669211779 23.07524947569555706650 8.41306749389655017524
O  6.21946467086608034691 26.14946602881846615674 6.16697313187931506206
O  8.88331682550297507817 24.61620855340468239092 6.16702822426955066248
Si 6.21975164845631400823 29.22950713305294812017 7.82289629633514227436
Si 6.22034607175709997051 35.38150693886083786310 7.82274212754465825270
Si 8.88419750658680307254 33.84424967136929041089 7.82279786274644539645
Si 8.88390008394665287028 30.76624971116240558899 7.82287494711298414529
O  4.81080926606272818447 29.86465800562211470037 8.40987141427250506354
O  4.81128093463331829582 34.74665785725211719637 8.40974903292006636946
O  7.47625510925021252717 34.47940034068773229592 8.40977288150976143299
O  7.47583500860722871550 30.13140043850198068753 8.40988179911990130222
O  6.37359925325952580977 27.69050700997791381042 8.41293572159892555362
O  9.03904503006606674376 32.30524946325157742422 8.41283742818566082633
O  6.21976243102842030197 29.23146574682331078066 6.16689624687202808673
O  6.22035654065679466385 35.37946533956711903102 6.16674220106130910324
O  8.88420829913731679994 33.84620807095360106587 6.16679779557789942146
O  8.88391050974516538474 30.76420830435447939522 6.16687499271929961964
Si 6.22064350940375110355 38.45950665606848417610 7.82266454019629797756
Si 8.88479212120400951846 39.99624960405536455710 7.82264318736063302140
O  4.81170077522714834117 39.09465719338066946875 8.40963968838671505068
O  7.47672676310852590831 39.36140037021619519919 8.40965014976880986808
O  6.37449092291061969462 36.92050683418352718945 8.41270451512504457980
O  9.03993731691708291009 41.53524933272338870438 8.41260517295736143240
O  6.22065423274796103215 38.46146495825865230245 6.16666469099735081727
O  8.88480245670464618968 39.99420773215877034090 6.16664308236367286753
Si 11.54845426677369069068 26.15099232606849710692 7.82300714607071512319
Si 14.21330584706857891319 24.61373497031218704478 7.82306254405720657985
O  10.13938923324962537720 25.51614300831642623280 8.41001392841635109221
O  12.80436339639422271830 25.24888564415634917282 8.41003767309899075144
O  14.36715410313100171891 23.07473485842671578894 8.41310182041135590225
O  11.54846468073861842640 26.14895111120474169297 6.16700719667549446257
O  14.21231681104876010124 24.61569388566934790674 6.16706248840615156581
Si 11.54875151034024050034 29.22899226652971904628 7.82293042020658280222
Al 11.54934571482817773358 35.38099193094782890512 7.82277627024344202056
Si 14.21419723129637269210 33.84373465219660914727 7.82283189759525043883
Si 14.21389984547875329213 30.76573485913832328720 7.82290904015006738348
O  10.13980914088958762420 29.86414304259289309584 8.40990554913631704892
O  10.14028085584028282540 34.74614301784578174193 8.40978326311327251119
O  12.80525508418817537404 34.47888584294771163741 8.40980706590812232548
O  12.80483482317824872609 30.13088562762453648247 8.40991593490030098224
O  11.70259912151562708971 27.68999213107883150542 8.41296980789397075284
O  14.36804482964804918765 32.30473472004399582147 8.41287147028003090554
O  11.54876230053752372839 29.23095091372479359393 6.16693037084314177321
O  11.54935628593322327617 35.37895058395358205416 6.16677638503627534305
O  14.21320801688648849392 33.84569332932180429907 6.16683184636768189080
O  14.21291021019176348261 30.76369352230360121325 6.16690907776171570731
Si 11.54964355788272101222 38.45899244626927071522 7.82269925052632686402
Si 14.21479181888644482967 39.99573448429444511021 7.82267710710418739950
O  10.14070074850798697241 39.09414260078305147772 8.40967359101465028459
O  12.80572666991939811965 39.36088553741369366890 8.40968403390107432926
O  11.70349090579744988361 36.91999208878726790317 8.41273857941597924537
O  14.36893718273052655832 41.53473453028968265244 8.41263930098160273019
O  11.54965404623372648985 38.46095025852383741949 6.16669874014265406714
O  14.21380226150469816560 39.99369291320679309365 6.16667718757619454095
Si 16.87745391194215827113 26.15047761219486233131 7.82304130658558793954
O  15.46838899860116534057 25.51562837292347651896 8.41004824146775220584
O  18.13336275222888005487 25.24837058580570925415 8.41007177002606454153
O  16.87746415401293731406 26.14843622898394315257 6.16704135710722756158
Si 16.87775123148042055732 29.22847752698859125076 7.82296442318614548839
Si 16.87834566255841650673 35.38047741332422191363 7.82281020352673106544
Si 19.54219697642988862185 33.84322009633567063247 7.82286558259010966765
Si 19.54189956431213204269 30.76522001742982226347 7.82294276155663315109
O  15.46880890788070495034 29.86362830621910546824 8.40993960409558916069
O  15.46928064130861635306 34.74562828941950698436 8.40981724006306308183
O  18.13425471227771623717 34.47837082287097842936 8.40984082933749377275
O  18.13383458946296400427 30.13037082416571621479 8.40994984752253493809
O  17.03159884004244162270 27.68947742867001338141 8.41300387015504647081
O  19.69704456936012348933 32.30421987342679557287 8.41290516873028693112
O  16.87776192903626792940 29.23043612873280494568 6.16696437355576154715
O  16.87835593796145872147 35.37843578866875304811 6.16681025189668918784
O  19.54220750769852443796 33.84517861407455541212 6.16686553310002594230
O  19.54190971122029196749 30.76317845063335454370 6.16694281229725849158
Si 16.87864307606694325159 38.45847729768901501757 7.82273273501086929826
O  15.46970090036587386351 39.09362828595178029900 8.40970796154193322991
O  18.13472632221292002441 39.36037117986051470098 8.40971799158135091545
O  17.03249066883278572959 36.91947737281343222548 8.41277247567462538314
O  16.87865372029236965545 38.46043576676259334590 6.16673272341376588201
O  20.79780834060625238635 29.86311288069073555107 8.40997325096908632247
O  20.79828007413441071094 34.74511392529088027459 8.40985083187296567075
H  4.07465742948278641933 24.98677204209662860990 8.03659115491004349963
H  1.41040896892843470312 29.60201496987566116559 8.03674925619875857308
H  1.41040901004004481933 35.00798498588071083759 8.03674926249621712770
H  4.07465743028057758579 39.62322794528447644780 8.03659114702850274625
H  8.94818084745263320201 22.17325470672270526507 8.03830168958096180631
H  8.94818089267311655988 42.43674530234167008302 8.03830168612126350070
H  14.27776169769094138928 22.17320385310983255067 8.03828218837404762098
H  14.27776172834842860482 42.43679616021761091815 8.03828218992065046677
H  18.96055659234596646456 24.87622776315337702613 8.03640577837292191532
H  18.96055653383840322590 39.73377222278869425054 8.03640577885172469053
H  21.62471722971792686963 29.49141993062604072406 8.03658340871070109301
H  21.62471723342470397711 35.11858007535559522694 8.03658341032425660444
H  13.39922795587010639906 34.28531246561971101983 5.85463176755035341614
H  10.85603170273202344731 34.89218232397234942255 5.71721596201000537008
H  8.79316677824947490194 32.97374190363579771201 5.76219940652852713470
H  9.66357961433455692202 30.35160700982075709931 5.76895568206547437740
H  12.30629750051659954124 29.68608882099587020775 5.77123880496356900238
H  14.17430145627169757461 31.65300279373971648056 5.78286317028470620016
H  13.45700860554698508054 39.52750482239846974153 5.78093078727182430043
H  10.82185201969544507961 38.95872181728797301048 5.76976941387380026782
H  8.14980839761510189589 39.50861003128224524517 5.76627385011030035855
H  6.23194666953069020821 37.58116491182152429928 5.76471310250777335682
H  5.44704955306190452546 34.95093754338715541508 5.77257540965970949998
H  3.60664936331310048701 32.96826993082567014426 5.76388710719226349255
H  4.32819223175103573453 30.34484056093435100365 5.76402041664249509267
H  6.20754699148388766616 28.34935900039634759651 5.76818373920133709021
H  7.00943285683942018949 25.75772182359004247587 5.76748914513950161620
H  9.64047060887968676468 25.06526887689978977392 5.76511829260527264296
H  12.31477063362757995435 25.70825778342846490432 5.77188275793401928127
H  14.95393929817629441459 25.09100721815891432698 5.76597661929072913267
H  16.85170393379162945280 27.02666099267198518419 5.76146800079479071144
H  17.64768340244608424427 29.66420704500305660645 5.77142433815116362439
H  19.48180900498193679482 31.64168672085854439047 5.76490010380608186580
H  18.77140968700422618554 34.27358367911507741610 5.76790924667400517478
H  16.89481965154589460099 36.26079389135273345346 5.76914703342840784472
H  16.09152696657591974372 38.86028468559258186588 5.76951241413900639543
P  12.96670751159802925656 33.58053483235018177311 15.66229512192442108187
O  12.37243764724459360593 34.96762077164253668116 15.81490771922558735696
O  13.78527882137378313132 33.17402074513960030799 16.86761776331145057384
O  11.77554273475243817870 32.52513181943545816921 15.47864302817055559558
O  13.87934747262330859030 33.53574915924568955461 14.33310583661238624131
C  14.31693480693827247308 34.81545025683544025696 13.98273507374003798986
C  14.81485434356621588847 34.81454320311269867716 12.53421533553419209284
O  13.84271667494126312192 34.17889217544989577391 11.71206359276999720009
C  15.02097406243035138118 36.23929434466666066328 11.94583640583201677998
O  16.11971541913192851325 36.25108008460024677788 11.07375984226437104496
C  13.71453547201426204083 36.51681563736664770659 11.15030091814507784420
O  14.00594276595098186533 36.77504927472106999176 9.79432267324155603205
C  12.93446126530085038553 35.17766901871031848259 11.25948866886495913775
N  11.72136914972680621361 35.23360426633070119351 12.09777713323984649207
C  11.25480972137027713131 34.13143126087106082878 12.80923682096099369687
N  9.95569633809655663015 34.01145640395056091165 12.76937218922038042024
C  9.49798158703186956586 35.06270594942299112518 12.03723190219327321415
C  8.23528183898339172231 35.30200668768582517032 11.45136129347071296536
N  7.19446800412102760447 34.43785984536079070040 11.56029893881198944428
N  8.20560090384054241497 36.38351032617784142076 10.62833736128681394462
C  9.30767283924747523827 37.15861866227488263803 10.37909946296843521907
N  10.49799812741372484481 36.95681464182588626954 10.83950871690684181203
C  10.58128081920849794528 35.87726282930644572389 11.64873676313105477220
H  11.58236830661745742077 32.12806116635935893555 16.34472587004434274149
H  13.45399579028319791973 35.49612264147754103760 14.07732263340045975042
H  15.09363490306417077136 35.13421750769072104958 14.69709122844234272520
H  15.73482793299813664589 34.21885403662409430581 12.43940282441887390519
H  15.20412674479880088541 36.98195358559715373303 12.73518433457158849365
H  15.87119883833635824999 35.75539632165635595129 10.25123935375377826063
H  13.11560891496811009915 37.34352771516782354411 11.56128772846788166362
H  14.52557375179340759530 37.60130393809390625393 9.65498263497837072578
H  12.60535981274846406563 34.86451873211691321330 10.26065191574703305832
H  11.90108765680444058432 33.44580574375194004233 13.34357019242210284915
H  7.31403283812549087628 33.53078748874494152687 11.98450891358318237678
H  6.44101888957639268085 34.44942170780481660586 10.88755016732673119861
H  9.19224752862203331460 37.97154065565144520633 9.68169876942284979293
H  7.39624591564967914792 36.51134400827471893081 10.01617604034009012537
