161
4 Eopt=-23.1906591428 (Eh) Einter=-36.894358 (kcal/mol)
Si 3.55625019733759017981 33.84481352251142993737 7.82283052347158580631
Si 3.55593639337080347218 30.76681374906647903344 7.82283149587759840671
O  2.14730563683121111751 34.47995712170973092725 8.40980825184305302855
O  2.14686231981974984251 30.13195801643427884642 8.40980966039088428943
O  3.71008409432697838781 32.30579811974862280977 8.41283350947065500236
O  3.55527628738197165603 33.84681297565867907906 6.16683050728384696271
O  3.55496202326443277997 30.76481349823377087205 6.16683148089951416182
Si 6.21946585178730426691 26.15154206522505830890 7.82287394204323849323
Si 8.88330921967205711098 24.61427032369627099229 7.82291554177192516306
O  4.81039181902509760391 25.51668623361574006481 8.40985212632979894920
O  7.47536479279034793421 25.24941401070221047576 8.40989357697782757839
O  9.03814384320335406642 23.07525464039707685515 8.41291806257773266964
O  6.21949137436593080253 26.14954191152566664869 6.16687394242499387076
O  8.88333532807775050344 24.61627018272143274658 6.16691554181045464844
Si 6.21977960270629104400 29.22954198993630470227 7.82287340528546515372
Si 6.22040692397210825959 35.38154178342373512578 7.82287165084793034708
Si 8.88425012573411443384 33.84427022428712916735 7.82291376453053199924
Si 8.88393626468899455517 30.76627031758129504624 7.82291461100231355630
O  4.81083522055494405834 29.86468585876951920000 8.40985130295867833183
O  4.81133299316916840382 34.74668571286121476760 8.40984984568117965864
O  7.47630574280494997197 34.47941394178670293513 8.40989159469802949332
O  7.47586238976077854801 30.13141403565494158556 8.40989279742686690611
O  6.37361355190366563050 27.69052643013305115005 8.41287612248028615625
O  9.03908400184754690088 32.30525462815002413208 8.41291665280300904328
O  6.21980562024876970639 29.23154162452003035355 6.16687340494835467553
O  6.22043261199547625750 35.37954121085963521409 6.16687165173906581828
O  8.88427616552663401706 33.84626969483689151730 6.16691376392671308793
O  8.88396189505517774876 30.76426992951092387329 6.16691461080901426328
Si 6.22072074862093771230 38.45954160511797681465 7.82287044049076207841
Si 8.88487749796470183128 39.99627009474538397171 7.82291135285586491932
O  4.81177610574136060961 39.09468497610274084764 8.40984815249631445511
O  7.47680356748760832630 39.36141385652747715085 8.40988966412147931351
O  6.37455463177746040060 36.92052622857755039831 8.41287352599668203368
O  9.04002569372152464666 41.53525449273737280009 8.41291308192033326918
O  6.22074678692861038343 38.46154080482683923492 6.16687043973038573341
O  8.88490322600886983651 39.99426934456965909703 6.16691135395755019033
Si 11.54846575519111162578 26.15099867915486697711 7.82295698243648640613
Si 14.21330911335149060903 24.61372707512202140379 7.82299879676055365252
O  10.13939192922468279789 25.51614235735675251249 8.40993508436303649489
O  12.80436466469967626836 25.24887074088405114480 8.40997670695171350985
O  14.36714371740208839867 23.07471152290884219838 8.41300136451379820812
O  11.54849138187333323913 26.14899848638390977840 6.16695698268028280609
O  14.21233531282990547595 24.61572701448992717133 6.16699878092689246500
Si 11.54877946291260570888 29.22899862093395384477 7.82295650590283386805
Si 11.54940674760295848955 35.38099852815250301319 7.82295480145999277966
Si 14.21424991896570233507 33.84372687260234613404 7.82299680069126157633
Si 14.21393601837328368731 30.76572694321128409456 7.82299768239480819432
O  10.13983509219687562108 29.86414238734725756785 8.40993441532464736099
O  10.14033289080315469732 34.74614237526794369160 8.40993306819160046928
O  12.80530558431510890216 34.47887068866114645971 8.40997468464641251273
O  12.80486220202259062262 30.13087072174985081574 8.40997590775305781108
O  11.70261341863075266190 27.68998304516492225957 8.41295918409999821108
O  14.36808380269520668548 32.30471138073419723469 8.41299968356267413583
O  11.54880548589617994537 29.23099828649000997416 6.16695650501904513163
O  11.54943233882376318888 35.37899793486590027669 6.16695480117229077877
O  14.21327587010541648738 33.84572642252877017199 6.16699678544691298754
O  14.21296159057090058297 30.76372664912324239594 6.16699767107383944875
Si 11.54972065844154549552 38.45899842495619935789 7.82295359221830466367
Si 14.21487735431708188116 39.99572667047190321910 7.82299441767757475219
O  10.14077630378557692836 39.09414231236718961782 8.40993138124335004591
O  12.80580347695914333883 39.36087061201262571331 8.40997276700390195003
O  11.70355452175450849950 36.91998300201134952658 8.41295663522801895340
O  14.36902552305621405537 41.53471116398620210930 8.41299609776588219745
O  11.54974665229078922835 38.46099771191965288608 6.16695359149685984335
O  14.21390301434905012457 39.99372599907890446502 6.16699440299595558201
Si 16.87746535418044402377 26.15045547000692849338 7.82304012560189576675
O  15.46839170199990576293 25.51559921912701867086 8.41001836852967699087
O  18.13336401987828594429 25.24832717475507948279 8.41005977643525426402
O  16.87749086838046608250 26.14845510373524462011 6.16704011368585991448
Si 16.87777909736108483685 29.22845542535484497648 7.82303945325266347766
Si 16.87840655573549497603 35.38045537127134565480 7.82303764907585019728
Si 19.54224953029474320942 33.84318416629469794543 7.82307906015562792845
Si 19.54193561027670256180 30.76518374171222447444 7.82308017425006241297
O  15.46883487058827810756 29.86359917633077287746 8.41001744147046892408
O  15.46933269601378135860 34.74559911886373697598 8.41001602943327952744
O  18.13430526969742828669 34.47832725813216114830 8.41005747997297525842
O  18.13386205433115350161 30.13032730280148996371 8.41005887075800551145
O  17.03161318909936028376 27.68943984395793123099 8.41304221406007712858
O  19.69708359096237870745 32.30416793149733223345 8.41308258740689396404
O  16.87780512809807120789 29.23045499436975447338 6.16703948337151874881
O  16.87843199019183870746 35.37845463633659903735 6.16703765410330717600
O  19.54227538862430435529 33.84518308039083223093 6.16707951453431757471
O  19.54196112693780662539 30.76318305432816302414 6.16708040998357809315
Si 16.87872042011878903622 38.45845522819131900860 7.82303646152238130185
O  15.46977615375533510189 39.09359903640687150528 8.41001439928306560034
O  18.13480302993008308476 39.36032777527019987929 8.41005555107267532833
O  17.03255432393787671685 36.91943976897581336516 8.41303946276603120680
O  16.87874623766656867474 38.46045460863847154087 6.16703645909450060003
O  20.79783433213453491817 29.86305525327217225140 8.41010011367050047681
O  20.79833229503460501064 34.74505583078125425800 8.41009877343829437280
H  4.07465742959607535312 24.98677204109606719840 8.03659115490678033211
H  1.41040896896502054858 29.60201496923107455927 8.03674925623944425013
H  1.41040900865150220511 35.00798498518705770266 8.03674926198596928373
H  4.07465743671531033243 39.62322797221895598341 8.03659115988713601553
H  8.94818084681482162068 22.17325470606576942600 8.03830168965366809175
H  8.94818087833693098787 42.43674530353730744991 8.03830168072116180156
H  14.27776169810712403319 22.17320385285547956755 8.03828218820579287751
H  14.27776172873299209698 42.43679616364689621832 8.03828219214294215078
H  18.96055658502542584642 24.87622777527535333775 8.03640578005674299789
H  18.96055653561558074216 39.73377222659379981451 8.03640577846983283905
H  21.62471721108819977530 29.49141990692643844341 8.03658339556204381893
H  21.62471709939870834205 35.11858033246410570882 8.03658331450925089712
H  13.43954240742366934569 34.27033906279439179343 5.76911863100673549809
H  10.79702478238403173805 34.91824967580275540513 5.76839602503847981296
H  8.90770700653781410949 32.96594596393171627824 5.76499475623918122835
H  9.65945432611920473676 30.34299409114158763145 5.76888004990647385029
H  12.30259136209170378606 29.68912269750403254420 5.76803922566430582464
H  14.18560353600048529188 31.64418152029141495518 5.76552258398891215307
H  13.46208429051955590694 39.53603768198192369709 5.76468154405308030874
H  10.78553467863843629004 38.90473306682648058086 5.77122838976577501313
H  8.14831461450305916117 39.50994490507551404335 5.76699955035961586702
H  6.23317386268911732827 37.58286575797879436323 5.76180503593695725328
H  5.45415702064684815298 34.93908511500023195140 5.77152547615460775887
H  3.60566386871233834910 32.96814933236753120127 5.76410508780553776376
H  4.32812544123326770062 30.34544671555977046751 5.76331957717636811367
H  6.21212642428423045260 28.34933201799039537150 5.76816829129986796687
H  7.00946743377396774832 25.75759721987348171979 5.76754704175150401113
H  9.64012207138584997779 25.06582757763408864093 5.76488469563310168553
H  12.31500792574801650403 25.70853944695218729066 5.77192568457827892558
H  14.95343798866084128463 25.09203406351291221199 5.76610003190354003522
H  16.85241663388962862768 27.02653749443923913987 5.76116217516429518497
H  17.64630212928824448682 29.66655897693252796898 5.77122747251281964509
H  19.48194551264223051135 31.64158906553468142420 5.76482831711583632028
H  18.77355783717447224035 34.27390180362243654599 5.76498788398309791603
H  16.88031298261922330539 36.26100720084875206339 5.76894103433414962012
H  16.09309773686610967047 38.86024083842168153069 5.76722976431757849980
P  17.57866688417372103004 32.32200967274067693324 11.40157098756478859514
O  14.46705070805181492233 30.34660706405551877651 12.99972067400430120188
O  13.45358558412736904586 27.73557018029903176171 11.61069080709362033588
O  11.64792996834289695585 29.58469181057480668073 11.11289311434942206347
O  16.89192415586153828144 31.10159844022979314104 12.20190252696718502534
O  11.22120869912631135890 32.34673616487965830402 11.31763931534942457802
O  17.44714141923216033092 33.58764720404016657085 12.21801950005425752011
O  16.91350374677301715565 32.46636062499241859314 10.04783978162865487604
O  19.10404911208294720382 31.91560103182445118364 11.16807987558267534212
N  13.38086024769611981355 32.29735529595669163427 12.07357876932306695039
N  12.49268778373630794931 34.21118420353869993278 11.01149348905490654715
N  13.87594048029200877181 36.06446077222344825941 10.48392826158992185981
C  14.02120441674630590967 28.92732422323886254389 11.12595530825099920946
C  12.97332631119087942295 30.06333616431289357251 11.12223606475193804499
C  15.12194508456108010819 29.47047968629280134678 12.07585810006599480459
C  13.27417375375376629165 30.87734275649654591689 12.40322390113852080162
C  16.23375061225112503394 30.22848181518043730875 11.33097301942051160495
C  14.58575936097142466963 32.92863819345456732890 12.16449421616778181487
C  12.28601897688468547187 32.92281802887256958456 11.47288226339462724468
C  14.76917454802266149727 34.18208313104773310442 11.67891462668040958306
C  13.70371894163504400410 34.85609068002855792656 11.08060533308273676312
H  14.42016378888951777526 28.72853208672887248554 10.11909728267668917567
H  13.10866433314198431503 30.72597906424712377316 10.25103967258529991113
H  15.53787799550633685897 28.65398808115761397630 12.68423837170704970845
H  12.46430690151213482864 30.74338060130274996595 13.13226409947372630427
H  15.79322856794430585126 30.83680358309291591468 10.52336909532499831244
H  16.97551707350684679909 29.55354715247074182116 10.87311957525729155805
H  12.53726474348411201731 27.66746944434243715705 11.26321337825178225955
H  11.05987994792987194614 30.37009938124390728831 11.12627524391574596052
H  15.40288108644227449417 32.37226875750769039541 12.58970795279595833449
H  15.74978065529927206967 34.62851181863046434728 11.68291725050480245329
H  14.78633748572006112454 36.40574342238969052232 10.21056553473013650546
H  13.15637562892258394243 36.42711650503084541697 9.86394713293705471813
H  19.32380836506229826455 32.09270847636442880457 10.23086753052177400036
H  11.77859784214887817200 34.57532371093435585863 10.38652403608094765275
