195
11 Eopt=-32.2229441078 (Eh) Einter=-86.094549 (kcal/mol)
Si 3.55625019374331419186 33.84481352179430757587 7.82283053332628508514
Si 3.55593639455856269649 30.76681375064863033231 7.82283149546502087901
O  2.14730563746190128427 34.47995712994487860215 8.40980824637830970403
O  2.14686231989761466821 30.13195801626117997785 8.40980966009147756779
O  3.71008409080424250703 32.30579812709432729889 8.41283351814635338428
O  3.55527629165595726590 33.84681298096258927899 6.16683050804595378480
O  3.55496202309384923268 30.76481349797029807291 6.16683148029530681100
Si 6.21946585544972219139 26.15154207454486012807 7.82287394396296420496
Si 8.88330919846547750751 24.61427027562471181454 7.82291555111762892949
O  4.81039181803847881724 25.51668623400102475784 8.40985212633132128701
O  7.47536478475353938222 25.24941400291629989283 8.40989357238402490680
O  9.03814392461715065963 23.07525483626484685828 8.41291807402610913869
O  6.21949137349955272214 26.14954191007673500735 6.16687394231671515143
O  8.88333533249404361243 24.61627019431595897458 6.16691554332823521634
Si 6.21977960738280888364 29.22954198495184385820 7.82287340606473868831
Si 6.22040725571463237742 35.38154230896846286214 7.82287194669400776093
Si 8.88425010710738760622 33.84427019961835725326 7.82291373861611472051
Si 8.88393622591364007235 30.76627031127284084278 7.82291459378503262201
O  4.81083522278410669060 29.86468585793452490407 8.40985130311350559396
O  4.81133294825872415146 34.74668559321683858343 8.40984980037293716748
O  7.47630542908564876825 34.47941360664395915592 8.40989142765159414239
O  7.47586236486495003817 30.13141403865272138773 8.40989279737099515444
O  6.37361355457681888481 27.69052642921946016941 8.41287612150827790458
O  9.03908413033838975537 32.30525470699853229917 8.41291669037023837063
O  6.21980562119785940212 29.23154162459174187916 6.16687340536809003311
O  6.22043254658568667281 35.37954111712384275279 6.16687159056547073988
O  8.88427617224666477114 33.84626971145040386091 6.16691377191860823359
O  8.88396189526384283397 30.76426991992053672220 6.16691461602677559739
Si 6.22072075322378825746 38.45954161419268046984 7.82287044072346393619
Si 8.88487750299061573855 39.99627010256689629841 7.82291136120038821389
O  4.81177610868208915917 39.09468494063516175174 8.40984816072261764930
O  7.47680356680020530291 39.36141386221142113300 8.40988965267268895332
O  6.37455456644425577650 36.92052610405173851404 8.41287346789783185841
O  9.04002571419430722699 41.53525455268870558712 8.41291305070250494680
O  6.22074678883225384851 38.46154080967082222742 6.16687044171183984531
O  8.88490322922205244538 39.99426933980673481983 6.16691135815481050741
Si 11.54846575369022509960 26.15099868366199586944 7.82295698067036227030
Si 14.21330911501609151060 24.61372707237373447242 7.82299879683727183988
O  10.13939193420937989742 25.51614235329030933030 8.40993508864923455803
O  12.80436466472849943443 25.24887074067721925985 8.40997670807874442289
O  14.36714371850256455332 23.07471152257535607077 8.41300136399263820408
O  11.54849138190263779791 26.14899848631537082611 6.16695698258113722545
O  14.21233531245569992052 24.61572701468977442119 6.16699878110340726778
Si 11.54877946546536193750 29.22899861662473597335 7.82295650556758115357
Si 11.54940675444889564005 35.38099850976335858377 7.82295478664832977245
Si 14.21424991664787995660 33.84372686644879024698 7.82299680184889023593
Si 14.21393602424929980543 30.76572695772358656541 7.82299768594610966943
O  10.13983508397178034954 29.86414238598492687515 8.40993441880660341781
O  10.14033294177264643565 34.74614245790811395409 8.40993308800584138396
O  12.80530558279170172398 34.47887068333385229835 8.40997468539447368130
O  12.80486220262822882887 30.13087072320614012710 8.40997590728284905026
O  11.70261342114199543119 27.68998304667783827426 8.41295918457507241328
O  14.36808380372384164048 32.30471138083917992390 8.41299968084810068092
O  11.54880548516115545965 29.23099828757545992630 6.16695650442399312396
O  11.54943232989227119845 35.37899793670862891304 6.16695480790400907267
O  14.21327587317215801477 33.84572642644252482569 6.16699678572939546939
O  14.21296158978488222147 30.76372664674036983001 6.16699767078771365902
Si 11.54972065273265968699 38.45899839045848267460 7.82295357839869520689
Si 14.21487733722459445573 39.99572658032848693210 7.82299445620792166523
O  10.14077629166194327581 39.09414226510124734659 8.40993138516822114070
O  12.80580348208243890440 39.36087075496027409827 8.40997272175461318966
O  11.70355452099083315431 36.91998297979623799847 8.41295665890548072241
O  14.36902555924140578725 41.53471119450667714545 8.41299608575841517677
O  11.54974665339429584776 38.46099771188406890587 6.16695359850802837798
O  14.21390301002973721722 39.99372602017562172705 6.16699439478768951517
Si 16.87746539889327834771 26.15045546540592624751 7.82304011488958916942
O  15.46839169405313541006 25.51559922193640161936 8.41001837214470704396
O  18.13336401767832839482 25.24832717946208404669 8.41005977561224682404
O  16.87749085145173566502 26.14845510366481207143 6.16704011576402244543
Si 16.87777918764104612137 29.22845537275414784517 7.82303948157733408664
Si 16.87840650170121747919 35.38045526633531778771 7.82303765194449329812
Si 19.54224962902711837387 33.84318370027493472207 7.82307942650252741146
Si 19.54193584310842979335 30.76518360120538986280 7.82308032057007718407
O  15.46883486094680293377 29.86359915291291144968 8.41001744766985126489
O  15.46933269838200786239 34.74559912871877287444 8.41001601497337070157
O  18.13430534857369025303 34.47832742378183468190 8.41005748389524221409
O  18.13386192213612346791 30.13032743381909384084 8.41005880345076484161
O  17.03161313934296572370 27.68943984202816821494 8.41304221603377122563
O  19.69708346243849916846 32.30416804185189505461 8.41308235265097259514
O  16.87780511179985154513 29.23045500207039282259 6.16703947976761934768
O  16.87843199473341115890 35.37845465718978488212 6.16703765265990888622
O  19.54227535626830203341 33.84518324099696684470 6.16707943664154711882
O  19.54196104926703370097 30.76318308502203180410 6.16708038951992598697
Si 16.87872042548193718403 38.45845523692659639892 7.82303646193706914147
O  15.46977615652737014784 39.09359902902706807026 8.41001439159670383106
O  18.13480302762146578743 39.36032777747448108130 8.41005555082705846814
O  17.03255431980313616691 36.91943977590229053476 8.41303947357154946474
O  16.87874623750191105387 38.46045460716791097866 6.16703646110837677696
O  20.79783426544702606975 29.86305524011215339897 8.41010006441943858135
O  20.79833212034976241966 34.74505628546005198132 8.41009857248970504884
H  4.07465742975279177074 24.98677204005858598634 8.03659115502250998020
H  1.41040896852565289521 29.60201496898658746204 8.03674925629424130591
H  1.41040900872527608101 35.00798498336273922860 8.03674926218302232428
H  4.07465743654192991130 39.62322799904976022844 8.03659115782709854159
H  8.94818081915326857256 22.17325465511772009108 8.03830167187962807418
H  8.94818086911893573188 42.43674527243654637232 8.03830170019369028012
H  14.27776169756839586000 22.17320385294589613068 8.03828218835151631083
H  14.27776168971545622810 42.43679604059910559499 8.03828221253609598307
H  18.96055658449287406597 24.87622777396483542134 8.03640577887075835406
H  18.96055653630226700557 39.73377222432458921730 8.03640577903971653484
H  21.62471723337810303178 29.49141993062046651630 8.03658340345649335745
H  21.62471723421636937701 35.11858007460798347665 8.03658341097848882839
H  13.43954240468211835946 34.27033906214615655017 5.76911863115632250754
H  10.79702478963426770520 34.91824967851037087030 5.76839602532099604559
H  8.90770700018894068251 32.96594594757600305002 5.76499476370845620465
H  9.65945433353227400630 30.34299409635821120901 5.76888005045811969040
H  12.30259136137824071966 29.68912269796809511035 5.76803922549658842911
H  14.18560353582041067000 31.64418152047588961295 5.76552258405271000896
H  13.46208429497058212121 39.53603767501459032019 5.76468154515570052610
H  10.78553468084108857283 38.90473307032320349208 5.77122839054537806192
H  8.14831461454230066010 39.50994490912867007637 5.76699954837770967231
H  6.23317386101212900229 37.58286576183725458122 5.76180503480818551054
H  5.45415703581109934106 34.93908510959761315462 5.77152546222163920220
H  3.60566386963204354998 32.96814933325800467401 5.76410508870607607435
H  4.32812544116985620235 30.34544671482325739476 5.76331957714641340829
H  6.21212642328552089310 28.34933201804060942663 5.76816829149557364076
H  7.00946743459836874024 25.75759722016674047040 5.76754704191963885052
H  9.64012207402964627079 25.06582757285370277600 5.76488469479969900533
H  12.31500792541169708727 25.70853944654287204230 5.77192568461487276466
H  14.95343799046469790426 25.09203406461783458781 5.76610003217214384108
H  16.85241664019819651799 27.02653749657253712257 5.76116217516963757816
H  17.64630213759533461371 29.66655897918031570271 5.77122747458745877225
H  19.48194553898298053696 31.64158903624135632526 5.76482831223310654423
H  18.77355784086810430722 34.27390176127149601371 5.76498788606417100766
H  16.88031298525901036101 36.26100719781132397657 5.76894103315537076782
H  16.09309773448929803408 38.86024084114609422613 5.76722976402536957607
O  14.02434259652791403994 35.16805641607406585081 11.26352600183789220978
P  12.86812617291964500055 34.39338809413793995873 11.86642780174226352585
C  11.82651772209195151220 36.55520540455713529582 11.27224273971765988733
H  12.18283775197590479422 36.50080962335907486249 10.22985962885043775827
H  12.65101852734076537388 36.92356444916018176627 11.91125151207860000113
O  11.52246560392702967590 35.25181128806944741427 11.66399661996960723798
C  10.59104943671248477699 37.43925586764336799206 11.40925328504877711566
H  10.82494990408962465267 38.48857460836480726130 11.17230097048716785935
O  9.54946689861906783392 37.04413384774655071396 10.50664773495255843727
C  10.01214252801974069484 37.33917958216733268273 12.84608615578491708220
H  10.26603953672614721881 36.34950037285040025381 13.26910732584957486324
O  10.51847775047784239177 38.34085994549772635764 13.69643101072161606169
C  8.48577234476594988166 37.46113359355252470095 12.63045860941004150391
H  7.90789180484920706249 36.89567124106272899553 13.37904746813157075280
O  8.08658158305000185351 38.81290433474456591512 12.70198226265306473692
H  8.88846234650201694194 39.38147322146529916154 12.68376297521806961299
C  8.31303925137923194200 36.86589052271941113759 11.21638362402889121938
H  7.53854993638057813143 37.40095619407354377017 10.64635973858300843631
N  4.46073389423272104182 33.40363281609793943971 11.21067647346479034809
C  4.49347584429457658217 34.70416283666726542378 11.51325515852007264073
H  3.52236577123732885752 35.14679545925142889473 11.68602554207661725627
N  5.49816505003419386810 35.53651058822975983276 11.60174766839457127787
C  6.67322661809779393849 34.94329009630558147137 11.36680457219759965426
C  6.80230617983360819068 33.58607904579393022004 11.06990949546212732457
C  5.62120629330405296997 32.82367270330719577487 10.94267389602873308263
N  5.64445802351879954983 31.54531163868297483077 10.42444178272333310531
H  4.76898246253872759581 31.23414839828337363770 10.00621487947046261979
H  6.41794955049985471618 31.22057309358222099149 9.84903680206432063926
N  8.11319288100507840511 33.27208452935058602407 10.87267839439226690956
C  8.79012558797312593128 34.37816506159971652323 11.01989759479724639846
H  9.86906081616454855521 34.44284188136575863837 10.94232469172253985334
N  7.95816704309171463194 35.44564005607408319065 11.29826685811782738256
O  13.09242301149460629972 34.34883466817423425255 13.45037167596756333410
H  13.00603309593595113824 35.26324121667871480668 13.78909578422638304573
O  12.72082992881012941666 33.03781771190504912283 11.21928695292929845095
P  11.44297191872193764084 37.64177536921783229218 14.81502650965682832407
C  9.35701624187343483641 37.10825263102421445183 15.98382269547724732206
H  9.00355746741097284769 37.90059826709565271585 15.30252329887375495332
H  9.70145406007310384666 37.58509737900584468662 16.91781240729514834698
O  10.46724224366527700170 36.49322947631611668839 15.39626275557264101224
C  8.24115711187505617374 36.10054349749471214182 16.25140312557641308899
H  7.36141006712505507892 36.60836610385951672697 16.67171135412345961413
O  7.80115867186608191730 35.47461186791558418463 15.03063907163036816428
C  8.67890944959662213876 34.98990869339208131805 17.23705442862374326296
H  9.77480344287607749720 34.89146993882454950153 17.22568085759446177008
O  8.26015227713437028001 35.27342161206674830964 18.56213767870364605983
H  7.87146796530495063138 34.45707389422305766402 18.95276336929148186528
C  7.97809929248777471855 33.72825717286588087518 16.68713170124155098506
H  8.59027731316264819839 32.82434849194461889965 16.81590015364275458865
O  6.75324433224791853547 33.51359196164136733387 17.34769729153764927787
H  6.17981660374148322745 34.29531266699694924682 17.20304278258047858685
C  7.78008400316591863799 34.04496334690043823912 15.18852666299008369322
H  6.79177676938362573367 33.70304155260784284565 14.85635113785657424046
N  8.70747104225831236590 30.26278320693812062814 11.77084703026321754749
C  7.66417520982920397188 30.52710962337677358391 12.56171893265600658651
H  6.80588523130205658163 29.89005402715517334400 12.39523701574326963737
N  7.49581992817681630470 31.44801247730578452888 13.47589195084517399437
C  8.57493046079579990248 32.22494066812704716085 13.62557674651952233091
C  9.75250506120721460945 32.04620211058558965078 12.89953131497371252578
C  9.77961394906957792728 31.02473456688288422356 11.92515842437084927496
N  10.86506008488919938770 30.90548190212133050636 11.08826779989083632927
H  10.72093129147392076561 30.48374647021023164939 10.17503793250254773284
H  11.56385283064368429962 31.64568130350172836529 11.07991262714818248014
N  10.64077423809401778954 33.04039231775536222813 13.19101247389946962585
C  10.06048099127524508845 33.81333157790054144698 14.06857991633487259264
H  10.50712543116904384988 34.70550167537756891534 14.48141249961342147401
N  8.78693891264974702437 33.37232111202295925523 14.36439351920409457364
O  11.76986959147936318004 38.60089975661811223517 15.94311468982868262856
O  12.64977704782927503402 37.01424919006918656805 14.15405255102276171897
