160
10 Eopt=-403.5936840553 (Eh) Einter=-5.329070 (kcal/mol)
Si 3.55625019375638817820 33.84481352225905936848 7.82283052455275917936
Si 3.55593638962813773929 30.76681374930817725044 7.82283149693212553899
O  2.14730563687335163081 34.47995712129280576619 8.40980825133395981652
O  2.14686232012470057384 30.13195801667481532604 8.40980965991773743440
O  3.71008409885890610980 32.30579811982327242958 8.41283350784172689885
O  3.55527628889347635521 33.84681297585895975999 6.16683050708911295601
O  3.55496202396125493550 30.76481349791669472893 6.16683148085410337558
Si 6.21946584981825445482 26.15154206279543913638 7.82287394131216906601
Si 8.88330921826447905687 24.61427032114282198449 7.82291554091289764727
O  4.81039181937300153180 25.51668623349173614656 8.40985212624251232683
O  7.47536479497394168447 25.24941401416903730137 8.40989357813152516030
O  9.03814384310863694338 23.07525464059511932646 8.41291806247158113763
O  6.21949137491129011579 26.14954191241242043020 6.16687394254092779988
O  8.88333532848309381791 24.61627018310060677209 6.16691554199701741368
Si 6.21977960536308938089 29.22954198639678224936 7.82287340635546968315
Si 6.22040692610944212504 35.38154178800472493549 7.82287165181830967953
Si 8.88425019883194266868 33.84427012580012927856 7.82291378255491753890
Si 8.88393628105413846185 30.76627030885624236589 7.82291459686556667208
O  4.81083522055367485137 29.86468585844456669065 8.40985130341619857575
O  4.81133299313257456475 34.74668571266460048719 8.40984984589505479846
O  7.47630573747521864902 34.47941393681036004182 8.40989160070936847546
O  7.47586238406805136947 30.13141404129274647516 8.40989279678485601721
O  6.37361355221714376285 27.69052643054087781138 8.41287612213582747245
O  9.03908397407818497982 32.30525462360676414164 8.41291665214803607853
O  6.21980561998700220983 29.23154162521507615224 6.16687340471719291912
O  6.22043261138776149011 35.37954121080004910027 6.16687165171015649889
O  8.88427616166893230343 33.84626971213972268515 6.16691376130327828520
O  8.88396189426432592029 30.76426993250123231860 6.16691461323737932787
Si 6.22072074867795699049 38.45954160496638962741 7.82287044044751755933
Si 8.88487750069595705327 39.99627009823923629028 7.82291135385241709344
O  4.81177610571072555956 39.09468497610455273161 8.40984815250740069814
O  7.47680356739724949477 39.36141385661028380127 8.40988966446724894865
O  6.37455463132456578990 36.92052622805809392048 8.41287352581748315572
O  9.04002569426143764986 41.53525449277361758504 8.41291308139622273643
O  6.22074678688271642812 38.46154080484815551699 6.16687043973575210742
O  8.88490322529627185588 39.99426934434989533429 6.16691135405206747322
Si 11.54846575738221758911 26.15099867922933185582 7.82295698179267873229
Si 14.21330911524651341438 24.61372707283383221011 7.82299879685681887054
O  10.13939192909506026297 25.51614235769599403625 8.40993508489728291977
O  12.80436466455641664197 25.24887074044399426498 8.40997670738106783972
O  14.36714371848512072916 23.07471152269455672013 8.41300136403808451746
O  11.54849138148435372386 26.14899848644244073625 6.16695698270263825691
O  14.21233531244227066281 24.61572701468696067195 6.16699878115128896638
Si 11.54877946192856263963 29.22899861433475976469 7.82295650158021960152
Si 11.54940656417204536410 35.38099789768367031684 7.82295475320821953602
Si 14.21424974713977995577 33.84372656391594347269 7.82299674754207252647
Si 14.21393601959099584064 30.76572695809356261520 7.82299768710582377196
O  10.13983509491432677407 29.86414239590241237465 8.40993442209486730121
O  10.14033280385777224808 34.74614260695668832568 8.40993302214135418637
O  12.80530586978490426020 34.47887120924607984307 8.40997477884260469239
O  12.80486220003495567710 30.13087072183411052606 8.40997590880367340560
O  11.70261341550782319132 27.68998304547069722048 8.41295918424326671925
O  14.36808382037384035357 32.30471139510486722202 8.41299966317873604282
O  11.54880548664279693583 29.23099828742539330051 6.16695650586317789532
O  11.54943240117866132266 35.37899808371830090437 6.16695479414170577570
O  14.21327590694555809137 33.84572649515220632566 6.16699678855867361449
O  14.21296159020611327151 30.76372664637730380832 6.16699767064186055165
Si 11.54972064952164423346 38.45899842382279132380 7.82295359780076804412
Si 14.21487735548351061254 39.99572666947689469907 7.82299441725790956070
O  10.14077629694221194256 39.09414230598193995547 8.40993137799196155413
O  12.80580347224470294520 39.36087061468238346151 8.40997276865130949375
O  11.70355456734904642246 36.91998304597203173216 8.41295666130542940664
O  14.36902552378536057631 41.53471116434374721393 8.41299609800576142504
O  11.54974665233144470733 38.46099771110911547112 6.16695359203545478977
O  14.21390301437565639731 39.99372599919295367954 6.16699440316204139378
Si 16.87746539907198695118 26.15045546537715637214 7.82304011498551421511
O  15.46839169466661623176 25.51559922192772233984 8.41001837196439439026
O  18.13336401813834086738 25.24832717947946747472 8.41005977551559347205
O  16.87749085155297379401 26.14845510349182688969 6.16704011561061360425
Si 16.87777918090220907743 29.22845538007150167914 7.82303948021271633451
Si 16.87840650522869623273 35.38045526253652184323 7.82303765331170186670
Si 19.54224959852606247068 33.84318370362233707738 7.82307943937610161811
Si 19.54193573075868783917 30.76518362534354977811 7.82308037197482342151
O  15.46883485552654136086 29.86359915210780968664 8.41001744577210352816
O  15.46933270582206176869 34.74559914642838265308 8.41001603795977636935
O  18.13430534045817665856 34.47832742024579744111 8.41005747828813099431
O  18.13386196592750820855 30.13032742078051740009 8.41005879015832924495
O  17.03161313558593903394 27.68943984335063390745 8.41304221842335842041
O  19.69708354086228041524 32.30416803827381500014 8.41308232673952005598
O  16.87780511014346984666 29.23045500239515703811 6.16703947991776324500
O  16.87843199388552406504 35.37845465870447725365 6.16703765300465001076
O  19.54227536093679162832 33.84518324310642611863 6.16707943900312383079
O  19.54196108729181347030 30.76318307834292298253 6.16708037283665433392
Si 16.87872042545146555881 38.45845522905908353550 7.82303646020263165894
O  15.46977615197196875840 39.09359903549057690952 8.41001439932030869784
O  18.13480302861098181211 39.36032777491306688944 8.41005555167669172079
O  17.03255432214348275011 36.91943977386725350698 8.41303947390526118966
O  16.87874623698149534334 38.46045460900229784329 6.16703645965160873743
O  20.79783428694305769113 29.86305523092522662409 8.41010005884165323664
O  20.79833211850170471280 34.74505628388757827452 8.41009857305793318005
H  4.07465742953278997618 24.98677204121190342789 8.03659115483666397495
H  1.41040896897254697251 29.60201496913904151143 8.03674925627274205908
H  1.41040900873480090638 35.00798498531005975565 8.03674926205949446967
H  4.07465743673858060703 39.62322797224554449258 8.03659115989790429069
H  8.94818084688310655395 22.17325470608687609797 8.03830168960527480237
H  8.94818087796988592686 42.43674530326865834695 8.03830168085366203456
H  14.27776169751250279205 22.17320385292484274942 8.03828218835321450797
H  14.27776172843040036753 42.43679616362811657382 8.03828219216616446374
H  18.96055658450001857318 24.87622777379889527083 8.03640577884796591945
H  18.96055653560073750441 39.73377222674626807475 8.03640577824202573254
H  21.62471722979802279951 29.49141993094642799633 8.03658340868640230781
H  21.62471723480075525003 35.11858007478794263534 8.03658341031789547060
H  13.43954239416114759820 34.27033904135324604567 5.76911863129590773980
H  10.79702475715488496633 34.91824968417859054171 5.76839603111642240663
H  8.90770700315713526152 32.96594596224742446111 5.76499475709742448259
H  9.65945432589776764587 30.34299409032866279290 5.76888005000137660261
H  12.30259136222338334221 29.68912269782612867175 5.76803922562584148181
H  14.18560353628915393642 31.64418151651563704263 5.76552258337372780517
H  13.46208429083281998828 39.53603768221564962460 5.76468154398446941400
H  10.78553467970002444076 38.90473306763204419667 5.77122838947956928735
H  8.14831461467053053127 39.50994490488904631320 5.76699955030277955359
H  6.23317386269776818608 37.58286575792388362061 5.76180503594521908894
H  5.45415702071226515812 34.93908511464152155668 5.77152547610487598462
H  3.60566386811787698008 32.96814933236640143832 5.76410508781562391789
H  4.32812544118574926699 30.34544671572899332546 5.76331957712018549955
H  6.21212642412086335497 28.34933201785285206142 5.76816829137313469289
H  7.00946743356166646066 25.75759721956599435089 5.76754704172366494674
H  9.64012207129467668665 25.06582757767188240905 5.76488469558845473273
H  12.31500792564112245486 25.70853944698255233448 5.77192568459476440523
H  14.95343799047826571780 25.09203406453604756621 5.76610003219322653223
H  16.85241664022446528293 27.02653749607499023000 5.76116217503663818889
H  17.64630213790059798384 29.66655897889706139381 5.77122747416438475199
H  19.48194552510890531494 31.64158903499280128813 5.76482831425775188450
H  18.77355784196835486455 34.27390176091468276809 5.76498788538685236205
H  16.88031298519260303692 36.26100719850216336226 5.76894103322870854811
H  16.09309773689739841984 38.86024083826569608391 5.76722976414553212265
P  8.64750486690373065812 30.96960141850945191777 12.20650363771751045761
O  11.34101169220997817888 28.97788626936739220241 10.73911980196145776745
O  10.94442025471367863076 26.92054465966956655620 13.33060569886652579896
O  12.68072196958225283936 28.72774002103334112235 13.95430420227335588379
O  8.91326429728211344639 30.09393173740991755949 10.79982459007501738313
O  14.31788439733893980588 30.60781353064601262304 12.86388810289096440442
O  9.93782631481858480527 31.59928272123596570964 12.62591315154213056360
O  7.87121475155166550053 30.13969562507545418839 13.15632455371455833415
O  7.70069287043041494911 32.11466069876556872487 11.52865388917884459374
N  12.53027523407959620272 30.87302511232472923552 11.48099105297521305147
N  13.95617424094632852416 32.66698456641377390497 12.01086451043054381671
N  13.48579772683323696469 34.78867818100078324051 11.30955084557979617443
C  10.56357419174843137455 28.20051332480602823694 12.87346761961268271079
C  11.68938492576872967277 29.22449253069969188346 13.08406747118075941216
C  10.32420991059164627757 28.19226571775386247509 11.34996797400387968935
C  12.25300220797191208533 29.45965951891641054772 11.66482747668344188696
C  8.93817738791688221056 28.71595093334067172464 10.92480289293949802243
C  11.66093876823906505535 31.68382175035978320921 10.86235328828219692809
C  13.65472780246658146552 31.37716843543485367718 12.16650373244593907884
C  11.92536319556564095024 33.02199908741387446298 10.78917745752009693661
C  13.13258277134351459381 33.46910219445216938539 11.35932307680472419520
H  9.65548718640982528427 28.51577990124118500148 13.39781894549862428789
H  11.26172506746087087492 30.16425023541009764472 13.45339681338621318218
H  10.43290463563659287161 27.15828296477196346359 10.99095351327093794680
H  13.22130827727348112433 28.93693364648213162127 11.55316266614328668538
H  8.19618581742583529604 28.39962266578881866508 11.66764595745089039269
H  8.68210921175050387433 28.29955570268057840622 9.94586053877764797448
H  11.79929115806857531368 27.05901526818676927633 13.77006173439569280958
H  13.45282499998144842834 29.31495739025393376664 13.80160860001331712965
H  10.81889365145166870263 31.21142903394746781487 10.38817786330264070216
H  11.24375472189887936736 33.70174554731259775053 10.31522505626977626036
H  13.04866187135659849616 35.33550802537724422336 10.58694454044460542264
H  14.46351613793184398560 34.96246482542136391203 11.47610305160704768923
H  8.18616893335626727435 32.43989663926511468617 10.77519792073016091649
