160
9 Eopt=-403.1334896896 (Eh) Einter=34.153037 (kcal/mol)
Si 3.55619755084294109082 33.84476443728369332575 7.82276357590191562252
Si 3.55590021777907416833 30.76676464212275874388 7.82284079860108416682
O  2.14725499763271976406 34.47991502387704798593 8.40973852803840848935
O  2.14683493708369432795 30.13191591024933302378 8.40984764394554673572
O  3.71004511005511083965 32.30576445525145601323 8.41280327299852537237
O  3.55520841072224147439 33.84672284829568411624 6.16676352192378196548
O  3.55491063257007677834 30.76472336582926914161 6.16684084262361142947
Si 6.21945436082519886867 26.15150720484881574635 7.82297308176468053631
Si 8.88330595040176618227 24.61424971651210569235 7.82302827284924173767
O  4.81038912305545185433 25.51665837074989084954 8.40997994577118213044
O  7.47536352353835997775 25.24940041083099728780 8.41000351747728558394
O  9.03815422652228583900 23.07524947501081413748 8.41306749427233668825
O  6.21946467125544621979 26.14946602956812427010 6.16697313186090134707
O  8.88331682535372024745 24.61620855295495857717 6.16702822416851148546
Si 6.21975164570511473983 29.22950713956164747742 7.82289629468722047534
Si 6.22034599153187262033 35.38150686672276634681 7.82274205525317167798
Si 8.88419748524269436984 33.84424954270562579950 7.82279781562168707865
Si 8.88390009639799238528 30.76624974887007013535 7.82287504666592603542
O  4.81080926653724638697 29.86465800616699439729 8.40987141653200609426
O  4.81128094171982567673 34.74665782307671690887 8.40974903866014322773
O  7.47625516785898724947 34.47940048082779185279 8.40977300969415608733
O  7.47583501026789676303 30.13140043081467922548 8.40988178341758008116
O  6.37359925474697242009 27.69050701025809857470 8.41293572192957306299
O  9.03904503141337478667 32.30524935036146416678 8.41283735343892224989
O  6.21976243093348823976 29.23146574686681731237 6.16689624806000580293
O  6.22035654299883944418 35.37946535852282181622 6.16674221348641893314
O  8.88420830008207218498 33.84620807349261895070 6.16679780361887264206
O  8.88391050908288981702 30.76420831474933237359 6.16687497809057560971
Si 6.22064341402225284838 38.45950676298564019362 7.82266469967616551173
Si 8.88479196014740679743 39.99624949680814012254 7.82264305175646956769
O  4.81170078890643271308 39.09465713925521868077 8.40963962965368949654
O  7.47672682162965074326 39.36140026992905660563 8.40965003146833112169
O  6.37449099586400347306 36.92050681603803496955 8.41270449425456234849
O  9.03993734313990593421 41.53524933997116619366 8.41260523501553691972
O  6.22065423102087411422 38.46146494090353940010 6.16666464462856112050
O  8.88480247336673301106 39.99420773016417030021 6.16664310222656286697
Si 11.54845428179550381742 26.15099232031183262848 7.82300714482960124485
Si 14.21330584395224505556 24.61373497291654643959 7.82306254511926635331
O  10.13938923239335920812 25.51614300623881348429 8.41001392949651638276
O  12.80436339484766961050 25.24888564110516497863 8.41003767276479585746
O  14.36715408922079184606 23.07473488339387657220 8.41310181909019938473
O  11.54846468049840702008 26.14895111179090392284 6.16700719732340374435
O  14.21231681186675288586 24.61569388553601100966 6.16706248845644200429
Si 11.54875146154961740308 29.22899236422887625508 7.82293054243330931996
Al 11.54934590267909655381 35.38099209025200764245 7.82277642211010793005
Si 14.21419736248869902795 33.84373465683792403524 7.82283189042496118759
Si 14.21390015381306071163 30.76573473373354516980 7.82290916397204405541
O  10.13980912884800567042 29.86414301988069297522 8.40990549364880912719
O  10.14028076677987399989 34.74614310855612586693 8.40978322843342951387
O  12.80525501420993528257 34.47888569796514701693 8.40980695921548360161
O  12.80483487074663351279 30.13088554585340261838 8.40991584705769135155
O  11.70259911362944471591 27.68999212612238025599 8.41296979230352448553
O  14.36804451526531067884 32.30473485351236462293 8.41287154934945924367
O  11.54876232507787214843 29.23095088789177253830 6.16693033544256685730
O  11.54935628645100109679 35.37895056031474183555 6.16677636814225316186
O  14.21320800562378039444 33.84569333193688578376 6.16683182743050828378
O  14.21291008372238096058 30.76369353685943153209 6.16690900593365576299
Si 11.54964334433374517630 38.45899207494092308934 7.82269886699258343299
Si 14.21479182907173388628 39.99573458078386778425 7.82267713073868087292
O  10.14070098867740732373 39.09414297498036461320 8.40967387904172092306
O  12.80572673666969762962 39.36088552606750567975 8.40968415699640914340
O  11.70349086242039504668 36.91999209713317497972 8.41273861305559123025
O  14.36893719484698905831 41.53473454358506700146 8.41263927945096767758
O  11.54965410712921070058 38.46095035048549704015 6.16669881860285240549
O  14.21380227370282156585 39.99369288660697918658 6.16667717669998172170
Si 16.87745391139914374889 26.15047761136121806658 7.82304130523713325829
O  15.46838899866249228410 25.51562837342051182077 8.41004824210547496932
O  18.13336275172235545483 25.24837058596452976644 8.41007177029382191336
O  16.87746415383468701066 26.14843622874249362553 6.16704135770241368419
Si 16.87775122547373030102 29.22847750487053986035 7.82296443428732946046
Si 16.87834563912374008510 35.38047744115447557078 7.82281019438437930091
Si 19.54219697499282659692 33.84322009320245427944 7.82286558328279468810
Si 19.54189956378530368397 30.76522001600626765594 7.82294276227192497686
O  15.46880884631893771086 29.86362838925674267898 8.40993955991887531809
O  15.46928066627554443357 34.74562824133874983090 8.40981723911131062721
O  18.13425471328774918334 34.47837082980266387722 8.40984083230092771544
O  18.13383459168117894933 30.13037081930891147863 8.40994984582905402704
O  17.03159884540467317038 27.68947742464744976587 8.41300386679419531788
O  19.69704457407206277253 32.30421987586066734366 8.41290516781493202814
O  16.87776192793036145190 29.23043612931232715368 6.16696437239481287662
O  16.87835593807540135458 35.37843578615549944288 6.16681025239620428380
O  19.54220750753192348270 33.84517861357721812965 6.16686553295236095096
O  19.54190971151248490401 30.76317845160513897440 6.16694281254919207669
Si 16.87864312548056489049 38.45847737691496348589 7.82273276714637422202
O  15.46970084688808810824 39.09362819107509778860 8.40970792157598800998
O  18.13472631147742930580 39.36037116606078001269 8.40971797601129900102
O  17.03249066842761294538 36.91947736308136285288 8.41277248565713975381
O  16.87865370825805655386 38.46043573881758703692 6.16673271705203696058
O  20.79780833979501153408 29.86311288159094345929 8.40997325045173127478
O  20.79828007393124522650 34.74511392427450573450 8.40985083171908698318
H  4.07465742939274644385 24.98677204230224901949 8.03659115480793495578
H  1.41040896866993570313 29.60201497009048665632 8.03674925607174195363
H  1.41040900820302539387 35.00798498369805855646 8.03674926139082046461
H  4.07465743632973165234 39.62322796944476976932 8.03659115910417476414
H  8.94818084765368304545 22.17325470646720475543 8.03830168954474011400
H  8.94818087907504988721 42.43674530192581073607 8.03830168079522167091
H  14.27776169689075480562 22.17320385290069140183 8.03828218903743696444
H  14.27776172955745259685 42.43679616054563297212 8.03828219186768677673
H  18.96055658463154713900 24.87622777375931448773 8.03640577901647112924
H  18.96055653317997879981 39.73377222829034138840 8.03640577829906099794
H  21.62471722943364227376 29.49141993071503975443 8.03658340877017707271
H  21.62471723327370654033 35.11858007570397433028 8.03658341029266232169
H  13.39922795128758181704 34.28531246512926600190 5.85463176936445073295
H  10.85603170243275528151 34.89218233251527578886 5.71721595563637752235
H  8.79316678518898697803 32.97374190786793235475 5.76219940866330215812
H  9.66357961882074256721 30.35160700232043495816 5.76895567868720426929
H  12.30629749225697189274 29.68608884182028617715 5.77123881020779361251
H  14.17430150371546915267 31.65300278520279775307 5.78286317458279164327
H  13.45700859326942477878 39.52750482994381542312 5.78093078824525274939
H  10.82185198456148000901 38.95872177432990923762 5.76976940765086787621
H  8.14980839594274009130 39.50861002864533588763 5.76627385348963983347
H  6.23194667519363587616 37.58116491801049363630 5.76471310494079247633
H  5.44704955893490438967 34.95093754730079638193 5.77257541342049940170
H  3.60664936321584495005 32.96826993015412199384 5.76388710721446173579
H  4.32819223183854884240 30.34484056076442826111 5.76402041665185294050
H  6.20754699166641987773 28.34935900022068366866 5.76818373935052353119
H  7.00943285665973370158 25.75772182331373372222 5.76748914508580678984
H  9.64047060851745207799 25.06526887674167269893 5.76511829260409580655
H  12.31477063332350851965 25.70825778381905024617 5.77188275843295173217
H  14.95393929829228873984 25.09100721792600197091 5.76597661933456517858
H  16.85170393370522035070 27.02666099171065638984 5.76146800044224516313
H  17.64768340247988831493 29.66420704679939390758 5.77142433744211125202
H  19.48180900456276987143 31.64168672075921406872 5.76490010352296522456
H  18.77140968717742808280 34.27358367963095275854 5.76790924676956073824
H  16.89481965392441509266 36.26079389471910729981 5.76914703463575051501
H  16.09152696995548126324 38.86028470171589077609 5.76951241510109191779
P  7.08526308074809474391 31.44487031022783085632 11.10269239587304923589
O  11.12047574510865821651 32.01405175226755517315 10.42557261022243864090
O  13.26047876724907048640 30.44722895794117079049 11.82968104439095213820
O  13.20946051510822982777 32.91897154013808091122 13.09577919757393971167
O  8.58762665321795104489 30.79510807700562224909 10.69979448198249194490
O  12.34356272826418532418 35.36024302888107939680 12.39726757449328431449
O  6.52172640684760374086 32.17998300806598166446 9.94966172898551981518
O  7.21447487780906993038 32.03838816190794602790 12.46129575906300424037
O  6.23625198513997247574 30.02497942498252214705 11.25385481919723140720
N  10.69325302748700856625 34.15177641590142343375 11.39008940884228060497
N  10.53019597650578909054 36.48128907397049403016 11.64512847451245569630
N  8.67264376792826219287 37.59536959755865836996 10.88569147034365869331
C  12.01978974193935556514 30.91631896536281587373 12.28164776470734764757
C  12.00611550605992583485 32.42865543930613370094 12.58976345445591249472
C  10.94024289515474457346 30.83035806607830053849 11.18711891652692536070
C  11.62346235613121692154 33.04157784115304963279 11.21776378774352522782
C  9.50958821845261326189 30.66391880443646300591 11.72901490384354872276
C  9.39580391708212658841 34.06786090962730639831 11.06064093583522200959
C  11.24533893496915304411 35.37553240268775311961 11.83732557435687304803
C  8.61510188163656209781 35.18280998131616854607 11.05223527757067536470
C  9.29758863244613031895 36.41188406741262895139 11.18091308200172306897
H  11.77876081437806021768 30.31829017980133045285 13.16349949226001037061
H  11.18378455295401252556 32.62571600302280927508 13.30075806463538867774
H  11.14246377275866528578 30.00307554590952818785 10.50348165481637252583
H  12.50777834435189284079 33.47113587028156445058 10.72056903233701774525
H  9.27989857044173938050 31.40507995455016398978 12.50623231007985758367
H  9.43304132349114787814 29.66083467072080637195 12.18126637181480731442
H  13.47287026130107889799 30.91008119152513700101 11.00877463764613750641
H  13.16097100420289223166 33.89247208731728022713 12.92930314844990391521
H  9.00325645145854736029 33.10988706576834772477 10.76403594105275018933
H  7.57707103584033170307 35.11089757355979656950 10.78891167681281437751
H  7.89288425158128781334 37.49707656480207162986 10.25218598319548490849
H  9.32183606600968062139 38.32298532690852255200 10.62225263904229421996
H  5.91724452658615085454 29.88712626333165900405 10.36737381094065924003
