126
Coordinates from ORCA-job flower_ring_al_geom E -11887.268152661754
  Si          3.55647188418709     33.84622607728329      7.80681662210821
  Si          3.55611304717749     30.76822607978451      7.80602629807693
  O           2.14750485121797     34.48123966842108      8.39388107136770
  O           2.14699800232582     30.13323947329875      8.39276465576058
  O           3.71025115148016     32.30705663637185      8.39643217290561
  O           3.55558804206700     33.84865143145532      6.15081712437875
  O           3.55522875459660     30.76665132970054      6.15002577326156
  Si          6.21957499116967     26.15291569971716      7.80502790681098
  Si          8.88339582620275     24.61560521534207      7.80481987593888
  O           4.81045984769093     25.51792922414403      8.39176617458235
  O           7.47542871861490     25.25061862121758      8.39188426332382
  O           9.03817494081649     23.07643567697792      8.39443557801668
  O           6.21969077764922     26.15134086428801      6.14902745195389
  O           8.88351207095209     24.61803036036693      6.14882044805288
  Si          6.21993389844060     29.23091558854638      7.80581815970498
  Si          6.22065106939888     35.38291548267595      7.80739773004328
  Si          8.88447193637285     33.84560486081465      7.80718956961481
  Si          8.88411310777434     30.76760493078926      7.80639928699766
  O           4.81096681135788     29.86592911979220      8.39288252447581
  O           4.81153594746123     34.74792902070600      8.39413604294041
  O           7.47650483359636     34.48061832633979      8.39425399131420
  O           7.47599795132144     30.13261841375608      8.39313764106695
  O           6.37371311568477     27.69174621304161      8.39543380262191
  O           9.03925117790505     32.30643534432314      8.39680524463770
  O           6.22005011936060     29.23334072396535      6.14981873180323
  O           6.22076675514641     35.38134070509491      6.15139727512415
  O           8.88458820403293     33.84803004382944      6.15119014178606
  O           8.88422889050207     30.76603007541092      6.15039883215928
  Si          6.22100995786408     38.46091546455119      7.80818813012763
  Si          8.88518918041526     39.99760472301530      7.80876900975248
  O           4.81204298897944     39.09592916358569      8.39525267535632
  O           7.47707407513284     39.36261824785499      8.39550751926938
  O           6.37478922290314     36.92174601425288      8.39780366620761
  O           9.04032744136030     41.53643515365695      8.39917492052598
  O           6.22112604375451     38.46334068733157      6.15218870234437
  O           8.88530481507791     39.99602984086833      6.15276855492923
  Si         11.54857513364747     26.15229434639731      7.80540112597184
  Si         14.21339605419198     24.61498367474346      7.80519330781344
  O          10.13945992169194     25.51730799662425      8.39213937766819
  O          12.80442889075257     25.24999726319215      8.39225752933353
  O          14.36717523459676     23.07581430107609      8.39480905811170
  O          11.54869094624546     26.15071947579679      6.14940067115002
  O          14.21251239452329     24.61740883951189      6.14919380970920
  Si         11.54893396420093     29.23029425403720      7.80619132679700
  Al         11.54965106910547     35.38229406095023      7.80777083595541
  Si         14.21447182983305     33.84498345532492      7.80756280274522
  Si         14.21411313615284     30.76698353372229      7.80677255083231
  O          10.13996684987238     29.86530782417993      8.39325564300708
  O          10.14053593734808     34.74730767273802      8.39450911594458
  O          12.80550477582440     34.47999696431812      8.39462719876555
  O          12.80499798247110     30.13199711601849      8.39351082509026
  O          11.70271320490283     27.69112488079112      8.39580699609945
  O          14.36825114487142     32.30581406954704      8.39717840707798
  O          11.54905023156063     29.23271937068283      6.15019189887102
  O          11.54976684391903     35.38071919541584      6.15177038112615
  O          14.21358804366993     33.84740874026711      6.15156330488450
  O          14.21322893052739     30.76540876567320      6.15077202598757
  Si         11.55000996209533     38.46029390316772      7.80856095573125
  Si         14.21518905401851     39.99698329731078      7.80914204475186
  O          10.14104291772305     39.09530758134667      8.39562528741492
  O          12.80607394652958     39.36199685232343      8.39588037162149
  O          11.70378919489804     36.92112457416992      8.39817669526911
  O          14.36932696195634     41.53581389672501      8.39954779886238
  O          11.55012619519219     38.46271892874882      6.15256152766953
  O          14.21430483884609     39.99540843480695      6.15314152000207
  Si         16.87757528476149     26.15167316794062      7.80577461265612
  O          15.46846006151815     25.51668671150027      8.39251276926255
  O          18.13342905118163     25.24937621061497      8.39263112776208
  O          16.87769124037113     26.15009825115420      6.14977415788825
  Si         16.87793410874407     29.22967309520149      7.80656469272976
  Si         16.87865100719489     35.38167296557286      7.80814400316219
  Si         19.54247191560803     33.84436257723893      7.80793619203539
  Si         19.54211330153985     30.76636266870399      7.80714610319075
  O          15.46896692174204     29.86468662755993      8.39362888617933
  O          15.46953584925277     34.74668646976272      8.39488223787632
  O          18.13450474464207     34.47937595756312      8.39500045491882
  O          18.13399807127055     30.13137605311002      8.39388426318609
  O          17.03171330754641     27.69050373887043      8.39618043094725
  O          19.69725119859701     32.30519311987357      8.39755198937572
  O          16.87805050178144     29.23209813751008      6.15056526470377
  O          16.87876685502193     35.38009809004969      6.15214354834754
  O          19.54258832664083     33.84678765921455      6.15193676406874
  O          19.54222933413928     30.76478774936827      6.15114564843069
  Si         16.87900995032340     38.45967286987794      7.80893410716934
  O          15.47004282023041     39.09468640348067      8.39599838964744
  O          18.13507400585737     39.36137575264403      8.39625356572443
  O          17.03278913351258     36.92050351371584      8.39854984422573
  O          16.87912621688012     38.46209790692591      6.15293467912676
  O          20.79796713055357     29.86406583557798      8.39400271212115
  O          20.79853580259413     34.74606556140627      8.39525579037310
  H           4.07465744590022     24.98677213698289      8.03659116057162
  H           1.41040898583972     29.60201508189542      8.03674925782310
  H           1.41040901314093     35.00798492444568      8.03674926640010
  H           4.07465743586202     39.62322785828005      8.03659114920664
  H           8.94818096533139     22.17325475135392      8.03830168362497
  H           8.94818094042441     42.43674525354000      8.03830168120842
  H          14.27776179785895     22.17320391225497      8.03828218789116
  H          14.27776180213963     42.43679610668355      8.03828219437587
  H          18.96055647315759     24.87622774660571      8.03640578342482
  H          18.96055645680533     39.73377225709354      8.03640578259212
  H          21.62471711861145     29.49141985949433      8.03658340199837
  H          21.62471714492832     35.11858011136984      8.03658341088278
  H          13.40173677216065     34.31934820162529      5.86934756616770
  H          10.79221649397346     35.00282026260975      5.70613531175342
  H           8.80720969500871     32.96937723330850      5.76434934436138
  H           9.65767647524187     30.32239478653276      5.77820640776821
  H          12.33044968315159     29.67820460254148      5.79007061637759
  H          14.21256552837562     31.67685381732050      5.81148539375967
  H          13.43630715659660     39.52597131805907      5.80890351400552
  H          10.75655618072737     38.85217505882341      5.76889669341124
  H           8.10950225114415     39.55420246343823      5.78250726803728
  H           6.25689025941451     37.56728397856997      5.78658805050782
  H           5.47010292192186     34.90743363171042      5.77270973538362
  H           3.51872639477006     32.95953831347452      5.77343460275305
  H           4.33882145313966     30.33729297451019      5.77777651589268
  H           6.27031723081166     28.34776288943270      5.76777340434774
  H           6.98027058743755     25.68504272200354      5.77508064777568
  H           9.66054620451318     25.06093880247579      5.77788812300034
  H          12.34702048410578     25.75741801050884      5.77234191660303
  H          15.00418588306646     25.03084278422079      5.77674613968333
  H          16.88170356012384     27.04489404683642      5.77891599213601
  H          17.61336257637528     29.73363414353663      5.77376960396050
  H          19.56035466636949     31.65968623053617      5.78172260688500
  H          18.76920728719189     34.30726628368048      5.79059801739148
  H          16.76755808862619     36.26238714236310      5.77466011707036
  H          16.10393227209822     38.91910398582989      5.79361582871210
