162
Coordinates from ORCA-job /data/Seafile/amp/frames/frame15/amp_frame15 E -13464.506724730056
  Si          3.50332066661254     33.90238059360952      7.78527907752638
  Si          3.46042366223096     30.79481139966917      7.79968171579736
  O           2.29197853028623     34.80371527132738      8.39339194901443
  O           2.18063139721345     30.02806848825167      8.45236171690380
  O           3.46165481628917     32.35284798168568      8.31694683219574
  O           3.51323136793284     33.89613824530925      6.14705916658362
  O           3.42230866971751     30.84947535617366      6.16403109982552
  Si          6.14304615136982     26.14254498414387      7.79312110455498
  Si          8.81623823925075     24.54529521273441      7.80329203816040
  O           4.78810042116766     25.51195133905185      8.43750482547317
  O           7.47932980917547     25.34849314238322      8.31423103731833
  O           8.75492120307485     23.04377192567413      8.43195947089045
  O           6.12300804127703     26.13342477894294      6.15555268673030
  O           8.78501890264240     24.55007189852434      6.16739036112050
  Si          6.12539613678936     29.23292022797879      7.67367680448287
  Si          6.16911901402416     35.45505250559400      7.68627074845092
  Si          8.90238080075335     33.87033420597147      7.62400518925132
  Si          8.87206724745394     30.79678824183577      7.59699467257014
  O           4.85039312559206     30.05882464279289      8.28015705805714
  O           4.89677865570972     34.62248252994969      8.28294855755574
  O           7.56063964285157     34.68271907603438      8.06267691448965
  O           7.49725409694512     30.04431552062572      8.03333186026084
  O           6.20958562789209     27.71582860259793      8.26994852694425
  O           8.83663590754947     32.33039378420417      8.17831993074147
  O           5.89743731048867     29.17007430140599      6.05457659107960
  O           6.01039690548049     35.59893146213305      6.06435777339581
  O           9.06541824625199     33.84532687823581      5.99644216705659
  O           8.98248377279679     30.92225255492727      5.96887023283516
  Si          6.19414914054131     38.54970283944281      7.78747656466841
  Si          8.91740249843947     40.06617604898668      7.80398077486856
  O           4.92328587990817     39.34448690544534      8.42637549581944
  O           7.55557562544702     39.30629404252404      8.30688017172065
  O           6.22820888711327     36.97887101634112      8.27755012144850
  O           9.03847914580756     41.55749462451216      8.44392756505136
  O           6.21658689360956     38.59108543756467      6.15204957921960
  O           8.94726567655121     40.08128659975720      6.16601052302649
  Si         11.50665245501738     26.06818944481828      7.71325009359884
  Si         14.18981347057846     24.53928796539463      7.79369192698527
  O          10.15916157353450     25.35596749790939      8.30806101841253
  O          12.86883444776281     25.38497182628732      8.29574801492010
  O          14.02248459074682     23.03897335411618      8.40145511262223
  O          11.45181212165771     25.88024901909663      6.09031987234655
  O          14.18281393154876     24.54942145648709      6.15588948293289
  Si         11.52896716425131     29.21946327317781      7.64352294572472
  Si         11.58195395644417     35.37472851817079      7.67205064911552
  Si         14.22037961012844     33.81432764358962      7.67763862422153
  Si         14.18772944131407     30.74187630376381      7.68977031746709
  O          10.17033215935957     29.97493737241534      8.15140179317524
  O          10.21374319668716     34.65626312259210      8.21220251101111
  O          12.92441624544948     34.63620313534571      8.25475959405629
  O          12.87156342177703     29.93561828888604      8.24820425114443
  O          11.45319729524152     27.65613387957265      8.11862580057704
  O          14.24539864266725     32.27886806180539      8.24239690894766
  O          11.54889946665817     29.32771740031124      6.01390020366923
  O          11.63985318150315     35.22546843370348      6.04225385203630
  O          14.09408113038768     33.70483538845143      6.04879191553541
  O          14.03534337581828     30.78710525836543      6.05801126678402
  Si         11.59696758395885     38.53035390108077      7.71836104892976
  Si         14.28443711405319     40.05956654289044      7.82027966279030
  O          10.23918170927154     39.22300141295414      8.30517057625809
  O          12.95100401371391     39.23122704761425      8.31144253130919
  O          11.61186406998161     36.94312682465999      8.10709620164678
  O          14.26366591950366     41.55805462505380      8.45765295741161
  O          11.65015979115820     38.73486214654723      6.09607604829005
  O          14.34815162381023     40.04986113594349      6.18428086929440
  Si         16.90328664998020     26.05885346335228      7.81029499395906
  O          15.55029404170306     25.28294973010977      8.32212751400620
  O          18.20193927436718     25.31859775978065      8.45616286281270
  O          16.87523532773097     26.01490277721452      6.17464366623960
  Si         16.91688158139109     29.15018044926633      7.71634574271089
  Si         16.96486845922683     35.38259332383873      7.71773749736523
  Si         19.63888544545260     33.81876684264126      7.77675228945740
  Si         19.58457217390476     30.70030960702218      7.80210985545606
  O          15.53275169342083     29.92296100405247      8.10389312406605
  O          15.60198360968526     34.56538113271855      8.09547011130697
  O          18.26973940866516     34.57278341830757      8.28320676603779
  O          18.19162349063970     29.98498633073686      8.31385898191011
  O          16.85458003751869     27.62625245571669      8.30612052503095
  O          19.60846470323935     32.26140831184986      8.30461158954132
  O          17.07936644345132     29.00921695559227      6.09533017529323
  O          17.15866801593386     35.44624564851488      6.09286126085382
  O          19.65130642747879     33.77939930072198      6.14253380183194
  O          19.57163322223583     30.66472264964812      6.16521873521922
  Si         16.95395572587268     38.46905335280611      7.80578901519130
  O          15.63334105115173     39.28115991779652      8.34008571702741
  O          18.34250170829596     39.07622833020639      8.40081867441359
  O          16.88725630985379     36.90403835448414      8.31036017737364
  O          16.93214742164342     38.45865762914302      6.16766409381554
  O          20.81690940211510     29.85241439901760      8.44054538736918
  O          20.97320353711135     34.50046609744840      8.41277037609865
  H           4.07465740938532     24.98677204151748      8.03659115645774
  H           1.41040896146539     29.60201497412366      8.03674926140809
  H           1.41040888989934     35.00798502766973      8.03674925171937
  H           4.07465742903953     39.62322797932742      8.03659116307779
  H           8.94818082743063     22.17325473434284      8.03830168941929
  H           8.94818087683553     42.43674531376836      8.03830168078846
  H          14.27776168740189     22.17320386627823      8.03828218797192
  H          14.27776172898878     42.43679616917250      8.03828219221998
  H          18.96055677935214     24.87622766725011      8.03640577864094
  H          18.96055653396738     39.73377222743959      8.03640577856399
  H          21.62471721582424     29.49141993407298      8.03658340859483
  H          21.62471723195368     35.11858006994238      8.03658341185880
  H          13.33265044039161     34.18069040896452      5.67964353092277
  H          10.85251665164977     34.81105781694782      5.65532235375021
  H           9.03733347277243     32.95696926585025      5.60797803663683
  H           9.72305742725716     30.43700804914489      5.57687926580814
  H          12.33282156620742     29.78023159938092      5.66196736332187
  H          14.04509657232535     31.68452096884768      5.68890357461011
  H          13.53453234719470     39.75564659108579      5.75062593292690
  H          10.83783846696731     39.08591296308173      5.70494776946369
  H           8.18550310810975     39.66355209410923      5.74224985413093
  H           6.09621791042585     37.73052140239044      5.72585970570310
  H           5.30737767955355     35.06050527389579      5.67449261774854
  H           3.50304078491035     33.01391485030488      5.74974322244577
  H           4.08669000741149     30.29621147096588      5.72871674499204
  H           6.01224093162925     28.29533598164266      5.65864924197394
  H           6.87089491760337     25.68007051349789      5.74357034710181
  H           9.58918021819192     24.89060266168130      5.74972132746008
  H          12.26246757451385     25.53699841484685      5.68944179109328
  H          14.94334681982166     24.99065661737646      5.75280122726689
  H          17.01877518541838     26.87061087017373      5.74592302156093
  H          17.78818929923595     29.54402589177950      5.71005525470258
  H          19.60428281006412     31.53024689695784      5.73597291247914
  H          18.94993880312192     34.30096311476579      5.72606595455840
  H          17.03690616369658     36.32195715422166      5.70057121138907
  H          16.16938917598067     38.90724915091402      5.77568065182061
  P           9.73934219210631     28.23872964753288     11.93219002185475
  O           8.59770185557733     28.60334287355708     12.81439295632108
  O          10.73664972126191     27.20804959557896     12.32795624246178
  O           9.07606419454724     27.87221410452753     10.50129937898609
  O          10.62362376106951     29.56158997292077     11.59122175790630
  C           9.98481110006324     30.75478781134906     11.18651641592818
  C           9.82743596836722     31.74339911547335     12.32579415984396
  O          11.05443081205970     31.96283760948974     13.03806521634672
  C           9.44554849324180     33.11256726125580     11.80248435866499
  O           8.77818312764613     33.91874904767000     12.75162709056767
  C          10.81709546864899     33.71608555279019     11.45580624126456
  O          10.82055314997520     35.11133130168261     11.49403685348715
  C          11.74485530629612     33.05560407577445     12.50084750551013
  N          13.01823609229336     32.59232667492994     11.96880092026142
  C          13.36315336648176     31.30649347085270     11.64527109402035
  N          14.61130961020193     31.18487980672316     11.27311648079390
  C          15.11882898110248     32.45915579620352     11.35677168370767
  C          16.38810160293411     32.99836193142833     11.09848889597664
  N          17.41841438512665     32.24680854794394     10.68541260541926
  N          16.57314544268666     34.31018989989791     11.30400208421262
  C          15.54580458344799     35.04720132118995     11.72518006587893
  N          14.30443315460560     34.66094540979015     11.98969710254342
  C          14.14437793452122     33.35040052552076     11.79119085957533
  H           9.73636501394842     27.60200676141521      9.85175892137105
  H          10.59308987657497     31.18377334487204     10.38744313357525
  H           8.99186052695221     30.55300890948693     10.77370993382387
  H           9.11100372576882     31.35927504429852     13.05337476491239
  H           8.79698410082562     33.05829416405685     10.92758636665461
  H           9.12863123968194     33.73721441589874     13.63203184803914
  H          11.12341920878144     33.40792447753717     10.45466549019674
  H          10.14403988501896     35.36607370816991     12.13909022735994
  H          11.98140936357609     33.77557167741345     13.28972549532373
  H          12.64979168678636     30.49903710368088     11.72245951338109
  H          17.24561031499638     31.31209549876203     10.35604324275760
  H          18.24682041475040     32.70816163689514     10.35038498526468
  H          15.75663471538367     36.10410219330032     11.86636741512350
