162
Coordinates from ORCA-job amp_frame15_dry E -13464.293994372045
  Si          3.54306191456341     33.96329588199193      7.84008387318932
  Si          3.43590558199308     30.87485975866187      7.87313318130306
  O           2.32548577417542     34.93020215801313      8.33662130389317
  O           2.03441984358683     30.23833311668534      8.41406975473920
  O           3.43777726004797     32.43190412958164      8.38800778317788
  O           3.63340164849944     33.89207845412247      6.19706592161546
  O           3.51110636092666     30.93058214002443      6.22948297556060
  Si          6.09220028721258     26.23252300087701      7.84307059064837
  Si          8.67026502354666     24.55366852723374      7.92007139202766
  O           4.57794429105252     25.77881647519219      8.26030611682502
  O           7.26427283083946     25.27201731359680      8.42829815693596
  O           8.49316918420107     22.97583887717781      8.33421976855850
  O           6.28165844887848     26.30514789959624      6.20827714470074
  O           8.74630122178248     24.78405764578324      6.29770150219019
  Si          6.07779679192916     29.29100475152713      7.81463365130648
  Si          6.17988541242780     35.54159062473148      7.80151505857623
  Si          8.91009784334445     33.92501162990557      7.79159921070048
  Si          8.83431040900831     30.87312797784145      7.77373732732802
  O           4.76796836318636     30.08985021720096      8.40081949528153
  O           4.90977866337675     34.69255328382773      8.36805162898215
  O           7.57542641793368     34.78872025006675      8.15357838945416
  O           7.42355914830148     30.14724646389862      8.14174850564363
  O           6.19713866081864     27.77850545609136      8.39438293270373
  O           8.79096075741365     32.40735620245644      8.37291420291405
  O           5.81211218316591     29.20683610814134      6.19229142765593
  O           5.99189966850145     35.71732347238520      6.17604885954407
  O           9.10330700167033     33.82963447219112      6.16185087471851
  O           9.00224928061753     31.03986704197762      6.14567532442242
  Si          6.23798072224704     38.61911473202366      7.85954667467385
  Si          8.97147504788750     40.06757307970990      7.86453170672689
  O           4.97028299899111     39.50228196930117      8.38333139151127
  O           7.57970929667818     39.39123171210656      8.38855838677389
  O           6.21087435595815     37.06959360798704      8.38441905148894
  O           9.19576732907734     41.58426606807399      8.41490388257765
  O           6.33807786793768     38.58302638527557      6.21694163758100
  O           8.95699006521420     40.00645828664085      6.21869187225146
  Si         11.44570444615179     26.05594400658030      8.29512738520258
  Si         14.24546946969266     24.51569617634091      7.87680872005523
  O           9.90914075984999     25.32618578860792      8.62530288710003
  O          12.98384073428933     25.37652412130709      8.34667638834726
  O          14.10880812766996     23.00371647194203      8.49644510509475
  O          11.22585881941538     25.59410702109375      6.62999668758206
  O          14.32643323137209     24.43889871070095      6.23307079583128
  Si         11.45127529964439     29.27478603455246      7.73407298846018
  Si         11.59789466825993     35.38866344479855      7.76416004061569
  Si         14.22069980819917     33.81773821537349      7.71439896187991
  Si         14.14698843455843     30.75364102987736      7.71871207682789
  O          10.11091100127317     30.04224444693675      8.32792437368860
  O          10.22715986680695     34.72041480719179      8.35585481988892
  O          12.95516201956417     34.66903592306366      8.31057423348939
  O          12.83609451231228     29.97991508688836      8.28340197610427
  O          11.38672162822541     27.71162292966514      7.97639537912534
  O          14.25271928121432     32.29364214228247      8.27628516891567
  O          11.38300759023686     29.64298236273214      6.11667505744933
  O          11.58245606291152     35.17764026783360      6.13351583090876
  O          14.01669683237338     33.71515419616396      6.08458909635655
  O          13.95926883386856     30.85379512397988      6.08394955592161
  Si         11.64778207107303     38.56264107181994      7.79953454627595
  Si         14.33841620032972     40.05804233379365      7.88495481738524
  O          10.27235289530138     39.22163445234320      8.37486492697329
  O          12.99276331235147     39.27609171531312      8.39351192707475
  O          11.66516253093492     36.97442689670284      8.12498612245868
  O          14.41895390413576     41.58057792136700      8.46381273381825
  O          11.70912829587148     38.84871617854663      6.17926765332804
  O          14.35369961825433     40.01053372570904      6.23975985050060
  Si         16.92707225271961     26.08476040137747      7.86499192699049
  O          15.66121075341101     25.21216191813611      8.37209301070388
  O          18.34386114712186     25.50038248254895      8.43972875124195
  O          16.87962917537500     26.06540076756439      6.21783222405450
  Si         16.89615655847669     29.15348953977571      7.76319242105635
  Si         17.00655852974187     35.37026383776695      7.76055513394194
  Si         19.65227167242567     33.78953426345969      7.85280073787245
  Si         19.56608591699861     30.68963927306578      7.85655921742368
  O          15.51957640928355     29.95552385176801      8.06102452762696
  O          15.63015940877537     34.56598067196900      8.02528926912857
  O          18.28347169793725     34.53900540723136      8.36820979993415
  O          18.16416607989365     30.01848980181142      8.35949263659800
  O          16.82636846700278     27.64731640817884      8.35678396924605
  O          19.65074221422734     32.24277954680569      8.37485797925504
  O          17.15233866114242     28.98314470440518      6.14638548451860
  O          17.33153143545188     35.47376898088753      6.14778210011155
  O          19.61614865892767     33.74868169048692      6.21095102656503
  O          19.55051906061538     30.72942055936925      6.21006262394281
  Si         16.97560736916607     38.44017447395396      7.84517571074969
  O          15.68578332982310     39.28333546851471      8.38713619959431
  O          18.40122140454651     39.02469459274992      8.37743964606011
  O          16.91441923805798     36.88869094234675      8.34359229638310
  O          16.90034767674334     38.43758171080051      6.19926006452395
  O          20.78998313086797     29.78232413567864      8.42784589765376
  O          21.00541269290617     34.48949134880919      8.43129320622378
  H           4.07465739948153     24.98677199497781      8.03659115820252
  H           1.41040897208656     29.60201498087734      8.03674926205871
  H           1.41040886685983     35.00798506548637      8.03674924997524
  H           4.07465743023879     39.62322797777139      8.03659116400088
  H           8.94818082731475     22.17325472462878      8.03830168706020
  H           8.94818087291773     42.43674531584456      8.03830168090120
  H          14.27776168344384     22.17320390845659      8.03828218904550
  H          14.27776172422216     42.43679611200287      8.03828219307913
  H          18.96055679605139     24.87622761283708      8.03640577732514
  H          18.96055656908219     39.73377231358615      8.03640577597336
  H          21.62471720949160     29.49141993912991      8.03658341008685
  H          21.62471722035347     35.11858005930637      8.03658341301247
  H          13.23284970500942     34.19959219327756      5.77706885572221
  H          10.76061559172641     34.75588291682691      5.82614978989704
  H           9.04898827868487     32.90564772862609      5.85035535849028
  H           9.79808957922173     30.55815731460467      5.83865582252013
  H          12.22226592660482     29.99762089755212      5.78321429296969
  H          14.02341939229393     31.76469800728907      5.75697231895817
  H          13.51498716200694     39.69056984276903      5.87070221787951
  H          10.86464182529567     39.12941581516287      5.80116999960596
  H           8.16118167379035     39.57804455777720      5.86910272738170
  H           6.19831493099807     37.69361640091831      5.85411507482861
  H           5.33329917445347     35.12050838654504      5.79403994575411
  H           3.61372497134264     32.98075107219330      5.86571817669544
  H           4.20917445271466     30.35377641846283      5.87565619629910
  H           6.01642161694463     28.33396980753822      5.82182367796012
  H           7.10120736485606     25.85679771613595      5.92848370433710
  H           9.66389154346738     25.11961120771933      6.11908385364566
  H          12.05417571405331     25.49635846588242      6.15550487889641
  H          15.07565578310569     24.92950146324342      5.87245649509660
  H          17.02946245645391     26.93952633039509      5.83021309209881
  H          17.83747250041964     29.56456716354857      5.79197532618339
  H          19.57712350278933     31.62918539443034      5.85499540936635
  H          18.91755172754819     34.31276062209531      5.84092845894481
  H          17.14665332544057     36.34246268820472      5.76675880626806
  H          16.12645209130689     38.90970543621098      5.85890893430742
  P          10.82284599869553     27.10377382951476     11.09931727014146
  O          11.01056183785149     26.70888228313235     12.49541131961807
  O          11.60225497814431     26.32949612540704     10.03119739556786
  O           9.28788312603286     27.11751528390724     10.65926837418353
  O          11.27637416636602     28.63188985304137     10.84146997083746
  C          10.51421412807606     29.70502039448109     11.33612207617716
  C          10.36030580676104     29.73750104888482     12.84702359357394
  O          11.59002576202312     29.72444688777898     13.57755331129822
  C           9.72675927592010     31.03730092164168     13.29370378599170
  O           9.13956109432873     30.91594402203044     14.57984342951389
  C          10.93768024905593     31.99817914764788     13.36161609700100
  O          10.79015315313718     32.94085554671913     14.37895816999528
  C          12.11532876358059     31.01845038466603     13.59514893039130
  N          13.18270472490288     31.10523086113938     12.60357304623948
  C          13.89572994572727     30.03453768258224     12.10937488286148
  N          14.95852288758504     30.38492938868818     11.43950658590919
  C          14.96464199409292     31.75678191192089     11.50610922109958
  C          15.85344172257353     32.72225693442903     11.01721523268681
  N          16.98483721009650     32.39227261088465     10.37245560972512
  N          15.57295171446975     34.01352695337388     11.22478042665558
  C          14.47278599763200     34.32189058550273     11.91400125757479
  N          13.57783923470896     33.50923908228557     12.45687797130972
  C          13.87081526140962     32.23051676201363     12.22134835618995
  H           9.16386249740882     26.49990121234069      9.91797226002636
  H          11.00721616390715     30.60995343576863     10.97427488352359
  H           9.50710237340523     29.67623389300142     10.90653740579791
  H           9.80765186662527     28.85660760133137     13.17725400743545
  H           8.94710336638081     31.40374919541479     12.62507157425863
  H           9.63046400697160     30.23556462099848     15.05430766209266
  H          11.07624723549936     32.52884801073093     12.41798479245283
  H          10.11952227704844     32.57011626335376     14.97081270673090
  H          12.55154749906961     31.20612548400105     14.58056793155633
  H          13.54838105463149     29.02535198453312     12.26602859954585
  H          17.12179222927201     31.44220596647403     10.07510939829617
  H          17.50351625623269     33.12253771276561      9.91777464216654
  H          14.29055015929141     35.38524954533566     12.04535691172760
