162
Coordinates from ORCA-job /data/Seafile/amp/frames/frame12/amp_frame12 E -13464.509740191348
  Si          3.50247444678461     33.90269123002215      7.78557794779246
  Si          3.46137102432462     30.79405755088279      7.80132224124938
  O           2.28942045130495     34.79858864984387      8.39675023894452
  O           2.17391694584814     30.03943091094239      8.45314735264600
  O           3.46978580209738     32.35321746571285      8.31598667225272
  O           3.51004365961501     33.90008604529093      6.14727096242047
  O           3.42674440077257     30.84463933755593      6.16587345626532
  Si          6.14624395466338     26.13565147264462      7.79296890106559
  Si          8.82637044136492     24.54508951557539      7.79230091776622
  O           4.80260862591146     25.48703274875175      8.44316826463410
  O           7.48949797340921     25.34890426957703      8.30425728129388
  O           8.76769219485098     23.04693690408345      8.43053443100001
  O           6.11601603499579     26.13727862770465      6.15553134332068
  O           8.78933578705290     24.53958709944113      6.15657813447398
  Si          6.12254462228270     29.22508302013578      7.68108265574876
  Si          6.16542476085163     35.45101149422155      7.66818376802021
  Si          8.89585018587538     33.85590717645142      7.56327007136700
  Si          8.87452237404691     30.77362939145839      7.59672782409192
  O           4.84685567668999     30.05137016295020      8.28598537802330
  O           4.89550948048230     34.62934784553196      8.27914691617331
  O           7.55774542798185     34.66965844295832      8.01037691905792
  O           7.49529818987113     30.03393580265954      8.04390295420699
  O           6.20780273701042     27.70745119291206      8.27714751403277
  O           8.83146099136424     32.32293816354904      8.12943618285318
  O           5.89515292580562     29.16332878256758      6.06198949129356
  O           5.97233358607459     35.62940913124329      6.05486943310756
  O           9.04174618004058     33.81926551594731      5.93515638961499
  O           9.00122304861970     30.84477406568430      5.96882490428839
  Si          6.19158201322500     38.54085181287931      7.79048979727564
  Si          8.90806488285333     40.06853173657260      7.79226631654461
  O           4.89215872812876     39.27621348055345      8.43946976668392
  O           7.54072822936232     39.32095562788504      8.30322558105426
  O           6.28251568571848     36.96664186118088      8.28750426584893
  O           9.04884732654607     41.55551052534416      8.43684712917086
  O           6.20656611691791     38.58060006833091      6.15683784723811
  O           8.92122533905022     40.09100729084844      6.15443787492683
  Si         11.51539155841153     26.07457210883659      7.70041983244013
  Si         14.19637777572006     24.53954687160210      7.79463811033929
  O          10.16730945313433     25.35950325338836      8.28947720628951
  O          12.87336163037309     25.38435098468865      8.28863247717860
  O          14.02839840668475     23.03945593045126      8.40411985339468
  O          11.46353305874817     25.87697327331432      6.07703135563127
  O          14.20160032819297     24.54645459395914      6.15670531755646
  Si         11.52406952936256     29.23129816398098      7.65022090420015
  Si         11.58071363521633     35.36941720575733      7.59936552945490
  Si         14.22820533669995     33.81718767029218      7.64936630260667
  Si         14.19129999655727     30.74705964046642      7.65604441522467
  O          10.16757145295011     29.97024526452383      8.20328094273582
  O          10.21188345371533     34.64788522288732      8.13121207268340
  O          12.91852238174480     34.63475462573669      8.19786629006805
  O          12.87333712047961     29.95580485709221      8.22710874555544
  O          11.48907468206049     27.66280640307664      8.08955922099462
  O          14.25752839559586     32.28202650055505      8.21798263408852
  O          11.50270167503727     29.37525061270934      6.01999094417757
  O          11.65521760940256     35.22228393077701      5.97101893712531
  O          14.13283838651829     33.70135513813646      6.01912862227431
  O          14.02907125200288     30.79056512715582      6.02669903964932
  Si         11.58298183032354     38.52769220363875      7.67651168271603
  Si         14.26840613488176     40.06178701385057      7.79878344343678
  O          10.22758495208309     39.21331005239051      8.27720725904053
  O          12.93945798981842     39.21869966692888      8.27515113777375
  O          11.60039386070902     36.93498998194188      8.04253493882504
  O          14.21026333249073     41.55513923163212      8.44610442160483
  O          11.62956297044541     38.75247287577504      6.05709264420919
  O          14.35052241642918     40.06101854912343      6.16353153399603
  Si         16.90472154424289     26.06230315561121      7.81250321886005
  O          15.55431995322735     25.28443157704126      8.32957242728284
  O          18.20710538800215     25.32649789186985      8.45712135214144
  O          16.87345990088179     26.01266029602589      6.17625968924217
  Si         16.91909149908345     29.15192485010600      7.70685064447885
  Si         16.96169758304338     35.39489141630625      7.70974579113610
  Si         19.62863474663810     33.83243454320639      7.79558264359158
  Si         19.59383374910787     30.71412461820172      7.78690212671982
  O          15.53277321462970     29.93124532238129      8.07803655053036
  O          15.59829524053513     34.57836426126925      8.09335441588215
  O          18.25355719647337     34.58381187360789      8.30188300014725
  O          18.20304502336978     29.98541457922159      8.27015782067348
  O          16.85401651858048     27.62982293839793      8.30203089436450
  O          19.60678428707132     32.27082759973111      8.29878162285672
  O          17.06501581655571     28.98891600589245      6.08281384533487
  O          17.16696127003956     35.44856613579470      6.08685187524335
  O          19.64559859823884     33.81328743804652      6.16000873863262
  O          19.61050570836413     30.68587421284978      6.14953434519573
  Si         16.94646933037709     38.48353148442025      7.79367550084935
  O          15.62247684821666     39.29418704178331      8.32153069257685
  O          18.32914620375244     39.09002433806270      8.40178819903321
  O          16.87705597451772     36.91743592682059      8.29544346002845
  O          16.93626309549370     38.47396124325990      6.15581807451076
  O          20.82829518417102     29.87680468485960      8.44053582455866
  O          20.95571468895731     34.53146384400430      8.43324586972988
  H           4.07465750320017     24.98677203183357      8.03659115463863
  H           1.41040896739417     29.60201497159123      8.03674925550519
  H           1.41040903188092     35.00798495884911      8.03674926124779
  H           4.07465743152282     39.62322797715318      8.03659115944832
  H           8.94818084463890     22.17325470890732      8.03830168543941
  H           8.94818090047813     42.43674521108587      8.03830168727057
  H          14.27776160260206     22.17320395156298      8.03828219262693
  H          14.27776173233320     42.43679616578101      8.03828219155076
  H          18.96055657593602     24.87622778062940      8.03640578088777
  H          18.96055654466942     39.73377223836990      8.03640577460786
  H          21.62471723755848     29.49141995173207      8.03658341392282
  H          21.62471723669037     35.11858007109014      8.03658341094106
  H          13.38271061376015     34.17865888846057      5.63059042130336
  H          10.87350027772733     34.81228236597000      5.57082935060962
  H           9.01821097885641     32.92992069646238      5.55123482302517
  H           9.77709511514104     30.38324806109359      5.61232563741063
  H          12.28748212513863     29.81582353831536      5.65527254410810
  H          14.05954971222099     31.68580595314544      5.65337099032330
  H          13.53626084138652     39.79139058936017      5.71628602103766
  H          10.81542414166075     39.10744199773197      5.67349292690252
  H           8.16163171126321     39.66479194289360      5.73532286283724
  H           6.07076374285292     37.72233190398098      5.72952086253639
  H           5.26487194631864     35.09396550483203      5.66772304573961
  H           3.50519735141199     33.01946152722666      5.74659990405419
  H           4.09371116169528     30.29207773524265      5.73347669043087
  H           6.01047536347718     28.28878172323398      5.66548679543485
  H           6.85525108927168     25.67850984455070      5.73455578980986
  H           9.59229680151125     24.87911646825435      5.73595480887001
  H          12.27698730050309     25.53703409459170      5.67956386250313
  H          14.96530551213583     24.98974245562916      5.76109046174323
  H          17.00772456849829     26.87167953185977      5.74984673545372
  H          17.76395631335983     29.52313685764928      5.68176928122532
  H          19.63908040879890     31.55428804614646      5.72672221420856
  H          18.94445184275785     34.33836236489997      5.74726627003603
  H          17.04538163601319     36.32090501663847      5.68709498976868
  H          16.17575061612181     38.92222187450582      5.75914991482785
  P           8.07466416170198     36.00904291719302     11.82533852915827
  O           8.85927252977021     36.54521232929121     12.97072429508547
  O           6.58625687020456     35.97945795276865     11.83765926528751
  O           8.60044170045555     36.80246780733932     10.51417660901622
  O           8.52546116692858     34.47456854261520     11.53197524333051
  C           9.90158163083984     34.15549522442824     11.46560160107711
  C          10.00610977576753     32.66486906440031     11.21196006229161
  O          11.30581532872959     32.37609584538544     10.67534661056401
  C           9.85052817856809     31.81155219849468     12.46081182537879
  O           9.17453486199697     30.58638879070243     12.24495431373665
  C          11.30403014770180     31.55023681089839     12.85816762172015
  O          11.48319930214861     30.43449212567813     13.67423886905865
  C          11.96954768688894     31.44138680834589     11.48271111025649
  N          13.37685725010159     31.73965912685722     11.46489244906234
  C          13.96084567661951     32.97715583344733     11.51899746305659
  N          15.26651127013848     32.93297959365942     11.49182595256428
  C          15.56297512024764     31.59057843881282     11.42133767703611
  C          16.77396988811476     30.87923107049626     11.37514951518007
  N          17.96940506786073     31.47970815644653     11.41124895281577
  N          16.71738718998677     29.54029134197287     11.31930681049174
  C          15.52567153744483     28.94352137290784     11.30612050978148
  N          14.32275522411073     29.49951344074954     11.35059427436584
  C          14.39919604714288     30.83019398446632     11.40430023516330
  H           7.97530506722035     36.73041378822649      9.78148806733440
  H          10.37936326441550     34.68422671484432     10.63745999144829
  H          10.40952780880106     34.43336784461209     12.39517355616469
  H           9.25363769284012     32.38522467233533     10.47142833609408
  H           9.29968436648097     32.33641381817539     13.24163519701609
  H           9.34599687974283     30.26710395474957     11.35158618235981
  H          11.71112810815959     32.42359564496603     13.37500953179529
  H          10.81778064847998     29.78708875081309     13.39879814069489
  H          11.86902521304994     30.41880042361372     11.09841144041400
  H          13.36283096001441     33.87539146335135     11.56007979447220
  H          18.03544479953010     32.47847261718768     11.31824773491675
  H          18.79801708708332     30.92834482497339     11.26684386796977
  H          15.54810395144021     27.85854016711043     11.24978273822578
