162
Coordinates from ORCA-job /data/Seafile/amp/frames/frame12/dry/amp_frame12_dry E -13464.315666221859
  Si          3.45796296228846     33.87251456471238      7.85127360123121
  Si          3.46965957857853     30.76806428652914      7.87542616243541
  O           2.23004468246046     34.76104150386468      8.47968383869454
  O           2.23627321245146     29.86613638278376      8.46249294279527
  O           3.37016677774032     32.30551272497060      8.37621753560310
  O           3.31698076307479     33.80652107131368      6.21416129748456
  O           3.46956518510302     30.80028449527433      6.22775266410063
  Si          6.14021464168941     26.16952691700807      7.86075352694400
  Si          8.78172253124925     24.54828961642843      7.86491682976141
  O           4.74256031337761     25.56010592318545      8.43497303205089
  O           7.43936510003934     25.31871602421599      8.37897271626983
  O           8.70138109957497     23.02062240995296      8.43435963204352
  O           6.17847621860130     26.16213662817922      6.21296850992942
  O           8.76306892144665     24.59787834234235      6.21980951007795
  Si          6.14302955285838     29.25135768265650      7.77340544718410
  Si          6.18566928712745     35.53914150071400      8.29060470735288
  Si          8.97001042170487     33.90753866636559      7.76224698114405
  Si          8.90161108887472     30.82877521658219      7.73459666031331
  O           4.86999943434814     30.06626189142868      8.36710241886982
  O           4.83972759642676     34.54263150759890      8.29848257880651
  O           7.65044898005957     34.72530604451627      8.07144154603747
  O           7.51906012980894     30.05333054463434      8.09873387333494
  O           6.23844597857176     27.72177490176576      8.35006890237380
  O           8.88739586896849     32.35011502817723      8.30301814151557
  O           5.88773536686118     29.14418441510041      6.15021839958705
  O           6.02437024054799     35.92769318329303      6.60156835796510
  O           9.28528019448097     33.80421457539902      6.13869700390970
  O           9.07973982148120     30.94397009258462      6.10212861899672
  Si          6.26553484587214     38.68896205403881      7.89570705387673
  Si          9.01713586376549     40.05773228027392      7.87109771323744
  O           5.01201184032620     39.68526697132183      8.27257831333048
  O           7.59470284126115     39.51265589531896      8.43743203349194
  O           6.13320869971995     37.23968231102728      8.60831162856992
  O           9.36138701419772     41.60113515784570      8.29021960151024
  O           6.48420559601664     38.48197832166520      6.28507026658034
  O           9.00710410707053     39.85594503827759      6.23621721686917
  Si         11.47205998882053     26.05054078203639      7.77708285322727
  Si         14.15356994206126     24.54278562232451      7.84917270670119
  O          10.12927458005711     25.33458904878751      8.36747773354043
  O          12.83938097389718     25.36952530837284      8.35207289876886
  O          13.94990583593750     23.01448668161192      8.38088867718967
  O          11.41552931822952     25.77705986595547      6.15479777447941
  O          14.18817683079854     24.61530658470665      6.20433347825830
  Si         11.51046748349517     29.22410399835198      7.73212069755871
  Si         11.66708070437250     35.36507820702397      7.83877330979070
  Si         14.27452640870316     33.77930701477950      7.75133392090666
  Si         14.18146069911939     30.71633204841502      7.71117545846624
  O          10.17486775533222     29.96027841739950      8.29983861430745
  O          10.30586220990428     34.65910278624842      8.37277196488603
  O          13.03787279675621     34.63478776433740      8.37435569221772
  O          12.88800507857380     29.90473439524065      8.28958726384475
  O          11.46163501082869     27.63889882666471      8.11108923427603
  O          14.31809969231700     32.23487258776380      8.28911908964413
  O          11.49548482455310     29.40712520861685      6.09759421825010
  O          11.70382526822137     35.17582521454300      6.20024238315068
  O          14.05090709579708     33.67726588329541      6.12531372644757
  O          13.95188376981619     30.83481685530192      6.08499645195762
  Si         11.67311445799556     38.53983732145580      7.85701890065878
  Si         14.36166024899729     40.04313374919349      7.89071305841388
  O          10.30605985117974     39.20494051359847      8.43867037676662
  O          13.02213307098270     39.27921180979577      8.43339638197148
  O          11.73166419824443     36.95284708254490      8.21099025710210
  O          14.50017957826751     41.57864855073936      8.42754129992907
  O          11.72586858720321     38.79841713237828      6.23327655142716
  O          14.35888867247818     39.94850837054177      6.24764944945776
  Si         16.87338403477060     26.01512183140564      7.88636940860662
  O          15.52730181951878     25.23900320822085      8.39420691772530
  O          18.15169941076294     25.18413329050102      8.46670297033064
  O          16.82019630048938     26.01296941993305      6.24113172460640
  Si         16.92206002247990     29.08803887337025      7.77121665177354
  Si         17.04979807209590     35.33924225445514      7.79718390180144
  Si         19.67769201455421     33.74767913626540      7.84463656812461
  Si         19.56146627584264     30.65535628880911      7.82256944425658
  O          15.51898192496747     29.84906550092368      8.02130228063256
  O          15.70032782460968     34.49328129878034      8.07954657578304
  O          18.35198829792937     34.53625561751927      8.39605208172511
  O          18.16946866636444     29.97745401749056      8.33931727092778
  O          16.87350258407233     27.57403824539917      8.38510244184086
  O          19.68201840736208     32.19428341565779      8.36871131095913
  O          17.18186029133812     28.85671741405989      6.15866613674944
  O          17.35070416980419     35.43424900787835      6.17859008906434
  O          19.58576347013154     33.68764722532399      6.20524930415907
  O          19.52914368587982     30.71551893938189      6.17979253065204
  Si         16.98865790405736     38.40996867261047      7.84868457627432
  O          15.71436020481288     39.26721092884635      8.39738552940113
  O          18.43385430244878     38.98464935394435      8.34463785341010
  O          16.93910743784278     36.85985722405600      8.36822976597672
  O          16.88510510533704     38.37500014964489      6.20475453490130
  O          20.74337519475692     29.68285223434159      8.37728110423020
  O          21.07793946458489     34.39476142875712      8.37393365043727
  H           4.07465769804232     24.98677197942278      8.03659116599778
  H           1.41040896837331     29.60201497434587      8.03674925596281
  H           1.41040884999737     35.00798503929511      8.03674923714688
  H           4.07465749542570     39.62322799982769      8.03659116355888
  H           8.94818085201647     22.17325463516564      8.03830167940642
  H           8.94818096147768     42.43674504602036      8.03830170943207
  H          14.27776146863429     22.17320408123739      8.03828219891476
  H          14.27776173474096     42.43679616445472      8.03828219185617
  H          18.96055656187751     24.87622775456523      8.03640577983855
  H          18.96055658799672     39.73377231164165      8.03640575827591
  H          21.62471723341255     29.49141995401429      8.03658341396348
  H          21.62471719690976     35.11858007859497      8.03658341373340
  H          13.27311363236771     34.19802815108395      5.84597069306910
  H          10.88410428316192     34.75052504068225      5.88146819197782
  H           9.19667389687429     32.89958988201144      5.80081432040108
  H           9.81877149766042     30.41104529352812      5.76904915601633
  H          12.29787710149558     29.84830265933857      5.77092089207256
  H          13.99068898146387     31.75761412084265      5.77864207010457
  H          13.51097808557676     39.62161562373355      5.90191341670383
  H          10.86745156155961     39.06469909549953      5.86715064699778
  H           8.21198615478289     39.36898456337825      5.94815014754151
  H           6.33993046948481     37.51304571543500      6.11324691344495
  H           5.69000959457003     35.19830590892615      6.07738129582524
  H           3.36011894622656     32.90454611184248      5.87233262898676
  H           4.16968019438303     30.25229549521206      5.84438821457626
  H           6.03425422875517     28.25888746970696      5.79232286786713
  H           6.93948095175110     25.68135088580998      5.85807566376752
  H           9.59362929899304     24.93267399107047      5.84750288756800
  H          12.25962033799802     25.50007272499741      5.77462669967480
  H          14.98764916184927     25.04623868901479      5.86716653306203
  H          16.98137805209200     26.89436501949749      5.86654242711513
  H          17.83011893082565     29.45837975079717      5.77011938935013
  H          19.53773971423403     31.62252080428341      5.83822030865227
  H          18.88945438556793     34.26750983772039      5.85227694475522
  H          17.15501556467264     36.30172106178085      5.79766732544393
  H          16.10155826633022     38.83924408244515      5.87243723845364
  P           7.05232830592137     36.03876338562311     11.15299923896726
  O           7.27192230843467     35.32328992373849     12.42173917942736
  O           6.31405792210708     35.29170649604283     10.04264538950912
  O           6.25088827862247     37.38105840652960     11.43341600036284
  O           8.41841586011537     36.49557380912963     10.45813107542837
  C           9.62028981270026     36.63154613330294     11.19104850171621
  C          10.17712473255401     35.28399212537625     11.62073137074730
  O          11.52922014883680     35.15910212811362     11.17935997822434
  C          10.19606057396643     34.97682370254224     13.13260789350523
  O           9.27735956948771     33.98880958406767     13.49211966248743
  C          11.61041380678238     34.41501135396215     13.36198310561240
  O          11.65046963142571     33.34639215638996     14.24723312037656
  C          12.03780781869552     34.08469451071147     11.92595736351528
  N          13.44622578959423     33.97732277340590     11.70107443253080
  C          14.36919402605509     34.98687149719301     11.61141310331370
  N          15.58545385068586     34.56358752773321     11.39787774601822
  C          15.46086090900026     33.19391487392658     11.34976664742914
  C          16.37526842449865     32.15949945261347     11.11577721052983
  N          17.69268721852377     32.39268264206013     10.92356394460743
  N          15.93109879259745     30.90166013404802     11.09907814226609
  C          14.62851672249884     30.68175601341275     11.29339101187956
  N          13.66558139154404     31.56419855779837     11.51016002276556
  C          14.13693538193305     32.80686973045501     11.52991297327537
  H           5.92566056439031     37.70253915826690     10.57770635124806
  H          10.32991303300149     37.10913270565168     10.51642292996891
  H           9.46624435026730     37.28572944449767     12.05463500152358
  H           9.58246190502475     34.49895621887813     11.13908222429072
  H          10.03093152449537     35.89042298868491     13.71675336185922
  H           8.40131800768342     34.31290861226416     13.18024650352491
  H          12.27720513235341     35.20251068892657     13.73012466340425
  H          10.74984004413212     32.98803678177819     14.25450317033219
  H          11.59809529216442     33.12514563396246     11.62363799245300
  H          14.06873142194778     36.02132997249707     11.67831741241289
  H          17.95406704468560     33.32865252247338     10.66279912613896
  H          18.21428554528189     31.64213103624554     10.50475591099734
  H          14.32175075430998     29.63998881104284     11.25628464104503
