159
Coordinates from ORCA-job /data/Seafile/ump/frames/frame14/dry/ump_frame14 E -13411.860514024462
  Si          3.45510781493390     33.86793669015083      7.83721371187771
  Si          3.47380721711222     30.76104220037349      7.85053632838942
  O           2.23062999742553     34.74483262817360      8.46751954909181
  O           2.24641756229206     29.86281477259019      8.44492824218492
  O           3.40834347072097     32.29637652208590      8.37532984453238
  O           3.31567884920224     33.79628580432812      6.20263994469963
  O           3.45725060155239     30.81198453630434      6.20459848356258
  Si          6.13211183205802     26.17239787920493      7.82775851811699
  Si          8.78563014027390     24.54126015103187      7.84771432758158
  O           4.71752461030803     25.60895210183035      8.40242662443478
  O           7.42336194931261     25.29564507939857      8.30684698646364
  O           8.75264757375897     23.02550353753517      8.45131595264578
  O           6.14563096895508     26.15779599316298      6.17386305995134
  O           8.81029229317908     24.55153904541061      6.20347045580068
  Si          6.14556779572493     29.25492960135464      7.70046193835073
  Si          6.19671800739289     35.54368460969452      8.29842452720563
  Si          8.97723386394966     33.91990377980791      7.67289278121617
  Si          8.91533718027474     30.82785086100694      7.63687844633346
  O           4.88671454391636     30.07324205741229      8.32596972381732
  O           4.85303276209924     34.49298711204910      8.31001030932585
  O           7.66939479503710     34.72482406337307      8.03260073838159
  O           7.52444866361432     30.07197886644420      7.98694378852910
  O           6.26168758617517     27.73616460670001      8.27352867438287
  O           8.91525108387804     32.35312690752013      8.20089231796691
  O           5.85569615026057     29.15253613573899      6.08223179524178
  O           5.97715612731901     35.90293319945711      6.60852716743091
  O           9.28879716318703     33.82879719603429      6.04997388460209
  O           9.13346048244965     30.93180628523208      6.01229095862007
  Si          6.27052604910105     38.66932233183809      7.93332995052810
  Si          9.00831843490271     40.06194036811132      7.86161023846890
  O           5.00723279639094     39.65621988573859      8.29742925942209
  O           7.59798109330990     39.52237653467852      8.44974532081044
  O           6.21646293943005     37.20849046278300      8.60357840757665
  O           9.37497679910674     41.60322697373765      8.27266627089550
  O           6.47913939970120     38.49442714392781      6.30764591719565
  O           8.98251810059869     39.85864689864524      6.22667576565619
  Si         11.46762903964139     26.05278158383726      7.77136694828938
  Si         14.14377947533268     24.54075149412249      7.85127246094196
  O          10.11257635236286     25.36744116674394      8.36755959935505
  O          12.82927881211521     25.36647263089738      8.35557549409037
  O          13.94631581559601     23.01252306272734      8.38227914924150
  O          11.42427593344465     25.77516324149502      6.15071555245234
  O          14.17456332600064     24.61537856557036      6.20589428356490
  Si         11.52577126429929     29.22404399028548      7.73107851125842
  Si         11.67788466660141     35.37677255777196      7.74327288867626
  Si         14.28196195619951     33.77857541791860      7.76137951581530
  Si         14.19713042504828     30.71855430169914      7.75580953467608
  O          10.17215642050577     29.96876640876123      8.25557994348570
  O          10.32075737421789     34.66552407496482      8.28938506993608
  O          13.02440771957566     34.64249272828279      8.33571300099428
  O          12.89046739963210     29.91253959972828      8.30964421676978
  O          11.46005878850343     27.64177153873224      8.10502958246157
  O          14.32513037257919     32.24298295541066      8.32142320468189
  O          11.54456453406798     29.40664630381406      6.09581894484445
  O          11.74029663128521     35.16388446546863      6.11305940510548
  O          14.10250490754833     33.65262817613507      6.13156451665478
  O          14.01455221344010     30.81293859197618      6.12312107801621
  Si         11.66706821926351     38.55583538006887      7.81260262102320
  Si         14.36319125114636     40.04704498160248      7.86773075481724
  O          10.30487546940822     39.20338123863883      8.41186496970925
  O          13.02193082740998     39.27856278694090      8.39528019214992
  O          11.73589669293938     36.95616190469426      8.12671401678021
  O          14.50654499543534     41.57649534881305      8.41796844738316
  O          11.71344820046949     38.83685833442157      6.19220933750912
  O          14.37086092236100     39.96308465030470      6.22372715551496
  Si         16.86645252009587     26.00929903540319      7.88432739496338
  O          15.51924654825722     25.23745135609310      8.39245258210386
  O          18.14059863058315     25.16779880449744      8.45728910556504
  O          16.81064544773314     26.02140260403070      6.23959723694315
  Si         16.91903956756725     29.08743475812181      7.79903377361552
  Si         17.04456880421089     35.34084689911011      7.78280423609865
  Si         19.67625065836929     33.74572543051379      7.85375191548319
  Si         19.55857549495196     30.65449002347946      7.86028084237343
  O          15.52943627604751     29.85750372517436      8.12360742555100
  O          15.69301006771022     34.50900361241408      8.12395860437052
  O          18.34804372443332     34.54731164607825      8.37317108679488
  O          18.17505285822573     29.95304590180381      8.37456229862051
  O          16.87207442202496     27.56549737093363      8.39359499469462
  O          19.67197525195646     32.19771821991767      8.38487798450512
  O          17.13609637815273     28.89254850827681      6.17882076801557
  O          17.30361266738359     35.41875939328908      6.15930048336942
  O          19.59890271250253     33.67260739970634      6.21108509112962
  O          19.50773911996054     30.69955754391011      6.21484562210487
  Si         16.98911389247905     38.41274769222457      7.83030122698007
  O          15.71390752263397     39.26745590576193      8.37553483544469
  O          18.43294913046977     38.98186809963129      8.33469187899312
  O          16.93926435582598     36.86276655484048      8.35294449754700
  O          16.88891656827905     38.37319448252379      6.18668823090392
  O          20.75741702719645     29.69560863933637      8.40577671084329
  O          21.07454069708064     34.40026434839488      8.38085914196633
  H           4.07465742539596     24.98677203740727      8.03659115304207
  H           1.41040896622886     29.60201496907864      8.03674925636271
  H           1.41040917467185     35.00798485675649      8.03674926373060
  H           4.07465733780625     39.62322801330285      8.03659115329158
  H           8.94818084429991     22.17325470352825      8.03830169078041
  H           8.94818088280491     42.43674527343212      8.03830169001531
  H          14.27776156584824     22.17320393815413      8.03828219076900
  H          14.27776177229708     42.43679622891217      8.03828218626426
  H          18.96055661180525     24.87622776178222      8.03640577854178
  H          18.96055653953090     39.73377222479547      8.03640577965802
  H          21.62471722996613     29.49141992962485      8.03658341029409
  H          21.62471722899753     35.11858006930502      8.03658340693147
  H          13.34062197919888     34.17110775334983      5.81251876533200
  H          10.91847726635904     34.75287206127884      5.78256337106733
  H           9.20620380099349     32.92781234860315      5.70286847858955
  H           9.88659524209795     30.40375167746721      5.70255681881076
  H          12.35870691148788     29.83423680102635      5.78143677348768
  H          14.06519402896944     31.72993109186390      5.80222697263535
  H          13.52073507824572     39.65188237090747      5.86971243152944
  H          10.85098546331098     39.10867324602170      5.83776191566522
  H           8.18029283983573     39.37056267180581      5.95502256598273
  H           6.32704050949689     37.53570603865617      6.11650609794368
  H           5.61268729467952     35.17572971407544      6.10184838594456
  H           3.37460015239413     32.89591492371927      5.85806748679441
  H           4.14875117868707     30.26078296536470      5.80886523616233
  H           5.97722630215313     28.25915419432256      5.73304092275925
  H           6.89886356774482     25.67479710831980      5.81034140984120
  H           9.64217762425683     24.89095995619792      5.83971441944338
  H          12.26955862854786     25.48473541139207      5.78210684435055
  H          14.97309518825398     25.04450055351668      5.86507853799290
  H          16.95759549953866     26.90648657610419      5.86939534703367
  H          17.79985436880521     29.48496071396776      5.79992701726098
  H          19.53702998379083     31.60359816721370      5.86665817855252
  H          18.90308530216499     34.24190301510691      5.84484168678341
  H          17.11603691270268     36.28744095753420      5.77712101977750
  H          16.11177236691282     38.84668034613195      5.85200010762066
  N           9.37681788338370     30.25437677288630     11.61458921607393
  C          10.04933165692932     29.12124355325529     11.23166198969509
  N           9.26492098289201     28.03732569131939     10.98496464070666
  C           7.87168043436247     27.94312778036184     11.10879898157227
  C           7.25030657498785     29.21259258180932     11.39046097882324
  C           8.00913621139967     30.29324299828364     11.64830677484922
  O          11.27045845259130     29.08219675514684     11.13304935581893
  O           7.32882186804314     26.86719253058092     10.97863170077465
  C          10.21149658210176     31.35563986290227     12.14465330622444
  C          11.05309279710316     32.08599384151402     11.08761633943612
  C          11.07140838949318     33.50711597110376     11.64426771376382
  C           9.69651307043634     33.61548734898879     12.27693656681604
  O          12.06069302415063     33.62239319921999     12.63526266221231
  O           9.39268039280332     32.29344482789201     12.75003192380933
  C           8.64422114709096     34.09440420896446     11.30716022652514
  O           7.39866437927054     34.15107890390814     11.97199027610464
  P           6.06452407587706     34.24979530501463     11.09468481089927
  O           6.37757737544061     35.31530803766401     10.02812451431320
  O           6.12990916380363     32.81250488810951     10.37500988446131
  O           4.89199933741605     34.44982268919492     11.93942158611464
  H           9.74986798290965     27.19529059413124     10.70865802179958
  H           6.17310457015000     29.27199372579241     11.42076763156182
  H           7.58625524518667     31.25501845242221     11.90321017151811
  H          10.88242629256741     30.89312348902313     12.87848334517967
  H          11.21650216401451     34.24792405050066     10.85076631140392
  H           9.72227759806821     34.26512056154077     13.15355680721940
  H          12.77427908336590     33.03317884173626     12.35432373454551
  H           8.91256015546367     35.08504818142298     10.92724800857455
  H           8.57870999380157     33.40706886572631     10.45814836333863
  H           5.42588208317426     32.71601040373595      9.72226223651606
  O          12.35890576074003     31.60078824594198     10.97674809772049
  H          10.53280398076486     32.07090800975462     10.12464181334311
  H          12.28388174118354     30.63060531110250     10.94927932243425
