37
Coordinates from ORCA-job amp_prot_geom E -1530.471065892988
  P          -3.61415650855129     -1.56609917088736     -0.10533998113358
  O          -4.37720265730973     -1.31312314796336     -1.35725999265113
  O          -4.19726825181569     -2.32321530789606      1.03450036590097
  O          -2.21900414992196     -2.25730723913821     -0.57362553006876
  O          -3.11529568572825     -0.15585658161121      0.52768045410423
  C          -2.59686037876384      0.83100887428385     -0.34249875350219
  C          -1.64323986974118      1.71035868070613      0.42999256244593
  O          -0.54623398735932      0.93161144508597      0.94657841542970
  C          -1.01863021994800      2.79481009289523     -0.42799494105747
  O          -0.71538173775003      3.91009127423343      0.37742294957059
  C           0.26970823045583      2.12074472420209     -0.89921228770147
  O           1.29826979319236      3.01652254901910     -1.21981235573673
  C           0.65121217508451      1.31467516885842      0.33819359288556
  N           1.43272571597251      0.13112934878072      0.04534234820894
  C           1.00642534469231     -1.00887988919153     -0.58606356877976
  N           1.94918326660546     -1.90273549257325     -0.72651872806054
  C           3.05082005121325     -1.32024870431597     -0.16284024769956
  C           4.36772139852915     -1.77818999288266     -0.01900669665941
  N           4.81509263718781     -2.94231148927535     -0.43283934995236
  N           5.18827015994573     -0.89291740315704      0.60603714401134
  C           4.78978576396634      0.32518075907502      1.05809237978715
  N           3.58795614558496      0.79405548677398      0.94405466158620
  C           2.74872428073659     -0.05539446881747      0.32741562350515
  H          -1.74746777867662     -2.62381311254652      0.18341035601815
  H          -2.08187294797301      0.36917177217235     -1.19199687441135
  H          -3.40979106662704      1.45046906487748     -0.73548594250523
  H          -2.16152400805783      2.15203086743766      1.28479670998943
  H          -1.66292401865702      3.07584721311923     -1.26814059518733
  H           0.02816682824717      4.36250976978999     -0.04397838866409
  H           0.05347918122370      1.44403185102452     -1.73118343203147
  H           1.23953676942666      3.23703333932556     -2.15542364932088
  H           1.26991805838196      1.92662078177647      1.00233322799259
  H          -0.02018822966778     -1.12785233812631     -0.90297190966505
  H           4.18430629492152     -3.57717732913307     -0.89534183188821
  H           5.77717311407570     -3.21969656140592     -0.31839033337182
  H           5.56589766669723      0.90863175514073      1.53787748153177
  H           6.16113862040773     -1.14138658965665      0.74632711708067
