159
Coordinates from ORCA-job /data/Seafile/ump/al_surf/frames/frame15/dry/ump_al_frame15_dry E -13364.876397433198
  Si          3.36810474911195     33.84413165868065      8.48841937198992
  Si          3.47934183490096     30.63754773396128      7.83059308531561
  O           1.92033961427056     34.65703121399220      8.77510949120866
  O           2.25970508624324     29.73436662105659      8.47280070428308
  O           3.38507466694542     32.18001661862393      8.22089383341380
  O           3.32842452358528     34.17727780748133      6.74768770175079
  O           3.41538403960630     30.52883152536197      6.18473523645949
  Si          6.21101118849292     26.00189211582414      7.85118070771735
  Si          8.95224766371279     24.52660892725237      7.85735257539368
  O           4.94120988005893     25.15360786483753      8.42448792139106
  O           7.55697359004162     25.20467252261916      8.30727563809297
  O           9.12269977703571     23.01891294739212      8.46807231472266
  O           6.21411011227966     26.02574673421343      6.19312013578429
  O           8.95881797411640     24.51804875258045      6.21021795467831
  Si          6.14795209380255     29.09783487933885      7.72734556914477
  Si          6.01631502080853     35.42266256376754      7.88093754152323
  Si          8.83246900499868     33.87115781402871      7.66876557632168
  Si          8.84810467712957     30.75587460768011      7.66459520597642
  O           4.88951884010131     29.92650706962995      8.29607828645948
  O           4.85780369297282     34.62911763376783      8.65914025015653
  O           7.44623358538534     34.65680619469954      8.03654361458899
  O           7.53730864227135     29.88022484926505      8.06706507852375
  O           6.20866906120588     27.56124497461389      8.31027298941758
  O           8.68918435547478     32.28661678380778      8.18176709209281
  O           5.94302426795138     28.96352251054225      6.09860591797595
  O           5.58444285594912     35.60763425196367      6.30527633730398
  O           9.01349684231069     33.78116568257250      6.03314209355389
  O           9.04820442052485     30.80558494391772      6.03709274461847
  Si          6.17646076661064     38.48685353288292      7.90640024545429
  Si          8.84075840758159     40.07170692574579      7.86637328664193
  O           4.93127634130560     39.41872389487766      8.44100675467617
  O           7.54862720032067     39.23915680291148      8.39411925825669
  O           6.16740580682131     36.96480229698888      8.46847043929226
  O           8.63238356724725     41.60654280532151      8.40903865258808
  O           6.20664866879704     38.43558205441795      6.26021753069394
  O           8.86332981243507     39.98973627107610      6.21725334066480
  Si         11.56000258038297     26.12771172072919      7.79357778589221
  Si         14.20419998078862     24.54775437286463      7.87760854475138
  O          10.22060547677144     25.41825581850212      8.38288313283114
  O          12.91863252279755     25.41487282369061      8.36910914278093
  O          13.99493594285600     23.01826360239365      8.41227760098297
  O          11.52599077047298     25.85545446219217      6.16876434084991
  O          14.26706889125474     24.59965646723217      6.23169620543403
  Si         11.55007958734052     29.30234943825026      7.78720313560362
  Al         11.61026229656245     35.39403236349577      7.84833841678530
  Si         14.26116570758137     33.81772684622921      7.91976512950450
  Si         14.20774136370072     30.78825764981575      7.86005535042762
  O          10.17035169761814     29.99735307154768      8.29912041249649
  O          10.08938508241561     34.62128975037784      8.30763225363121
  O          13.07703545169205     34.67019234459132      8.54987213759890
  O          12.89496921826537     29.98183924679367      8.41489192676331
  O          11.53869449803583     27.70487887242908      8.14647336390473
  O          14.38495027012946     32.26431910933554      8.49636110720919
  O          11.60825289292077     29.49080731006175      6.15544626056093
  O          11.84382409565896     35.04277350942441      6.12132642071340
  O          14.04097493955293     33.64799202720503      6.29523597436280
  O          14.02219334824730     30.93743616249949      6.23498008676900
  Si         11.61701908780227     38.68629329862773      7.83644716060740
  Si         14.36933749977645     40.06896582538888      7.89607637967799
  O          10.26939151593067     39.47584669322444      8.37383345040144
  O          12.97428214164083     39.44158114741079      8.43636559828974
  O          11.59631861024631     37.13785542445074      8.15112769294343
  O          14.63726284716519     41.61318936860739      8.39189369318894
  O          11.73452042702180     39.05157997092937      6.21852408668271
  O          14.38296277379066     39.95319498059288      6.25213043270902
  Si         16.90688733090274     26.03784418763337      7.93878092164042
  O          15.58802133841330     25.21553705606729      8.43513144001094
  O          18.21903045448414     25.25577987396933      8.52238699666959
  O          16.87038051406659     26.04174516034677      6.29215413383541
  Si         16.90725394205127     29.10768175198616      7.85051261206898
  Si         17.06280229555924     35.33697066222027      7.83819492346460
  Si         19.69068360810111     33.74425651192031      7.88520857593112
  Si         19.56139421034056     30.65916363308153      7.88951455419380
  O          15.52613195537229     29.86458665913682      8.18145483603551
  O          15.74934626592989     34.49250243248084      8.19406179312142
  O          18.40276268758955     34.57911373514322      8.42698584710299
  O          18.18232909133027     29.96164326731080      8.41014787877560
  O          16.87332404706442     27.58470994387786      8.45412600701060
  O          19.69087838717873     32.19662361111863      8.42390073413788
  O          17.13319731688369     28.88393668801330      6.23152808889475
  O          17.35848850485471     35.40879766409464      6.21460030196881
  O          19.58745244300539     33.66517207431256      6.24291192754732
  O          19.51927904585020     30.71482267768487      6.24407872672556
  Si         16.98109715174012     38.41940979480933      7.87134436889434
  O          15.69427656111899     39.25366069933882      8.42601656410722
  O          18.42074248238250     39.01375390321217      8.38514128145951
  O          16.96733878238221     36.87204086807956      8.38811359422843
  O          16.89059531493548     38.41417644669774      6.22760151806182
  O          20.76510429167983     29.69121153238112      8.42494994850646
  O          21.12758406814998     34.36112612116307      8.37457174910850
  H           4.07465744560482     24.98677204899346      8.03659115527618
  H           1.41040895198353     29.60201495452629      8.03674925739752
  H           1.41040904993910     35.00798502784387      8.03674925998358
  H           4.07465742595748     39.62322797376027      8.03659116010351
  H           8.94818083752138     22.17325469087072      8.03830169186800
  H           8.94818088376111     42.43674531945546      8.03830167919413
  H          14.27776169739812     22.17320379416450      8.03828218708878
  H          14.27776168032688     42.43679620311792      8.03828218976476
  H          18.96055658628215     24.87622776782379      8.03640578166365
  H          18.96055653570464     39.73377222609766      8.03640578087873
  H          21.62471725094611     29.49141992282508      8.03658340631304
  H          21.62471724055681     35.11858007988241      8.03658340991335
  H          13.20127797792217     34.14928867427315      6.04391021404161
  H          11.04706409789429     34.68773451371188      5.71388981071471
  H           8.91600327584171     32.88423402454342      5.68995005816028
  H           9.86417883623596     30.37052140121391      5.74650817777316
  H          12.40456738979980     29.98016242203164      5.87863004864005
  H          14.01539597443933     31.89501559013320      5.99399336294914
  H          13.51564223508952     39.65367882316761      5.91900743913331
  H          10.88002398300678     39.21982305864438      5.80316211467973
  H           8.08365528324823     39.53509506976454      5.86737778237233
  H           5.99632268711638     37.53930138473037      5.94001087199025
  H           4.72389913133584     35.12542880204662      6.20976926244396
  H           3.29383437281882     33.34468169490484      6.27152606417267
  H           4.14288925499069     30.00854680323904      5.82062355597199
  H           6.08155500475433     28.06237231324696      5.77792512253518
  H           6.96664846656042     25.54779712558130      5.82308787659605
  H           9.77747737602130     24.88621187509668      5.84459567472288
  H          12.37240477122881     25.56749087104701      5.80428410261286
  H          15.05965649899668     25.05397084367265      5.90895567833515
  H          16.99679357764524     26.93644073402743      5.93261051046621
  H          17.76189643321945     29.50162811796426      5.83604348070760
  H          19.51636241424863     31.62681108672304      5.91216179411615
  H          18.87585091893148     34.23492529737015      5.90067090151586
  H          17.10598066422343     36.24665886045695      5.80677163119224
  H          16.08445271850321     38.85413471066871      5.91116789793616
  N           8.23592414761794     30.00302972122344     11.89654070896605
  C           9.20041884796566     29.04916228083416     11.69508533888418
  N           8.72843160896505     27.81022402937758     11.37825637272729
  C           7.39277064576263     27.40763226447241     11.24961367105999
  C           6.46969982465089     28.50070637033528     11.37006409773647
  C           6.91145645883033     29.73106080498253     11.69212026686851
  O          10.39908022072197     29.28037058503035     11.80505551166358
  O           7.13717838311653     26.23506143637424     11.05460427572436
  C           8.70468839067862     31.30649799721110     12.41512858273800
  C           9.47918383020692     32.13572173532630     11.38440688878090
  C           9.10388053254372     33.55782633990788     11.78083355639716
  C           7.67970623630124     33.38972324376994     12.27977602565432
  O           9.91989319141581     33.98859460042461     12.84577721058486
  O           7.61234884478123     32.05849235172606     12.82043368562065
  C           6.61806979505932     33.60865818437627     11.22419227799871
  O           5.34819285339654     33.68567097239381     11.84996334463244
  P           4.11180486322411     32.80112037943403     11.34900795776747
  O           4.49692556463679     31.40329808358420     11.11401020797507
  O           3.13607679727277     32.96992127973954     12.60803336430336
  O           3.37507138239068     33.56654187418998     10.25408373192437
  H           9.43073976417671     27.10281222218850     11.21888277971279
  H           5.41769710857996     28.33011836130151     11.20170949873922
  H           6.22173317916152     30.56239649214063     11.79092967648854
  H           9.35830551120607     31.07549643482582     13.26476075102160
  H           9.17379207995840     34.24535132960472     10.93062626970444
  H           7.49622780002952     34.07759431289629     13.10829503453284
  H          10.78840138596128     33.60293509350905     12.66552344194775
  H           6.80768125378287     34.55733142994715     10.71768949800513
  H           6.63942868934370     32.81172155995154     10.47515523026448
  H           2.49748418721834     33.65820173041715     12.40033588946014
  O          10.86527518444717     31.97049526151114     11.44278751975965
  H           9.08766292541348     31.92754166910732     10.38554805479699
  H          11.02265459157511     31.01323734120053     11.50913836163566
