159
5 Eopt=-403.7925452938 (Eh) Einter=24.231385 (kcal/mol)
Si 3.55619755903149936671 33.84476441917782807423 7.82276357928876997505
Si 3.55590021682778356649 30.76676464296734891946 7.82284079855324065988
O  2.14725497571468082469 34.47991502315850453897 8.40973852937057486656
O  2.14683493719343765349 30.13191591090097887218 8.40984764395513550994
O  3.71004511126868230519 32.30576445338603264190 8.41280327256598781105
O  3.55520841134540788175 33.84672284720550550219 6.16676352334247823705
O  3.55491063269033524818 30.76472336584580347107 6.16684084255641629113
Si 6.21945436053995681647 26.15150720438369447152 7.82297308164551541410
Si 8.88330593400107559887 24.61424967461889323772 7.82302827052220361992
O  4.81038912276971153403 25.51665837050629193072 8.40997994556011185807
O  7.47536352581431184916 25.24940041505351473461 8.41000351869299223040
O  9.03815422797597101123 23.07524947735954512495 8.41306749337129211597
O  6.21946467119380397293 26.14946602927646779335 6.16697313188067930412
O  8.88331682690057178320 24.61620855463251444917 6.16702822471698475226
Si 6.21975164855322137925 29.22950713311161052843 7.82289629643539274895
Si 6.22034606849411719764 35.38150693883259378936 7.82274214810492374284
Si 8.88419750874761326997 33.84424965058473588897 7.82279782484243479956
Si 8.88390008471099967835 30.76624970393910984967 7.82287494203450961550
O  4.81080926611332682086 29.86465800552469573859 8.40987141426256279431
O  4.81128092636205106913 34.74665786470720973966 8.40974902295593551571
O  7.47625510025247397294 34.47940033673331328146 8.40977289149395090817
O  7.47583500893856278680 30.13140043897917408344 8.40988179882743835947
O  6.37359925318158460072 27.69050700990193547568 8.41293572167239744886
O  9.03904502420239452931 32.30524946533992647346 8.41283743847540321781
O  6.21976243096503189633 29.23146574674916209347 6.16689624686854198643
O  6.22035653784000253097 35.37946534196075987211 6.16674219851087634936
O  8.88420829733661854277 33.84620807072806769611 6.16679780220635631593
O  8.88391050924960445911 30.76420830426420138792 6.16687499304225639207
Si 6.22064342876071041388 38.45950675824700937255 7.82266469606976144746
Si 8.88479196068480270299 39.99624949789800609778 7.82264305191562847597
O  4.81170078724454519659 39.09465713685469978600 8.40963963105723522062
O  7.47672682139562905235 39.36140026826068094579 8.40965003256318510694
O  6.37449096651060198582 36.92050681751054952429 8.41270448532910464223
O  9.03993734361846357217 41.53524934054159700736 8.41260523381199831761
O  6.22065423089104196919 38.46146494227956225131 6.16666464605521635889
O  8.88480247290322822096 39.99420773079526725269 6.16664310180145047724
Si 11.54845426774987515728 26.15099232356058323035 7.82300714369345406851
Si 14.21330584680831954358 24.61373496445678199507 7.82306254437047687844
O  10.13938923424149507468 25.51614301080228486285 8.41001392895688049123
O  12.80436339731530814845 25.24888564508483668192 8.41003767399800317150
O  14.36715410346313603895 23.07473485857342510030 8.41310181939290124831
O  11.54846468082339860928 26.14895111148540607360 6.16700719685574583195
O  14.21231681134340263384 24.61569388600761243424 6.16706248853290972534
Si 11.54875148380725491393 29.22899230133186776470 7.82293037462016283001
Al 11.54934579433223795775 35.38099198228214703477 7.82277632622447871569
Si 14.21419711174685573951 33.84373463275318272281 7.82283180188694249324
Si 14.21389958215342375070 30.76573506973811689136 7.82290869024720336711
O  10.13980914688511525412 29.86414305998464513436 8.40990554492558750610
O  10.14028083138007474417 34.74614303322800168417 8.40978324045759606520
O  12.80525510796737265196 34.47888589670258596698 8.40980707090342072263
O  12.80483491328203449200 30.13088551070394771614 8.40991603217963223926
O  11.70259911352073878277 27.68999213251415625336 8.41296982730532860728
O  14.36804499600296125550 32.30473463064630834651 8.41287173604770721624
O  11.54876230582933338553 29.23095090526859252122 6.16693037727574733253
O  11.54935627869587833061 35.37895058282078508682 6.16677637214135820898
O  14.21320803017435352444 33.84569334094702952598 6.16683186242913183861
O  14.21291026875415397512 30.76369348150611315873 6.16690913768745208046
Si 11.54964334874344089599 38.45899210865663775394 7.82269888042502170578
Si 14.21479182696617193926 39.99573458003459336396 7.82267713229266448138
O  10.14070098517038331920 39.09414296499459595680 8.40967387104445052159
O  12.80572673591673193982 39.36088552184283884117 8.40968415716774053692
O  11.70349087593450931877 36.91999210005432985326 8.41273859583830052600
O  14.36893717910998446996 41.53473451389331216888 8.41263927761885632606
O  11.54965410693096394823 38.46095034455472472246 6.16669881659699115062
O  14.21380227415245833811 39.99369288788911092070 6.16667717664479653195
Si 16.87745391722737409168 26.15047760395844989034 7.82304130813756781748
O  15.46838899668652977937 25.51562839595899134792 8.41004824251284688330
O  18.13336275028411392896 25.24837058671451117675 8.41007176929105071395
O  16.87746415466538252304 26.14843623107516634718 6.16704135711548495635
Si 16.87775121271813816293 29.22847751664336257704 7.82296440314939101057
Si 16.87834564616917987223 35.38047742826868358179 7.82281019406874023048
Si 19.54219697547013012695 33.84322009410517040351 7.82286558222040362409
Si 19.54189956549832274391 30.76522001598946687295 7.82294276136577693137
O  15.46880897830540391169 29.86362829385257100512 8.40993965979142643619
O  15.46928067296794928609 34.74562826541324511709 8.40981725219021214457
O  18.13425471676360700712 34.47837082607695435854 8.40984083350967281945
O  18.13383459106553274864 30.13037082605545080582 8.40994985321091093056
O  17.03159883587492373636 27.68947742936653355628 8.41300387167086682894
O  19.69704456861558838909 32.30421987370489489422 8.41290516859395864913
O  16.87776193234992661019 29.23043612720876183175 6.16696437725938206853
O  16.87835593884319251856 35.37843578333369976008 6.16681025300107421572
O  19.54220750805885842283 33.84517861465310772928 6.16686553306521467732
O  19.54190971135739474107 30.76317845079535828745 6.16694281230921514947
Si 16.87864312515513987023 38.45847737779511987810 7.82273276682109575120
O  15.46970084646606835577 39.09362819335706262791 8.40970792159837898794
O  18.13472631095080700447 39.36037116613419328814 8.40971797636871976067
O  17.03249067042230535662 36.91947735938587982218 8.41277248535082122771
O  16.87865370774355966432 38.46043573908303159214 6.16673271735836525664
O  20.79780834023313573766 29.86311288061875046651 8.40997325084721403243
O  20.79828007412418955369 34.74511392540619425517 8.40985083195190874505
H  4.07465742947125164619 24.98677204223763226310 8.03659115490915887392
H  1.41040896897933798471 29.60201496980100799306 8.03674925621635694029
H  1.41040901041399457938 35.00798498582426532266 8.03674926260385902310
H  4.07465743692124870989 39.62322797150179098935 8.03659115981340477219
H  8.94818084695353732627 22.17325470658268216084 8.03830168947712131455
H  8.94818087907269266168 42.43674530213606743700 8.03830168088845198326
H  14.27776169765154001823 22.17320385316216402316 8.03828218839346320124
H  14.27776172996187931119 42.43679616151005973279 8.03828219216096861999
H  18.96055659958525296815 24.87622775752918613534 8.03640577785200171945
H  18.96055653327780632367 39.73377222808849751345 8.03640577822149992926
H  21.62471722983424982090 29.49141993078887935553 8.03658340875569976447
H  21.62471723346340013450 35.11858007538621251342 8.03658341031502487795
H  13.39922794961660201807 34.28531246038851065805 5.85463176844973354207
H  10.85603170623192958999 34.89218232428722643590 5.71721596128038633822
H  8.79316677840157545631 32.97374190365095358857 5.76219940637836458563
H  9.66357961397118714331 30.35160701009216310808 5.76895568199588915093
H  12.30629749121992233540 29.68608882294939377289 5.77123880360599006423
H  14.17430144263001245974 31.65300280411491229415 5.78286317037052821632
H  13.45700859330025700444 39.52750482893548422680 5.78093078856799280629
H  10.82185198532183179054 38.95872177579180117846 5.76976940831539764076
H  8.14980839585504135414 39.50861002837687863121 5.76627385361809707831
H  6.23194667488685549728 37.58116492083750870279 5.76471310410040338468
H  5.44704955427619719188 34.95093754164280142049 5.77257540953999193079
H  3.60664936325254803506 32.96826993086023094293 5.76388710717168706310
H  4.32819223177758338750 30.34484056097223358961 5.76402041663573783126
H  6.20754699154648292847 28.34935900048411738794 5.76818373918565008296
H  7.00943285676187155531 25.75772182353144046374 5.76748914513811250515
H  9.64047060855171267235 25.06526887681748405612 5.76511829233486317037
H  12.31477063357642265373 25.70825778341500722490 5.77188275795961480696
H  14.95393929798493282135 25.09100721808237466348 5.76597661919054615964
H  16.85170393298589885944 27.02666099248881081962 5.76146800069207642991
H  17.64768340126680357116 29.66420704625760507156 5.77142433753035088984
H  19.48180900491769307337 31.64168672087218681099 5.76490010377692208010
H  18.77140968663866260613 34.27358367907403646768 5.76790924673162219705
H  16.89481965289949982889 36.26079389737608238420 5.76914703434406028748
H  16.09152697022390654524 38.86028470152945857308 5.76951241490522903632
N  12.99117100388640011488 36.61310450329629162525 11.32857036005738393669
C  14.15418438133917611310 35.92768945463394913986 11.04949472467017912436
N  15.28139321104348979929 36.70648457339095926955 10.98209312063434950346
C  15.38918269550085859976 38.07881341429354904449 11.18239043180391689702
C  14.11472383468495195302 38.70355391229829677968 11.42742641212034548914
C  12.98751012312638764001 37.96417965205501587889 11.45208547613431271373
O  14.21261429573049284159 34.71985021761627621117 10.94449801540358890861
O  16.48270941364278741048 38.61526295301538169724 11.17470207186708108793
C  11.70768553620963459139 35.87986916685174776376 11.28592739054010962718
C  11.74695613927483250905 34.56641034768656339793 12.11253462974915429129
C  10.44238848137486463941 34.64806486890837078363 12.93366701388256601035
C  10.26487075290004469252 36.17497656677491590926 13.05757012320389165438
O  9.36199506143151616300 34.02760759434714543659 12.29912634522290204586
O  10.68006129336120579865 36.66782692578650681980 11.79005221601324393532
C  11.07829656402576290475 36.75955695810417722669 14.21925543213518849939
O  10.84628627302734926729 38.12691702979144992014 14.34190155848264325300
P  11.60900599810207900475 38.79043231873453834169 15.68332124058567700331
O  11.42419711294660977785 37.88150617796080865674 16.84192644564613772218
O  13.18590877729124244411 38.65255943609056998866 15.16606802776298579261
O  11.25549144638718601641 40.23161647498161386238 15.71578102923633402099
H  16.11799949727095793151 36.22061901258465610454 10.68039694637379000142
H  14.08567211173990685324 39.77162495833714217497 11.54435856179183517156
H  12.00965880008731723194 38.39330831666072185726 11.61459138767063059561
H  11.50165020450560149357 35.65142032268175853460 10.22833183208522100927
H  10.54623023424602656917 34.17758727520667605404 13.91628466783344819646
H  9.21659424645620894978 36.46198239738188817682 13.16725317319813015615
H  9.53640997849768723427 34.00632029502813935551 11.34776152853760677885
H  10.79781745877628651442 36.26169982647106593276 15.15727850726080561117
H  12.14950424302976017543 36.57755377798284257551 14.05692069805211019684
H  13.26197235549143016442 39.36042311999295151281 14.53072503545332594399
O  11.76706131657624432307 33.42325493192685570421 11.31836504651982977521
H  12.60386664460578742819 34.58357532958099511688 12.80262309828117750499
H  12.51679423193841778073 33.50968260695650968728 10.70741742605287072365
