34
Coordinates from ORCA-job cmp_geom E -1457.586288972197
  P           3.35678262391175     -1.43983644743747     -0.11534728081268
  O           0.46933407334001      0.92638377587012     -1.11418348000437
  O           0.32136525600551      3.91497862296653     -0.50174658288690
  O          -1.61854736676535      2.89235948864394      0.96290334283143
  O           3.17381312268957      0.13086898299083     -0.56695244709960
  O          -3.34494809078107      1.03457790122187      0.10148299625791
  O           4.11565790669510     -2.09217567230266     -1.20133978052119
  O           2.04748931444687     -1.91575004978047      0.40970639888665
  O           4.33593542073981     -1.27816742887952      1.19031740002191
  N          -1.42596865241543     -0.12493673357474     -0.23871852230209
  N          -3.46215185503314     -1.23350001317870      0.19258327319057
  N          -3.52505349995772     -3.50423624604736      0.35406899883228
  C           0.69488612187183      2.81105391590525      0.28796198503201
  C          -0.55089439862978      2.02990213858439      0.69227899067818
  C           1.46144061529701      1.79008256293446     -0.53708674733075
  C          -0.77272118135557      1.15294592821789     -0.54511067597790
  C           2.46068031122996      0.99078695539442      0.27274582899138
  C          -0.73288588969290     -1.27718015238253     -0.16677395312421
  C          -2.80123010818501     -0.07340274784868      0.02589009666807
  C          -1.38765285326547     -2.44195356054697      0.07352344670716
  C          -2.78946431206229     -2.36861146659642      0.21146755933659
  H           1.27387107892088      3.13841995740912      1.16086800220676
  H          -0.32289404272191      1.38374432743712      1.55058078349666
  H           1.97725106725680      2.28287710821541     -1.36493074444611
  H          -1.44350132804663      1.67225806712864     -1.23973160184457
  H           1.94153425447107      0.42753570934924      1.05804275061333
  H           3.15139387884451      1.69530526940968      0.75886162870819
  H          -0.56969594562268      4.14211065508465     -0.19654796372265
  H          -2.42306999561846      2.38594449786287      0.70879979107618
  H           0.35371148608272     -1.24973303333115     -0.27017072487920
  H          -0.82882869500992     -3.36423498256526      0.14230055049621
  H          -3.05756945362974     -4.34640734207803      0.63498875510917
  H          -4.47682383954189     -3.37535646042189      0.65073778299789
  H           5.23506497653158     -1.33691352765457      0.85606014281368
