160
5 Eopt=-403.1614950737 (Eh) Einter=16.579389 (kcal/mol)
Si 3.55619753639978064541 33.84476442856536948511 7.82276357751067319413
Si 3.55590021765178132540 30.76676464234489571936 7.82284079818294131314
O  2.14725499693378729660 34.47991502080812864506 8.40973852911663932730
O  2.14683493638703559725 30.13191591060085272602 8.40984764425572350888
O  3.71004511465828645811 32.30576445186535039511 8.41280327271710248738
O  3.55520841419763300451 33.84672284702309497106 6.16676352428588891996
O  3.55491063260422635040 30.76472336642617477764 6.16684084276089983234
Si 6.21945436005895135878 26.15150720286750996024 7.82297308159526849636
Si 8.88330595703396141971 24.61424972730280558153 7.82302826725691513587
O  4.81038912303931187608 25.51665837089694832684 8.40997994556507855179
O  7.47536352617101051976 25.24940041196615680974 8.41000351943290880286
O  9.03815421867436796788 23.07524945346932554457 8.41306749758628313884
O  6.21946467163511318432 26.14946603000570135578 6.16697313176968009429
O  8.88331682300414016140 24.61620854981598682798 6.16702822475898582155
Si 6.21975164864006124787 29.22950713407720968462 7.82289629642148565125
Si 6.22034606472612061623 35.38150693506877786376 7.82274214759473895953
Si 8.88419751109024247171 33.84424957466995209643 7.82279785620147194436
Si 8.88390008791614960160 30.76624970355081956086 7.82287494197367117010
O  4.81080926553730847672 29.86465800597089526036 8.40987141425785544868
O  4.81128093015409330491 34.74665786385070020970 8.40974902384713018932
O  7.47625510303017115632 34.47940034837697709236 8.40977289699666386014
O  7.47583500940636458409 30.13140043831862868728 8.40988179956168124818
O  6.37359925328299237179 27.69050701041309991979 8.41293572197558958692
O  9.03904501725613584995 32.30524947347520736685 8.41283743256890836903
O  6.21976243084214441836 29.23146574671502051501 6.16689624689743620678
O  6.22035653790748099823 35.37946534259076258877 6.16674219854921101813
O  8.88420829189556471306 33.84620807582212620446 6.16679779503280744990
O  8.88391050763677903035 30.76420830517499993562 6.16687499346035750136
Si 6.22064342812616910550 38.45950675872236956820 7.82266469595813163096
Si 8.88479196309363139505 39.99624949914030480613 7.82264305040856733342
O  4.81170078723387995012 39.09465713687846744051 8.40963963087935972851
O  7.47672682199920668467 39.36140026635150235279 8.40965003300477675907
O  6.37449096669066683774 36.92050681787840460402 8.41270448543619764337
O  9.03993734007963922750 41.53524934423089121083 8.41260523411258986926
O  6.22065423088346580727 38.46146494230733026143 6.16666464598546948395
O  8.88480247250886812083 39.99420773013467567125 6.16664310213646782444
Si 11.54845424207652193616 26.15099225064994925560 7.82300716334034351718
Si 14.21330580896955808612 24.61373494042894449763 7.82306277980440967212
O  10.13938923621867971292 25.51614300792545009244 8.41001392121373925193
O  12.80436343206443616793 25.24888575065853757451 8.41003760106069542246
O  14.36715412049175277787 23.07473491454792480226 8.41310175559183903715
O  11.54846469200675507238 26.14895112729897874715 6.16700719315368139917
O  14.21231682062118117926 24.61569389695600662549 6.16706239556601065743
Si 11.54875147111802569100 29.22899237606886302387 7.82293041416963852441
Al 11.54934602178945368678 35.38099215607267922223 7.82277643902303054801
Si 14.21419707581008928798 33.84373478697090575906 7.82283185240232636914
Si 14.21389969264851416142 30.76573498039850917962 7.82290930971391507143
O  10.13980914937690869237 29.86414304870577041129 8.40990553876275725997
O  10.14028076383915788483 34.74614308807899476506 8.40978320932324763248
O  12.80525497538045343049 34.47888564021061341691 8.40980699208078341655
O  12.80483490175452487847 30.13088542948488068873 8.40991585597538460206
O  11.70259910973499195563 27.68999212916380514571 8.41296982757997824365
O  14.36804498378647387824 32.30473464971470320961 8.41287143529998360236
O  11.54876231308103307072 29.23095089160020876307 6.16693037405719657329
O  11.54935626025294403973 35.37895056889787070986 6.16677635243939459286
O  14.21320802962580920337 33.84569331097918620799 6.16683187474357552560
O  14.21291019559105883729 30.76369345590621762199 6.16690897349257127757
Si 11.54964334844843065753 38.45899207694654364786 7.82269886559977933871
Si 14.21479182441261812642 39.99573458139165893499 7.82267713123369112793
O  10.14070098748691961532 39.09414296831851487468 8.40967387766296958773
O  12.80572674286533541022 39.36088552002806295604 8.40968415546662839688
O  11.70349082985939759283 36.91999208114955166593 8.41273860669615736185
O  14.36893717974907858093 41.53473451357568535514 8.41263927768428665388
O  11.54965410559201188789 38.46095034607272111771 6.16669881902282668307
O  14.21380227474767821150 39.99369288725239357518 6.16667717668031301059
Si 16.87745391651622739460 26.15047772364135170164 7.82304131219500309413
O  15.46838907306718269297 25.51562813241302762890 8.41004818191585279408
O  18.13336283284968430962 25.24837070881930145561 8.41007178943175226493
O  16.87746411401405310926 26.14843619671867003262 6.16704133759999884035
Si 16.87775128119384504544 29.22847713676966563412 7.82296443807573727014
Si 16.87834579452910332975 35.38047781487527743138 7.82281026256424194543
Si 19.54219729044603326429 33.84322041453396678889 7.82286567244107899910
Si 19.54189967738419397847 30.76521995205793658101 7.82294274927595001401
O  15.46880899398438558023 29.86362861102300314542 8.40993957427303584495
O  15.46928069462298438452 34.74562818330663560573 8.40981726691003927954
O  18.13425447933416378987 34.47837043157258563042 8.40984071662905918743
O  18.13383459852897416908 30.13037098510584499422 8.40994987000987492820
O  17.03159863947958285735 27.68947748829074839705 8.41300387515117797932
O  19.69704439159227504774 32.30421982514783962870 8.41290515849784803493
O  16.87776193905502708503 29.23043616467256811120 6.16696437207127523550
O  16.87835593494008179505 35.37843569631436935197 6.16681023523418492260
O  19.54220743365897661192 33.84517851164241619699 6.16686551763540524718
O  19.54190966301212384337 30.76317846700921521119 6.16694280797800420402
Si 16.87864313075959898924 38.45847738469201004818 7.82273276376127046916
O  15.46970084867478689716 39.09362819459658311416 8.40970792479731343860
O  18.13472631178250793482 39.36037116611618102979 8.40971797301652479462
O  17.03249064075652796646 36.91947730361231094776 8.41277247353759527471
O  16.87865370764313865948 38.46043573507488133600 6.16673271701461889194
O  20.79780833195123079804 29.86311288604125735446 8.40997324823752023804
O  20.79828002472530812383 34.74511388837989045442 8.40985081136047440964
H  4.07465742953141951688 24.98677204248120986563 8.03659115494946973968
H  1.41040896891947298286 29.60201496999051329340 8.03674925608565438040
H  1.41040900904063093435 35.00798498476948594771 8.03674926174060821893
H  4.07465743695907267607 39.62322797148659958566 8.03659115984487470996
H  8.94818085557852604950 22.17325471277988668817 8.03830169009560613347
H  8.94818087606816270352 42.43674531320917253652 8.03830168112174803241
H  14.27776167896086789710 22.17320383427009033994 8.03828220410834859422
H  14.27776172986907710083 42.43679616153888645158 8.03828219213709616042
H  18.96055653994742939972 24.87622769191328231386 8.03640575785243527207
H  18.96055653335768198531 39.73377222753833137858 8.03640577854365290023
H  21.62471723008873425442 29.49141993029996200448 8.03658340834290463306
H  21.62471723982958593524 35.11858007674435810941 8.03658340891891675994
H  13.39922794858161481102 34.28531246429014345267 5.85463176822021313939
H  10.85603171170814462698 34.89218232720524071055 5.71721595743272992252
H  8.79316678182058986124 32.97374190287720097103 5.76219940812534225927
H  9.66357961461230274836 30.35160700958261159599 5.76895568169918071533
H  12.30629751223033707674 29.68608884502370415248 5.77123880839178404756
H  14.17430147416980723563 31.65300280966159007789 5.78286318434784085696
H  13.45700859329176779511 39.52750482937408094131 5.78093078855215836143
H  10.82185198629896838440 38.95872177672767122658 5.76976940790086789690
H  8.14980839564947601161 39.50861002884888506514 5.76627385356650723480
H  6.23194667493585630069 37.58116492071940228925 5.76471310412973281245
H  5.44704955497099785333 34.95093754162456889389 5.77257540950861525175
H  3.60664936218049003713 32.96826993079925216534 5.76388710685693261837
H  4.32819223176866341163 30.34484056064304979827 5.76402041673783571696
H  6.20754699167679646621 28.34935900054081159283 5.76818373915170390376
H  7.00943285633977275495 25.75772182312031333140 5.76748914513970412088
H  9.64047060900438879116 25.06526887846588280695 5.76511829292711919237
H  12.31477063364149771019 25.70825777463606698348 5.77188275920512339212
H  14.95393929864695259369 25.09100722444165754155 5.76597663151335027010
H  16.85170396868590358963 27.02666099962194223849 5.76146800604454156769
H  17.64768339846278166760 29.66420704444109190945 5.77142433531772525157
H  19.48180901800927955492 31.64168673598834402583 5.76490010634243255083
H  18.77140970121505603174 34.27358370914531349172 5.76790924631431867198
H  16.89481964261684154849 36.26079391428983456080 5.76914704169855863114
H  16.09152697016634192551 38.86028470221759789638 5.76951241492865918303
P  14.13706136837073223944 27.97018642984855318900 10.00536180933270813398
O  16.45106528807030699113 31.02794997613123939573 10.66463901305728967372
O  19.09569602062708071344 30.84493293448691630942 12.09266024079388657242
O  17.59040431788056224605 32.63625699514820865943 13.61365838165854036390
O  15.68744839198507179390 27.96975596850980849695 10.65044394127316706999
O  15.95714833878894189922 34.49201701244213325026 12.69117671791355839161
O  14.20740456430695886070 27.71206069817075245965 8.54120429933429115010
O  13.42072644571264028457 29.07933461672422126298 10.67374288196107201543
O  13.63406897853441535062 26.57295970401847995390 10.72968377546629703545
N  15.04752959628881825438 32.70515904967732012665 11.60596549971116786537
N  13.87172276652656677243 34.73115676455063294270 11.87322298723828062350
N  11.75772490354794364009 34.98112333124934991702 11.03797108634903878510
C  17.80260735465699895030 30.45985446149686382000 12.48800161113176443450
C  16.91236730363935691912 31.65029725050595388325 12.89989669800857718940
C  16.99688338145469401752 29.88241090606002714480 11.31410161050889584544
C  16.38046714786285207310 32.12019477379761411839 11.52497125731919069835
C  15.93800646230636175460 28.83517271870079667906 11.70418767687928252030
C  13.94180269235338620604 32.09528456006974295178 11.12404847329895929420
C  14.97960045474503054663 34.03640182489475307648 12.08405141568879592739
C  12.77759980155566665871 32.78836364010992099338 11.01196784960718666468
C  12.81985276044597910072 34.18087483809632232123 11.28101021936902448317
H  17.94564370548934917338 29.75200695776872450438 13.30659084652895529644
H  16.06289084742531869665 31.25643710399006991452 13.48613829559528909385
H  17.65566316024509063709 29.40201367789019570864 10.58573965026633700859
H  17.02936229673607826385 32.93342186236647251008 11.14616877843355169375
H  15.00050454266746235987 29.32750671581116819198 11.98607840879067865103
H  16.31818922445327757487 28.24783545870906920072 12.55603965183648362824
H  19.01083807178209994504 31.36619939518119437594 11.28423678785705064342
H  17.11277809378681169505 33.48092230068385788400 13.39944584303773389422
H  14.01442106699145284665 31.05530818641019408233 10.82438031888080409715
H  11.90089162924100740781 32.31657063405732088768 10.60726919251470512506
H  11.13979726486446431011 34.68084177270946355520 10.29392336947730157704
H  11.99213750753907170576 35.96246760119389307420 10.98266258226171743217
H  13.41881319791644422423 25.99601564182669122260 10.00508992791223938923
