163
3 Eopt=-411.2069490026 (Eh) Einter=-15.265158 (kcal/mol)
Si 3.55619758053861456659 33.84476441557117709635 7.82276356981272247282
Si 3.55590019436189219704 30.76676462257655941812 7.82284078537752591842
O  2.14725500153927129077 34.47991502021962162416 8.40973853250517322522
O  2.14683536179149214718 30.13191591173801242576 8.40984768945965477371
O  3.71004505520598915069 32.30576446770234610995 8.41280328761073015187
O  3.55520841280569399601 33.84672284908179307195 6.16676352222382817558
O  3.55491062929971057827 30.76472337627886588507 6.16684084873928384241
Si 6.21945435954281045099 26.15150720529288719263 7.82297308200157903713
Si 8.88330595028258684920 24.61424971544185069661 7.82302827198342054515
O  4.81038912269512941577 25.51665837118268953532 8.40997994558865613612
O  7.47536352306409579427 25.24940040993192980068 8.41000351810666124663
O  9.03815422692425762818 23.07524947470207621336 8.41306749402839493257
O  6.21946467107512468431 26.14946602929875751897 6.16697313207120334511
O  8.88331682524918697652 24.61620855283707243188 6.16702822401849548584
Si 6.21975166086694919443 29.22950713289933943884 7.82289629986613377355
Si 6.22034609686543227269 35.38150697797316013293 7.82274215355150737139
Si 8.88419759055748237131 33.84424975290072978851 7.82279777414673205271
Si 8.88390002535876988077 30.76624970797015379276 7.82287491880187424442
O  4.81080924586549762978 29.86465800911084755853 8.40987141848847663539
O  4.81128092576321542140 34.74665787004963846130 8.40974902670795465554
O  7.47625504803140561449 34.47940027948880015174 8.40977287910527060433
O  7.47583501676088424404 30.13140043997841033274 8.40988178539143760304
O  6.37359925593762532969 27.69050700985715707247 8.41293571942786755358
O  9.03904497235480519635 32.30524943747399646554 8.41283749266494496055
O  6.21976243154543784186 29.23146574824563259654 6.16689624704163286140
O  6.22035653001916521987 35.37946533727615872067 6.16674219783071464462
O  8.88420827311644600854 33.84620804554272410769 6.16679782718021929355
O  8.88391051294227196422 30.76420829929402600555 6.16687499192581523033
Si 6.22064343871813285602 38.45950671337543269601 7.82266470346778053369
Si 8.88479198094979238931 39.99624947962973209314 7.82264305089667555393
O  4.81170078344327745157 39.09465712852003349553 8.40963963559174665363
O  7.47672679509906501494 39.36140034555303657271 8.40965002625820190474
O  6.37449096786085434019 36.92050681722459160028 8.41270447540798471664
O  9.03993735443842361121 41.53524934073182350858 8.41260523401565052382
O  6.22065423898100711142 38.46146494566093565481 6.16666464499978772551
O  8.88480246213438995539 39.99420774937782852021 6.16664310503509494055
Si 11.54845427310159600154 26.15099232936612239087 7.82300714172520184064
Si 14.21330593483607351857 24.61373493444293814036 7.82306250656665280729
O  10.13938923024405092121 25.51614300980884308956 8.41001392883660159328
O  12.80436339580187166121 25.24888564520568223770 8.41003769890320995728
O  14.36715392065882390682 23.07473506463675860800 8.41310186205002352722
O  11.54846468136340753574 26.14895111234805114009 6.16700719786010154166
O  14.21231678717186142080 24.61569387425935673264 6.16706249205946832603
Si 11.54875138912684207071 29.22899225393488720215 7.82293046223375387882
Al 11.54934583397909086955 35.38099242358793361518 7.82277638071437042555
Si 14.21419729298834511155 33.84373447799368506139 7.82283215729547976025
Si 14.21389981807563351879 30.76573484778670675155 7.82290905069557496176
O  10.13980929270637965089 29.86414307803797640872 8.40990555138587225770
O  10.14028084176403510241 34.74614289823707480309 8.40978330063796164495
O  12.80525495613685649232 34.47888565440776176274 8.40980685002219274793
O  12.80483483238552722128 30.13088561349719185500 8.40991593827159178431
O  11.70259912838966265269 27.68999212755277383735 8.41296978946391149634
O  14.36804489802970685730 32.30473482924274719608 8.41287140897358831637
O  11.54876231356166904618 29.23095090245237415161 6.16693035850479720494
O  11.54935628240254175125 35.37895055233596508515 6.16677636635023684875
O  14.21320803034910440488 33.84569344645485244882 6.16683179423992910984
O  14.21291020896817869357 30.76369352191090555948 6.16690908109814728277
Si 11.54964333194286574269 38.45899210109607224695 7.82269887068909586247
Si 14.21479183356003161975 39.99573457310156499034 7.82267713276315124205
O  10.14070097073215315220 39.09414289329231451120 8.40967387304314861751
O  12.80572673129418426186 39.36088552903291315488 8.40968415282789827359
O  11.70349090385561829919 36.91999204596938710665 8.41273859002538948459
O  14.36893717924878721703 41.53473451406558325516 8.41263927790248544625
O  11.54965410294509631228 38.46095033164919385626 6.16669881954476917230
O  14.21380227411522056968 39.99369288979093539638 6.16667717701438533595
Si 16.87745390657187627426 26.15047762055723268304 7.82304130344974613109
O  15.46838899949549173130 25.51562836031146375149 8.41004824812287665736
O  18.13336275164939337401 25.24837058589719163137 8.41007177027425001370
O  16.87746415455805149008 26.14843622912172449446 6.16704135705030509484
Si 16.87775123254979803278 29.22847752753075667442 7.82296442310972661716
Si 16.87834565651963458777 35.38047740547679609335 7.82281022253372437802
Si 19.54219698246487624260 33.84322010746285513960 7.82286558101700091328
Si 19.54189956433177854933 30.76522001770191039327 7.82294276223022233552
O  15.46880890332229263606 29.86362830190769912519 8.40993960381282334993
O  15.46928065423270126644 34.74562835364302770813 8.40981720810970578839
O  18.13425470478376055894 34.47837079962228301611 8.40984081304120323352
O  18.13383459176978007577 30.13037082492655827082 8.40994984751407059775
O  17.03159884001145130128 27.68947742982276949419 8.41300387030762486518
O  19.69704456058806130159 32.30421987229422597920 8.41290517281285943341
O  16.87776192956528475975 29.23043612861347639864 6.16696437372925210241
O  16.87835593381581844596 35.37843579701542751081 6.16681025525739201498
O  19.54220750409548301718 33.84517861102964531028 6.16686553202519860406
O  19.54190971236083385065 30.76317845081911528382 6.16694281166075342071
Si 16.87864312648694209429 38.45847737948396627417 7.82273276542347062446
O  15.46970084614211415897 39.09362819358597107566 8.40970792158582014508
O  18.13472631085815223173 39.36037116632854804266 8.40971797620220584690
O  17.03249066767630992558 36.91947735717131706679 8.41277248716771985926
O  16.87865370764945893711 38.46043573844740848244 6.16673271717321558327
O  20.79780834104960263176 29.86311287998643848596 8.40997325047573696111
O  20.79828018487366136924 34.74511395378799250011 8.40985080483160096776
H  4.07465742975971956241 24.98677204208837565602 8.03659115495454479117
H  1.41040888929450147771 29.60201496168495438610 8.03674921625431437633
H  1.41040900754301468112 35.00798498482663489995 8.03674926171059134106
H  4.07465743825950710288 39.62322797855436817827 8.03659116039840171197
H  8.94818084741806885063 22.17325470657749519887 8.03830168963164659601
H  8.94818087422414265575 42.43674530246791221089 8.03830168126805233442
H  14.27776177893369258243 22.17320381271575513438 8.03828215176657145946
H  14.27776172932689924266 42.43679616197159987223 8.03828219214593708841
H  18.96055658525453679886 24.87622777269751139784 8.03640577857543725315
H  18.96055653309470301338 39.73377222799636143691 8.03640577830675617577
H  21.62471722989532807446 29.49141993083263457720 8.03658340898572198796
H  21.62471686547593563432 35.11857990670704054992 8.03658346135129164622
H  13.39922793019842472972 34.28531241311489452528 5.85463176482975811155
H  10.85603170230085900982 34.89218232721014345543 5.71721595179710107004
H  8.79316678026759035447 32.97374190850050013069 5.76219940114704876066
H  9.66357961945707266693 30.35160700716528836551 5.76895568131324409933
H  12.30629749726701227530 29.68608883536820286508 5.77123880137922284916
H  14.17430145722220302673 31.65300276112423460972 5.78286316504493491664
H  13.45700859251503977987 39.52750482771514839442 5.78093078828329431929
H  10.82185199108529261025 38.95872178350722947471 5.76976940840693952595
H  8.14980840013932272825 39.50861002098604046751 5.76627385342397413837
H  6.23194666831864019230 37.58116492175674494547 5.76471310515754442605
H  5.44704955442658356191 34.95093753838911965204 5.77257540952776615484
H  3.60664936152833881522 32.96826992723310922884 5.76388710792416159023
H  4.32819223554516963048 30.34484055101182775616 5.76402041743654969252
H  6.20754698967165818857 28.34935900007336329054 5.76818373885017798841
H  7.00943285675222593767 25.75772182341112426229 5.76748914510983645698
H  9.64047060818021250839 25.06526887649977197725 5.76511829260977037848
H  12.31477063357884738082 25.70825778322621957273 5.77188275870163014503
H  14.95393929518331432860 25.09100722656961934831 5.76597662030062885208
H  16.85170393449361370131 27.02666099250782494323 5.76146800098118561095
H  17.64768340201278107315 29.66420704513210893083 5.77142433795041487343
H  19.48180900410288884927 31.64168672058654152579 5.76490010379865847057
H  18.77140968836990353452 34.27358367950824202808 5.76790924604300769829
H  16.89481965102062588358 36.26079389715744838441 5.76914703401205386513
H  16.09152696986192054851 38.86028470195753214966 5.76951241497934219638
P  3.01423960221065989629 28.08969899206771714262 11.03719361585348401888
O  5.64886103809065520664 31.75482639708654275523 10.49931889470254020580
O  8.09331866450466108631 32.36114967764786598536 13.02422218285807176130
O  7.92057455360290241231 30.07952573807236262837 11.60058378251802402303
O  3.27976216630767503091 29.73952619592135704352 10.87301864953200158936
O  2.55678334363575032739 27.84091320681095993450 12.42989098911119150159
O  4.56159493527672488256 27.52420333485503078919 10.93483888987730168196
O  5.29418101591210810142 38.52902840499293546372 11.54958222165527281788
O  2.23919187575372724552 27.63387428527846623183 9.85109016008058091529
N  5.83073723603708682361 33.94772170355523854823 11.33507092896818946315
N  4.30008519256574128775 35.53967937763274420604 11.64975023191845870940
N  7.79635443876048039868 35.30173419382433763758 11.01489361842595471330
N  7.29158282635127008575 37.59156105330698949274 11.03600379491800964615
N  9.43833741540773907275 36.82778646036145886455 10.53246979230315005793
C  6.83831650606987384577 32.01671979920238442219 12.53539058436292030763
C  6.71345793835475657119 30.51857971111133593922 12.18293341952624331270
C  6.46995164198970851288 32.66649711461484173469 11.17392925321897934055
C  5.54782765333915861561 30.50878361277916894778 11.20001805583836684832
C  4.14722773995272753211 30.28745891352619779013 11.80477736098732677306
C  6.48641057492137029783 35.13514212482682097516 11.25460416158731646874
C  4.51818267180325605636 34.26277467595767234343 11.55669129608966727574
C  5.52632699282551076436 36.13171483429668029430 11.45896544690795515464
C  5.92671048234461395054 37.50076288384943268284 11.36749081135318206748
C  8.15007181953441950384 36.54200438839030340432 10.82939995252510101409
H  6.10377468079900520337 32.30360689657899087024 13.29507837249436441596
H  6.54293736771945066977 29.89218340928002248802 13.06115162008906338542
H  7.38485703058107478824 32.87646163283783806719 10.59461978212642030428
H  5.68816459104191274321 29.71284112312753933338 10.46736700842858169835
H  3.73508274131458328782 31.25039145615346924956 12.13419016406654193929
H  4.21980233212536059995 29.61033828182132765505 12.66634185877762774908
H  8.74156575956948600492 31.89401579856902912979 12.47337700757573131227
H  7.88580144849199982104 30.22572282360362549980 10.64564491345083752094
H  3.75688889654437474519 33.51111431385244543435 11.61094850102025333172
H  7.60610173156851843146 38.52161889913308812083 10.78925857180967540216
H  9.63482417559517756445 37.69417809963857735056 10.05379369136486289449
H  9.95641129604252839158 36.04291030004526419361 10.14982196713859963211
H  4.77950896945150915940 27.48150364096607134456 10.00858307177566075552
