163
Coordinates from ORCA-job /data/Seafile/gmp/al_surf/frames/frame35/gmp_al_frame35 E -13492.858653731459
  Si          3.45241573311794     33.85121870313539      7.79984703070522
  Si          3.46413988450749     30.75416660344347      7.77513191874360
  O           2.21505878958346     34.67424618741119      8.46310301542993
  O           2.21379763674429     29.95994968191296      8.44930306742231
  O           3.47185524210958     32.29944176455326      8.31995813229350
  O           3.40990457812691     33.86638166292304      6.16195655511061
  O           3.37379595188450     30.83926775226538      6.14206960732863
  Si          6.15238763728394     26.09231671878316      7.71112435257621
  Si          8.84285180221875     24.52840869072348      7.76761441749280
  O           4.82884299969058     25.45257574796263      8.43895943889890
  O           7.49771683390047     25.33699446822918      8.24507687114527
  O           8.77985272019697     23.04499472981758      8.43690273395405
  O           6.05083013101154     25.99180116683763      6.08589486663193
  O           8.83945942834289     24.47798845828162      6.13403138995001
  Si          6.12160409257365     29.19863963899977      7.55984164441332
  Si          6.09185191004124     35.42121363685829      7.62821630046755
  Si          8.86624731976464     33.85486587544290      7.58769867984730
  Si          8.87886141754623     30.77479446959187      7.54673322313639
  O           4.86610488915779     30.01839001470833      8.20500486094556
  O           4.83083837598503     34.60337441943978      8.26869515453105
  O           7.46153179799442     34.62018478546240      7.94420065125477
  O           7.51096625862679     29.97438504382361      7.89718628022049
  O           6.21255831478147     27.67288500002900      8.12466339525023
  O           8.77595525603972     32.29154625874367      8.12549526393775
  O           5.84698129432245     29.17268142476669      5.94628618433676
  O           5.86385421826733     35.60182103113809      6.01558049371929
  O           9.02351894991735     33.78893652432297      5.95299261588569
  O           9.10090761518874     30.86491777596760      5.93038036368435
  Si          6.16557430024154     38.51220429273278      7.77273788621326
  Si          8.84837467488188     40.08316897465358      7.79672230442309
  O           4.92029223542048     39.33757363789937      8.42780782248911
  O           7.55508506222545     39.20853157810410      8.30169411524273
  O           6.16657219820559     36.93897178689350      8.23812909562206
  O           8.65754029779487     41.58506129057732      8.40236984644991
  O           6.16904155054699     38.58520660614213      6.13772606165477
  O           8.91941772106126     40.05341784635196      6.15783096538189
  Si         11.50990984869184     26.08163247404122      7.69007451055661
  Si         14.17646300079281     24.53060255270698      7.78447454391698
  O          10.16397418137922     25.36405585602432      8.27589066976998
  O          12.86195242566153     25.38465437216289      8.27923357659219
  O          13.99253803321594     23.03232784979796      8.39260165195565
  O          11.46177789292185     25.89660831432871      6.06498051927783
  O          14.18319415928776     24.53593493566721      6.14653184324805
  Si         11.53578835379811     29.23924563192356      7.67361987206239
  Al         11.63460899544529     35.39701481340006      7.71932936969374
  Si         14.26974852098970     33.78960345149379      7.80675616829594
  Si         14.20532856072735     30.73747154347657      7.74197968226034
  O          10.15766476528686     29.96537061571551      8.21277712875407
  O          10.10407948787909     34.65325427019008      8.22577565955981
  O          13.05387318918746     34.61667203776647      8.44230303171555
  O          12.87038131628825     29.94927568276335      8.29696357459740
  O          11.48182691927709     27.66641276277188      8.08828580456900
  O          14.34173401918568     32.23189614828682      8.37211227816694
  O          11.55663701930193     29.41496855964707      6.04705970272938
  O          11.84423651950065     35.10835829597506      5.98774861045358
  O          14.07583971442477     33.66102977566124      6.17759024192399
  O          14.03116173590237     30.85979765429276      6.11707219826253
  Si         11.59958896188832     38.65769218878211      7.75192717679714
  Si         14.33931071010318     40.08291087684934      7.81688341637127
  O          10.24784256923721     39.41763328481483      8.32031387658134
  O          12.94972798284407     39.40119780753886      8.34719252506493
  O          11.59924162626967     37.10751768805682      8.12506498935696
  O          14.55459319944788     41.58554508283559      8.41422425976636
  O          11.66816777514778     38.92625127676542      6.12506010779012
  O          14.35074074842726     40.04428827934156      6.17818292803353
  Si         16.89811194912086     26.02241022260139      7.81510785565114
  O          15.53410528308386     25.26807574279334      8.32350152187906
  O          18.16393150907715     25.23142868444245      8.46427167141797
  O          16.88356728802374     25.98845948144760      6.17895956749300
  Si         16.91402450909774     29.10969509881273      7.72551896410450
  Si         17.03179804448633     35.34372019040468      7.72786215972055
  Si         19.68609172468606     33.77057762772594      7.79708391765557
  Si         19.57532369797623     30.66558706703656      7.80821900929293
  O          15.51588257695416     29.84751802415471      8.12011743546101
  O          15.71999435023036     34.48603462385540      8.14516169418381
  O          18.35772892911943     34.58129074994107      8.31511396608007
  O          18.17760607840104     29.96137119103383      8.31256887555136
  O          16.87799360860735     27.58595775568260      8.31726353514496
  O          19.63267435499309     32.21787251332027      8.32750907507008
  O          17.06426892784847     28.96958771230672      6.10180787685449
  O          17.21741683932817     35.38720237962760      6.09947853259263
  O          19.66369048410503     33.72133476120387      6.16024783630810
  O          19.56730867773526     30.65466114041926      6.16994366802706
  Si         16.97599834473075     38.43851729249793      7.79448640336102
  O          15.64056260469557     39.21967743579922      8.32967723708262
  O          18.35623800298373     39.06167570008637      8.39557038130145
  O          16.93343867045551     36.87381651230227      8.29574343086208
  O          16.96214280242680     38.43611282841836      6.15587339365146
  O          20.78040678758996     29.76599655553030      8.42999618631892
  O          21.06420245862689     34.40603651318417      8.38984881590606
  H           4.07465742682166     24.98677203832765      8.03659115380536
  H           1.41040889264685     29.60201496590032      8.03674921724528
  H           1.41040900954988     35.00798498280306      8.03674926145757
  H           4.07465744183821     39.62322797668542      8.03659115988376
  H           8.94818084775836     22.17325469665126      8.03830168900233
  H           8.94818087305357     42.43674528678730      8.03830168188396
  H          14.27776176786737     22.17320386081488      8.03828215441157
  H          14.27776172260499     42.43679617649190      8.03828219174793
  H          18.96055659131245     24.87622776981140      8.03640577733637
  H          18.96055653053204     39.73377222352372      8.03640577878615
  H          21.62471724691075     29.49141991653267      8.03658340795973
  H          21.62471685758391     35.11857989479100      8.03658346182927
  H          13.24848584492744     34.14844009572862      5.91065940953064
  H          11.06645915033897     34.72506430690442      5.56873627360780
  H           9.05894006301475     32.88869921258001      5.59842690411585
  H           9.89792030708707     30.40863308657502      5.61323620867939
  H          12.34339537938013     29.88625907119895      5.72133421649698
  H          14.01958965245717     31.79417116543252      5.82783500177863
  H          13.51008984490601     39.74079742824188      5.79885457594556
  H          10.84440921702220     39.26078109718452      5.74374259476848
  H           8.13614102614389     39.69904436288816      5.71750745949810
  H           6.03219375511868     37.73252458297222      5.70045302442492
  H           5.15070960528867     35.06439438645107      5.64362731271693
  H           3.38852022514410     32.98839010132433      5.75516245898988
  H           4.02133819254522     30.29221638220681      5.67512595970585
  H           5.99976221986401     28.33004244771614      5.50243904693631
  H           6.77994377029898     25.53258301524937      5.65056721799762
  H           9.62745038928108     24.85819424004653      5.71975020508736
  H          12.27258898203595     25.54885053999160      5.66865404641933
  H          14.94767148568676     24.97440969212506      5.74799213141323
  H          17.01099109448030     26.85153705241985      5.75902512826676
  H          17.76916661587208     29.50517807837824      5.71121620031463
  H          19.58262688991848     31.53172587102503      5.76188910084889
  H          18.96030922771459     34.25233227934518      5.75765281661976
  H          17.10534207887375     36.25932944444722      5.69759041242359
  H          16.18958622709302     38.86604916773823      5.76291690903434
  P           4.29041351195629     27.14455210963270     11.80392987007307
  O           7.07745641231830     30.40661591486148     10.98478847976391
  O           9.93982582894684     31.38069655632177     12.88219022618942
  O          10.08494021946147     29.27487172952004     11.19520549790714
  O           5.39343905072780     28.26582063246967     11.39463149709423
  O           4.24348130204673     27.01507155141187     13.28739808186999
  O           4.93867442175933     25.77281477811445     11.24848843306708
  O           4.99836702045087     36.51240994855372     12.70902945041465
  O           3.07523380933721     27.49138604826345     11.01471458589836
  N           7.02932408349376     32.46374477781254     12.01826957275151
  N           5.27225789428611     33.43674528202308     12.99119754385407
  N           8.13425071901898     34.39032766684056     11.06845951317607
  N           6.93485466979981     36.36166594544473     11.52359351222914
  N           8.90363595260139     36.42118867819897     10.30342355449971
  C           8.74160615951649     30.72474732918351     12.60059882896103
  C           8.92728352286076     29.32372163348233     12.00540485456474
  C           7.88697867197021     31.41338211230067     11.53260446134550
  C           7.61741579283768     29.10708434530227     11.25773508413098
  C           6.63413883948599     28.29116144101218     12.06641359707506
  C           7.15170008405511     33.80058434050051     11.76340393874681
  C           5.88201259595059     32.30868196972961     12.75996683190089
  C           6.05350751239976     34.38942541650401     12.37473097506877
  C           5.89019493265703     35.79785060349946     12.26458832899167
  C           7.98237980108233     35.69186186771984     10.96131153676289
  H           8.16337105983774     30.65440654872035     13.52586286296514
  H           9.07228590163584     28.58007593567493     12.79040784407729
  H           8.53220107496045     31.87595876809743     10.77647569003332
  H           7.79741271416626     28.60987686427040     10.30000381008852
  H           6.51104259122354     28.72567182402334     13.06505593076341
  H           7.04285651979009     27.28043649580524     12.17852822391466
  H          10.57528118638979     31.07647003680038     12.21721205087728
  H           9.88962077952045     29.55797385929094     10.29212900731896
  H           5.55006052916450     31.33175861790657     13.07891674951997
  H           6.87435616467266     37.36252471402879     11.39152725401169
  H           8.65188802588456     37.34984372408576     10.00265426966523
  H           9.46460563825234     35.88993165206655      9.64331718478979
  H           4.80650510893393     25.67137760124279     10.28790083810415
