163
15 Eopt=-23.8105452739 (Eh) Einter=-36.354769 (kcal/mol)
Si 3.55625019611119164153 33.84481352397241238350 7.82283052437592463235
Si 3.55593639319413146183 30.76681374840913818502 7.82283149523829735017
O  2.14730565317414168192 34.47995711617961944739 8.40980825182061941803
O  2.14686232005988664184 30.13195801638557469460 8.40980965998847906917
O  3.71008409287789131525 32.30579811995460914886 8.41283351015793101624
O  3.55527628682966323481 33.84681297560324253482 6.16683050745422711714
O  3.55496202322666920992 30.76481349830189415684 6.16683148063547559303
Si 6.21946584970504190437 26.15154206521236801564 7.82287394194139817927
Si 8.88330921954819885400 24.61427032578350804215 7.82291554240221742589
O  4.81039181924847270011 25.51668623380295741754 8.40985212587367847448
O  7.47536479286129207367 25.24941401124566198177 8.40989357675007376258
O  9.03814384299067086204 23.07525464041599150278 8.41291806315280688011
O  6.21949137477626212700 26.14954191135451466721 6.16687394223564311346
O  8.88333532828714922402 24.61627018266872468644 6.16691554212676962266
Si 6.21977960407613128524 29.22954197443549162472 7.82287340226661154219
Si 6.22040692381408444334 35.38154178244177217039 7.82287165060147682283
Si 8.88425008220732337350 33.84427022077730384808 7.82291378220883437677
Si 8.88393595468391339409 30.76626991953690293258 7.82291461123971210156
O  4.81083522162569643399 29.86468585723665825071 8.40985130840345185277
O  4.81133299242433487564 34.74668571371456948782 8.40984984564810567065
O  7.47630573741183823699 34.47941394026884864843 8.40989158819787974153
O  7.47586241396057893382 30.13141409364334322163 8.40989274913202145001
O  6.37361355609670976463 27.69052642765715077644 8.41287612112616578486
O  9.03908411407735279397 32.30525466229001096963 8.41291663886514662352
O  6.21980561968286416175 29.23154162758858376492 6.16687340890040580632
O  6.22043261235852007474 35.37954121067727442096 6.16687165187407071443
O  8.88427617408932057685 33.84626969191118917024 6.16691376333414886801
O  8.88396196289412465319 30.76427000853162141425 6.16691459546036568895
Si 6.22072074878287395450 38.45954160517612763215 7.82287044046722357393
Si 8.88487749799441850485 39.99627009487515039154 7.82291135287719985314
O  4.81177610571656710903 39.09468497614889059832 8.40984815251951545179
O  7.47680356745248797523 39.36141385659328761903 8.40988966412468386125
O  6.37455463215223083751 36.92052622852256860142 8.41287352619539419152
O  9.04002569362990371360 41.53525449283714010562 8.41291308190470843442
O  6.22074678685232651532 38.46154080487209370176 6.16687043972965120986
O  8.88490322600414295096 39.99426934456757010139 6.16691135394263589831
Si 11.54846567327778039669 26.15099871967341726986 7.82295702264598524778
Si 14.21330912192460438348 24.61372708044220303236 7.82299880049513074454
O  10.13939193369160562952 25.51614235232185379232 8.40993507131023676493
O  12.80436465747277274829 25.24887072236744245401 8.40997670652600959329
O  14.36714371873513762523 23.07471152255863700020 8.41300136460641034830
O  11.54849139444944583488 26.14899847490232076552 6.16695697631280204121
O  14.21233531104222969077 24.61572701383349937032 6.16699878091901965149
Si 11.54877917063572922984 29.22899838311468556640 7.82295635025363456094
Si 11.54940675328351495921 35.38099852544912948815 7.82295481077279486470
Si 14.21424992450748447936 33.84372687144328040176 7.82299681218631803858
Si 14.21393602073107587103 30.76572691902352829629 7.82299763551293736441
O  10.13983540496070112624 29.86414288167707553612 8.40993455232034392566
O  10.14033288275020083802 34.74614238224024376223 8.40993307164199777048
O  12.80530557956100778938 34.47887068386651776564 8.40997467754502103787
O  12.80486221805959523579 30.13087068931677947603 8.40997599989289845723
O  11.70261356605314873036 27.68998300214373742278 8.41295913053411936744
O  14.36808379302846816472 32.30471139284613713016 8.41299969042712980638
O  11.54880553917960739341 29.23099832229317840415 6.16695654568885842650
O  11.54943234033334498179 35.37899793455439123591 6.16695479917231281775
O  14.21327587039570694571 33.84572642400017628006 6.16699678258179950774
O  14.21296159786443880080 30.76372666229174512864 6.16699767818999866620
Si 11.54972065884441967398 38.45899842446500116466 7.82295359204756302063
Si 14.21487735411472641545 39.99572667239129231120 7.82299441806806239441
O  10.14077630357755133161 39.09414231212166157547 8.40993138134739481870
O  12.80580347691038767266 39.36087061229976313825 8.40997276719386199773
O  11.70355452158854880906 36.91998300320427972565 8.41295663347325550774
O  14.36902552140452726803 41.53471116339950697238 8.41299609799356673534
O  11.54974665234526831625 38.46099771188822558088 6.16695359176736523921
O  14.21390301441728176712 39.99372599915516701685 6.16699440297832524038
Si 16.87746535804805247949 26.15045546470993187427 7.82304012901242273870
O  15.46839169764699661869 25.51559922380749156900 8.41001836564002758223
O  18.13336401794063235116 25.24832717584950358969 8.41005977568203277883
O  16.87749086395952957673 26.14845510405884709826 6.16704011343821711932
Si 16.87777913163155574239 29.22845534919126109230 7.82303948790263259383
Si 16.87840650131051845051 35.38045526841022336839 7.82303765149044050276
Si 19.54224960055077175980 33.84318370351798677120 7.82307943873404454393
Si 19.54193574701017865891 30.76518363885163509508 7.82308036277384299950
O  15.46883487687479963313 29.86359922277417311420 8.41001745187208626930
O  15.46933270005707683481 34.74559912581619158800 8.41001601181797475704
O  18.13430534102415947473 34.47832742220202106864 8.41005748013908771554
O  18.13386194731980793904 30.13032739825947459167 8.41005881036818792040
O  17.03161319042972365878 27.68943984552351267325 8.41304220001699043507
O  19.69708353378843668224 32.30416803673936243513 8.41308232797282151694
O  16.87780511994908749784 29.23045501118156153098 6.16703947904022786730
O  16.87843199469102017929 35.37845465740603856375 6.16703765341202903016
O  19.54227536052381708487 33.84518324262991484375 6.16707943889961462958
O  19.54196108493390582339 30.76318307673919250078 6.16708037416261412034
Si 16.87872042555173734968 38.45845522855278630914 7.82303646009538233841
O  15.46977615221649671184 39.09359903606717523417 8.41001439970597175488
O  18.13480302865281856839 39.36032777477070965233 8.41005555167939178318
O  17.03255432106969635697 36.91943977506258534049 8.41303947269507546025
O  16.87874623696291820352 38.46045460900206336419 6.16703645961950730481
O  20.79783428335004202836 29.86305522765482933778 8.41010005960011142179
O  20.79833211867269326945 34.74505628373192678282 8.41009857267069804720
H  4.07465742969279265395 24.98677204105474558560 8.03659115500134113574
H  1.41040896898640788493 29.60201496927115272229 8.03674925633630898858
H  1.41040900551596237733 35.00798498783060352935 8.03674926084647012203
H  4.07465743666578461557 39.62322797218762104876 8.03659115986703120882
H  8.94818084653061518452 22.17325470616371774213 8.03830168965853708585
H  8.94818087839312603649 42.43674530330411442947 8.03830168073588602340
H  14.27776169726561761308 22.17320385300466512035 8.03828218848318698520
H  14.27776172823990563643 42.43679616574890189895 8.03828219142511812834
H  18.96055658603068749812 24.87622777539075968889 8.03640577990588766966
H  18.96055653556056697084 39.73377222684809595421 8.03640577821989587903
H  21.62471723082466468213 29.49141993305165954098 8.03658340880109633986
H  21.62471723499623976750 35.11858007481751542400 8.03658341028421396857
H  13.43954240603669347820 34.27033906322179035442 5.76911863123208501491
H  10.79702478114777974838 34.91824967565464987729 5.76839602493811920425
H  8.90770700607374976698 32.96594597102289725399 5.76499475608956934991
H  9.65945431128333531490 30.34299406992836622976 5.76888005015447369317
H  12.30259135557855643128 29.68912270725956403794 5.76803921694016175081
H  14.18560353389704786764 31.64418151324534633773 5.76552258402399342430
H  13.46208429041441156926 39.53603768178325594818 5.76468154403767929495
H  10.78553467860985648485 38.90473306688398480446 5.77122838973222052061
H  8.14831461447548477395 39.50994490505045320106 5.76699955036302558398
H  6.23317386273479101533 37.58286575803674622875 5.76180503591717485534
H  5.45415702056409035237 34.93908511520159976271 5.77152547623647649289
H  3.60566386888604206717 32.96814933244532852541 5.76410508774270802235
H  4.32812544121650066842 30.34544671572909280144 5.76331957716639209366
H  6.21212642416868732198 28.34933201853676010273 5.76816829094143557199
H  7.00946743390630899739 25.75759721979098770817 5.76754704174033427932
H  9.64012207141987609305 25.06582757735954558598 5.76488469560361771471
H  12.31500792790237852614 25.70853945138862428621 5.77192568323073462722
H  14.95343799007971874460 25.09203406422626514427 5.76610003219889577508
H  16.85241663590099747694 27.02653749439168961999 5.76116217482521975057
H  17.64630213564743854704 29.66655897671673614013 5.77122747378195555257
H  19.48194552616420338609 31.64158903490306684603 5.76482831463900247115
H  18.77355784202799782179 34.27390176122320042396 5.76498788541220541504
H  16.88031298498965426802 36.26100719835964980575 5.76894103318698991956
H  16.09309773701118828626 38.86024083819744845414 5.76722976412254073608
P  10.05037082674253490211 27.55103074739781732205 11.24851489023277117951
O  9.46094033321905314438 27.33767021129023788717 12.62556251476007318502
O  9.00603622519037649852 27.50421383216301762786 10.15283415335582795080
O  10.73899373717707561582 28.98928791426279971688 11.14427232106766574304
O  11.21376692768460259231 26.48185831551062818789 10.98885944769625666595
C  12.28703920180487862979 26.63793242284987528024 11.87838217005816332517
C  13.59820391878079703929 26.40143856840824199139 11.11361967773287418026
O  13.95577740286878665188 27.53734179907119994368 10.31527985717355555551
C  14.84526199534426460502 26.03313364364164783638 11.95877226719646557740
O  15.59750166153361305987 25.03153140264002729509 11.31086021855212919718
C  15.64971865891461533238 27.35334731210042846783 12.04826677425605652161
O  17.02913771148831756364 27.13178881341830717133 11.87824587909733509150
C  15.05970710825286218437 28.23379885064113636872 10.91824183674575188263
N  14.72405919341555957658 29.58337726097565933969 11.38914464328872355736
C  13.47102371474019122388 30.16467106604517667279 11.47509441327020240919
N  13.54080920723024483721 31.46827236236022429239 11.50932162808328484971
C  14.86262631362374619926 31.79019285735513022928 11.41596478067335063145
C  15.47135973749326254278 33.01409017774160759018 11.05915622263847630791
N  14.77301927124319647078 34.17491545197358959740 11.00046243185907890449
N  16.76096078273914358192 32.89396965950808038315 10.63140950060518008513
C  17.43174710902158608405 31.69425810751843641810 10.63839070118796570341
N  16.94215157672968530278 30.55319087511237796662 11.00230572035874665460
C  15.63360002047418007010 30.61488034003266633931 11.34062937015719718659
H  10.46145682917924624178 29.35653378989611184124 10.27923341414789248915
H  12.26550896587773031854 27.64899925181634898763 12.31307657109721453992
H  12.14751500855492238884 25.90758120455301138918 12.69209908416833698652
H  13.41129304330191196470 25.58863636489746440361 10.39682578482490882266
H  14.57273070597312170094 25.65107436374356097986 12.95274251397503562089
H  15.59412093766298212927 25.19488403606234783183 10.33573257048274030012
H  15.51350381315702620100 27.85541316430108693680 13.01681817404932495208
H  17.16741736435810139483 26.56214279581811865683 11.09015476174581493751
H  15.80652403557526319844 28.36295642317477216920 10.12267144093008042205
H  12.54064215725205855279 29.62430002815480278855 11.37250112327197015816
H  13.76730406744983348233 34.18765932038543553517 11.07505072203523610597
H  15.13181994881860603641 34.97848414894136226394 10.49768499185433867638
H  18.42560171817580183529 31.66932801695289967370 10.21661587797449044501
H  17.16022460676253302836 33.64844519988800186638 10.06547081329339476952
