162
Coordinates from ORCA-job /data/Seafile/amp/frames/frame11/amp_frame11 E -13464.506177721152
  Si          3.50285204846038     33.89792499814624      7.79129428154903
  Si          3.46588254265729     30.79066580588322      7.81426778913637
  O           2.29026112543481     34.80000772784971      8.39595178969824
  O           2.18010933455778     30.02515315894660      8.45656408645856
  O           3.46346945836268     32.34989754578809      8.32871143024163
  O           3.50976811190896     33.88503915790495      6.15287970662384
  O           3.44293558020920     30.84214141653172      6.17829635849493
  Si          6.14788350814581     26.14228405956327      7.80286483860922
  Si          8.82602310690412     24.54806385691430      7.79891731460589
  O           4.79463504093945     25.50116768107508      8.44080776598120
  O           7.48645624582011     25.34633725423568      8.31427010024305
  O           8.77148711826312     23.04745499623041      8.43148132612119
  O           6.12713735652982     26.15395624927988      6.16524777081056
  O           8.78690815775746     24.55060973638267      6.16304079148190
  Si          6.13488123860869     29.23327213452944      7.71240386457615
  Si          6.16349843592950     35.45506564032996      7.67699594194393
  Si          8.88960027734293     33.85787990674950      7.59848852061810
  Si          8.88152510098043     30.79155726701503      7.66361481553844
  O           4.85105590260969     30.05378962844864      8.30867212745718
  O           4.89687517387182     34.61996326436017      8.28491507407568
  O           7.55968388470732     34.68756948454508      8.03792916953663
  O           7.50177308097179     30.04339163500889      8.09720456580668
  O           6.21510478077691     27.71092374895294      8.29795731591198
  O           8.84234418207948     32.33727903829032      8.20996167875596
  O           5.92503890594926     29.18155117210182      6.09058937476009
  O           5.98794267899228     35.60037290897224      6.05663864331346
  O           8.99976157889152     33.76883442869926      5.96794076920343
  O           9.00496127949207     30.87454400847432      6.03366772601519
  Si          6.19083667666801     38.54935952421243      7.77811658425301
  Si          8.90672830952227     40.07210055759855      7.76669579438551
  O           4.92620230376261     39.34966809254624      8.42320043547496
  O           7.55660548643544     39.30297510013097      8.28864152761752
  O           6.22151569843094     36.97910951235141      8.26713433038878
  O           9.04391160417057     41.55214424564729      8.43086498411800
  O           6.20292217179753     38.58989196482924      6.14204603049469
  O           8.89306981354754     40.12558176972694      6.13010217413481
  Si         11.51639187690800     26.07928963907877      7.71187873796603
  Si         14.19664012895615     24.53998738776421      7.79561508002434
  O          10.16687822083660     25.36294313844886      8.29707340854064
  O          12.87472238246345     25.38431391191708      8.29441433434331
  O          14.03111116275147     23.03986501547813      8.40498361051224
  O          11.46333092151901     25.89243025084709      6.08741527533628
  O          14.19580320547012     24.54914892794779      6.15781964752194
  Si         11.52694984494692     29.23731119348415      7.68398183074500
  Si         11.56566260908753     35.36919497352159      7.50953064166990
  Si         14.23166961602762     33.81330408087465      7.58469887001871
  Si         14.19490024820673     30.75253394325872      7.67741364074398
  O          10.17797361304489     29.97819647546110      8.25099741494632
  O          10.21726146432328     34.66611891132892      8.11121782574754
  O          12.91963643338303     34.64994107521530      8.07768532218984
  O          12.88560163421483     29.95499679431895      8.25707519641891
  O          11.49296635675883     27.66588678434630      8.11115494768986
  O          14.25283477721888     32.29617295122790      8.21444918513181
  O          11.49302619284315     29.39566493457848      6.05574836549413
  O          11.58386549622549     35.18577024942280      5.88431901911700
  O          14.12624128751389     33.62149163632734      5.95755870813709
  O          14.06604545611727     30.74792888927992      6.04949940158098
  Si         11.59494283819283     38.54244444786248      7.62832303757494
  Si         14.27520647547431     40.06162138533929      7.80317002788960
  O          10.23498507041407     39.21821049617853      8.22242677660466
  O          12.94515755793309     39.21420078834220      8.26569606417200
  O          11.61014968407748     36.93961828370297      7.92341995622722
  O          14.21352566690731     41.55547825178951      8.44816453368115
  O          11.67407812191308     38.82106642120281      6.01572996121965
  O          14.37347892469965     40.05753891532810      6.16833222901815
  Si         16.90348766200298     26.06924173693601      7.81072038436200
  O          15.55841550908514     25.28261889743861      8.32662718896876
  O          18.21857587063273     25.35310644502844      8.44953794284732
  O          16.86654679663887     26.02427036874929      6.17511482939179
  Si         16.91555164957546     29.16268427595607      7.72596199368512
  Si         16.98051419018063     35.40836322746403      7.63679405394216
  Si         19.63990260842835     33.82975714790732      7.76809248802675
  Si         19.59268005526353     30.70965773297234      7.79084761220817
  O          15.54350053705530     29.95918632765651      8.16799065848010
  O          15.62341809042993     34.56759470629785      7.94907340469763
  O          18.26219446016014     34.59495483190353      8.24225085033197
  O          18.20888646429180     29.97457527469571      8.29641963465215
  O          16.84040749676575     27.63765066544354      8.30703370505902
  O          19.60301739304903     32.27199608880453      8.28092811031630
  O          17.01828341409813     29.03680559067192      6.10110993887757
  O          17.23189621829181     35.54101094608365      6.02825943108366
  O          19.68715094830993     33.79357574989957      6.13350357685945
  O          19.58028346556138     30.65934099749993      6.15400509115668
  Si         16.94424146741986     38.48547051850800      7.79405583270827
  O          15.62744625000775     39.29444689512615      8.33739922102865
  O          18.33818947077619     39.07350365551103      8.39045084656083
  O          16.85884775142379     36.91063781691269      8.29533134589664
  O          16.92208996895657     38.47900627532134      6.15703805715238
  O          20.83676300887738     29.88930285471481      8.44412569488518
  O          20.95760722374395     34.52594439558634      8.42683055912703
  H           4.07465744865464     24.98677204163778      8.03659115385765
  H           1.41040897460850     29.60201496527254      8.03674925204367
  H           1.41040909854397     35.00798494654691      8.03674926801296
  H           4.07465744606558     39.62322796957343      8.03659115941324
  H           8.94818086528579     22.17325468570655      8.03830169036638
  H           8.94818088207956     42.43674529474455      8.03830168064353
  H          14.27776170663402     22.17320384335196      8.03828218879702
  H          14.27776176211147     42.43679616262372      8.03828218450799
  H          18.96055640966518     24.87622786816454      8.03640577908446
  H          18.96055653790002     39.73377222395398      8.03640578048318
  H          21.62471724034310     29.49141992896372      8.03658340918208
  H          21.62471724034131     35.11858007571794      8.03658341059903
  H          13.36620404314627     34.06697314372816      5.55417782660771
  H          10.79158413243741     34.75679046708826      5.52602906695746
  H           8.99878569883680     32.86150786625959      5.62330560191794
  H           9.77937337503926     30.41403656097922      5.67202028846013
  H          12.28777304313943     29.80579814321934      5.67914131744280
  H          14.10759490442584     31.63453170084038      5.65340671608162
  H          13.55671384506817     39.79551126357278      5.71881608513938
  H          10.86643511505204     39.17511223205656      5.62013108541734
  H           8.14145736653307     39.67957124221733      5.71698517254147
  H           6.07820864416218     37.72863782987967      5.71828665835182
  H           5.28330662995447     35.05910557747750      5.67344648556740
  H           3.51013998215173     33.00061610009430      5.76007971274211
  H           4.11718460351603     30.29431069356068      5.75103234131140
  H           6.04035810227884     28.30821556973559      5.69122720979225
  H           6.86910476809970     25.69663606383009      5.74710196916759
  H           9.58998732385202     24.89045322025782      5.74297779076454
  H          12.27543004001627     25.55142139396341      5.68803622881254
  H          14.95833428164273     24.99152712020779      5.75923673065225
  H          16.99658873480692     26.87957593587899      5.74214550136792
  H          17.71558287866270     29.57054779494486      5.69501093667645
  H          19.64075597105407     31.51928577412916      5.71763384089181
  H          19.02797653638467     34.34981277822257      5.69569266421283
  H          17.10919217974111     36.42986069055400      5.66423086759556
  H          16.15247153786153     38.92106368457615      5.76854291538106
  P          16.20189807725023     31.51874261655722     11.94758599594593
  O          16.60227210386321     31.05850928279404     13.30568724637835
  O          17.20863932452992     32.14936684274328     11.04488327431890
  O          15.47156587654315     30.28738829619139     11.20520252860425
  O          14.91059982054093     32.50846134493439     12.08693107032003
  C          15.13235350807507     33.78474720673362     12.65918808027290
  C          15.41486570618070     34.81929918698016     11.58648119366715
  O          14.36801249020211     34.86897664180275     10.60996474545110
  C          15.50112018701298     36.23166288724808     12.12233397784284
  O          16.30007195157983     37.08383405343246     11.32522655502949
  C          14.03297783679389     36.69246027563708     12.08644440201819
  O          13.91339696520114     38.07653904276703     11.94806128934017
  C          13.45637492248719     35.88456339676919     10.90215618992221
  N          12.15720270278524     35.27112144903921     11.16514138249641
  C          11.90097967157337     33.93333378272256     11.30595080087844
  N          10.62832776196900     33.66034765371646     11.44188992205271
  C          10.00784661684675     34.88551590237109     11.37705410072502
  C           8.65861203310225     35.27310985508469     11.39835954590839
  N           7.65372224844004     34.39798575465282     11.55382073223717
  N           8.37348660838902     36.57715949092488     11.27350918040756
  C           9.37517938292635     37.44624756785365     11.12959211527808
  N          10.67738529546535     37.20450628803645     11.08505373125266
  C          10.94230968608333     35.90228153471557     11.20536242912581
  H          15.57837442593336     30.33432552690516     10.24596854969860
  H          14.23562280360047     34.04350260000849     13.22954780604949
  H          15.97455129915091     33.76586512371809     13.35947666756575
  H          16.32282491684728     34.52749008130992     11.05564256319635
  H          15.90873265758801     36.27557726813076     13.13270671509949
  H          16.24004328347026     36.82792432240113     10.39429968839076
  H          13.52519496596783     36.39469549575902     13.00657616029272
  H          14.70427709731004     38.36478367113490     11.46677832156517
  H          13.33140410229036     36.53612932119340     10.03309553148370
  H          12.70151829070048     33.20912896762533     11.29043971056156
  H           7.84011974895744     33.41251041336790     11.48066768107147
  H           6.71107639444536     34.71300036233495     11.39554150524509
  H           9.07906972967267     38.48676087025780     11.02944714212286
