162
Coordinates from ORCA-job /data/Seafile/amp/frames/frame11/dry/amp_frame11_dry E -13464.262066469028
  Si          3.54116205359411     33.95103694412767      7.82911580743072
  Si          3.44163006946801     30.85752692472263      7.87160202079982
  O           2.31907436995325     34.89864777908976      8.34933716861280
  O           2.07408451355837     30.17644928084199      8.44432594148935
  O           3.44659556245179     32.41275456109980      8.37824358637920
  O           3.59217933711289     33.87564858057657      6.18495650662278
  O           3.48178956681216     30.89839028056482      6.22694816795369
  Si          6.11631860539916     26.20953908922890      7.83842166689413
  Si          8.73678904100003     24.55820470961063      7.84505066600184
  O           4.67485808092418     25.66508528694000      8.37195416927259
  O           7.38521459300575     25.32599537188723      8.36542878137565
  O           8.61430139238155     23.01889087221496      8.37409524990943
  O           6.19011755009308     26.23808026733151      6.19340390462972
  O           8.72124878149286     24.65969232102432      6.20212331248885
  Si          6.09044650862497     29.28454578077829      7.78390023470788
  Si          6.19020594966308     35.52100799099501      7.74813071016737
  Si          8.92363782626822     33.89617348854445      7.66732037967483
  Si          8.86689998746484     30.83055787066424      7.74050156209203
  O           4.79016819596560     30.07950337909887      8.38148211721968
  O           4.92044915488288     34.66831026073718      8.33296280491581
  O           7.57603032153552     34.72963837457573      8.05033385920819
  O           7.44605095757205     30.11704410974751      8.11204585055839
  O           6.21014559316103     27.76069341301488      8.35336198726141
  O           8.83244686501946     32.37576880909335      8.27625912230674
  O           5.81410570429825     29.20006483593001      6.16337670573356
  O           5.96293328264757     35.70603947056852      6.12758121374910
  O           9.05773606034769     33.76140357058210      6.03377025508745
  O           9.04942314791820     30.91200028571416      6.10920977593063
  Si          6.23721656814800     38.60280918094492      7.83789724698315
  Si          8.97080595755795     40.06281366872911      7.82489884668999
  O           4.96036561853115     39.45674621543116      8.39267207572352
  O           7.58198810571215     39.37592641189978      8.35326354171917
  O           6.22971300405513     37.04232451630538      8.33254545742877
  O           9.19033478122534     41.57341352470795      8.39724875498115
  O           6.30499867165605     38.59325495322407      6.19194974106727
  O           8.92825998843909     40.04225345435580      6.17770137033108
  Si         11.42868973374205     26.05715482664603      7.79071568200616
  Si         14.10495293542643     24.54421998744433      7.82831512782028
  O          10.08084996134177     25.32794786945074      8.37124865734814
  O          12.78977344724196     25.36561520862230      8.35731905689601
  O          13.86040929007524     23.00213557833813      8.30849163358027
  O          11.36752961713607     25.80507915200129      6.16481898485902
  O          14.12033062006103     24.67247290929757      6.18549424046613
  Si         11.47815284109667     29.23590913082363      7.78790720630659
  Si         11.63163318464322     35.36162341961985      7.57728721737344
  Si         14.26234664127916     33.74694277333912      7.64980086974092
  Si         14.16853525270443     30.69073010525709      7.79162979150179
  O          10.11500944063080     29.96683841817309      8.33883903427458
  O          10.24719924176394     34.70557869085118      8.16257529043934
  O          12.97881037411880     34.65032849776370      8.14236906130104
  O          12.84117215831879     29.90201978975159      8.37059699832930
  O          11.39517407339220     27.64404370612716      8.14029687836159
  O          14.19172861994449     32.24156352063446      8.27227183838493
  O          11.46494755920525     29.46014225523952      6.15742269979313
  O          11.62246231803100     35.11389804657519      5.95032964189170
  O          14.04664875915306     33.51170534013698      6.02238385878481
  O          13.97732099812398     30.70044464533518      6.15228100158168
  Si         11.65539837603338     38.55904089283172      7.71457476585619
  Si         14.34431192155407     40.04823261432364      7.85168623454490
  O          10.27124651466480     39.19808735355290      8.29708838410280
  O          13.00191834818087     39.24575904387949      8.33705011235180
  O          11.68736695194724     36.95115130859668      7.90727037556447
  O          14.41015465733116     41.56785116604436      8.44447089168833
  O          11.72015287644043     38.93742767924626      6.10820562647794
  O          14.37408200642632     40.02051871045666      6.20535486081568
  Si         16.83414590751066     25.99157107895480      7.87024340786304
  O          15.48705413160832     25.20276714584248      8.38049227990330
  O          18.08188588689011     25.07670709324378      8.38978642827447
  O          16.74004865307603     26.04583539977397      6.22528524430045
  Si         16.88955264004130     29.07589166477634      7.84277541710717
  Si         17.05048573384563     35.33313757456576      7.67684550882138
  Si         19.67433762025809     33.72596811954190      7.85216050802842
  Si         19.52920509972975     30.63473861849166      7.87508603258860
  O          15.47159574251330     29.80562518312111      8.20321721206611
  O          15.65708833328880     34.53658720387232      7.85663337034802
  O          18.35272520886878     34.58886577805273      8.29549919854914
  O          18.17621266073526     29.88058082912726      8.38797003230002
  O          16.84342029141866     27.53098202401825      8.40618074562552
  O          19.70769807089331     32.17857884963222      8.35989742425572
  O          17.04289922702655     28.91019961418823      6.20821346366668
  O          17.38794450345990     35.51088839343076      6.07354033539138
  O          19.62646075771187     33.64077804283030      6.20018278808066
  O          19.42188544582894     30.67764970375946      6.22324227510149
  Si         16.97676323947047     38.41671193697390      7.79781531622464
  O          15.69184628240298     39.26733779851951      8.35202494266682
  O          18.40877679522157     38.99213187544296      8.32118855049857
  O          16.89533462801202     36.86008658666102      8.30648799955152
  O          16.88698402946839     38.42328668690629      6.15436771290972
  O          20.73043431235796     29.64063666997565      8.36446722706870
  O          21.06598924024933     34.40609894521750      8.38091947435648
  H           4.07465744826933     24.98677204017168      8.03659115318221
  H           1.41040902134636     29.60201498812136      8.03674925217287
  H           1.41040910600485     35.00798493598344      8.03674926761019
  H           4.07465743114184     39.62322797418781      8.03659116000283
  H           8.94818086768061     22.17325467324841      8.03830169127944
  H           8.94818088564387     42.43674528424837      8.03830168043939
  H          14.27776170391109     22.17320385385232      8.03828218859372
  H          14.27776176456348     42.43679616298952      8.03828218466058
  H          18.96055638830352     24.87622786969111      8.03640577904371
  H          18.96055652114519     39.73377220944020      8.03640577992232
  H          21.62471722712297     29.49141993333801      8.03658340866874
  H          21.62471724710000     35.11858008098531      8.03658341141518
  H          13.31185043852141     34.03162346510676      5.66489424841727
  H          10.79248547060267     34.72092969064225      5.63929570149888
  H           9.01997673173411     32.83827667669617      5.73336619051993
  H           9.83838024321986     30.42458943658944      5.80979218193477
  H          12.30780773042561     29.84527699449957      5.84951971884601
  H          14.02806825052973     31.61006621586242      5.80511812918475
  H          13.52773299335253     39.72780882434621      5.82949622533869
  H          10.87399561783975     39.22433167570880      5.74064741050591
  H           8.13571030224043     39.60755142096888      5.83060722242773
  H           6.16334463459341     37.70922448037177      5.81936463403392
  H           5.30687813749039     35.10567839793850      5.74999410470968
  H           3.56548836256833     32.96657643365729      5.85160105841654
  H           4.18095076418615     30.33395418266739      5.85931987844937
  H           5.99682294056597     28.33026631297049      5.78206873603557
  H           6.95846018431608     25.75858968547355      5.84813661726112
  H           9.56226936221635     24.98922665624368      5.84513412625802
  H          12.21402653030254     25.52550811782646      5.78760670627170
  H          14.92158228067692     25.11385739755588      5.86139678340532
  H          16.86827979722748     26.94970225631555      5.88908623264044
  H          17.73675324290569     29.48482176405411      5.84989131801261
  H          19.46875893870613     31.58538776676580      5.88662600991985
  H          18.97842582615833     34.24859257093271      5.81509434693660
  H          17.17936918665526     36.38206031789439      5.71313792514173
  H          16.10517416500594     38.89204340816159      5.82647498762868
  P          16.85148020002601     31.99107422572076     11.02494429639775
  O          18.03776619563352     32.32145300780331     11.84319712119707
  O          16.76247426592905     32.32190162258146      9.57677935743508
  O          16.45306648265476     30.43295813984944     11.23105358410533
  O          15.52674503957752     32.66069054659586     11.78043530621204
  C          15.72518230256826     33.88315376417277     12.42138456302051
  C          15.86691809421177     35.02588836964895     11.42963321042848
  O          14.76426922170502     35.10128832163710     10.51280568874153
  C          15.87783455662382     36.38322761839370     12.08946540355719
  O          16.49295711206166     37.38229371845623     11.29697241689522
  C          14.37800068896817     36.70086298700154     12.21767370770410
  O          14.12546108985178     38.07001651456189     12.24842099400434
  C          13.78423957589651     35.97180677261178     10.98781073554753
  N          12.56920725927418     35.21224378030232     11.24889487019096
  C          12.46686667418424     33.85188499081446     11.42792048945031
  N          11.23065843449977     33.43541487692485     11.51826517782288
  C          10.47714597010523     34.57373822644534     11.37708900717179
  C           9.09886594799058     34.78986301784902     11.28315924961960
  N           8.20573835799810     33.77842844352818     11.41169568378871
  N           8.65156398171740     36.02514316438207     11.05548399732557
  C           9.54556211031002     37.00631587333751     10.91003860584695
  N          10.86763565236815     36.93491550665093     10.96076066967771
  C          11.28725155368605     35.69230904350280     11.19636459226192
  H          15.91007993447216     30.16174686870136     10.48562337512367
  H          14.86386651224977     34.05375399394348     13.07941187904627
  H          16.63465010897809     33.85363225765997     13.03321918898446
  H          16.76039889681979     34.84052145076242     10.82697366763470
  H          16.37808870168854     36.37998273647739     13.05993854008806
  H          16.56140895730956     37.06038053151811     10.38899469433046
  H          13.96767944451566     36.26190217543912     13.13050757731181
  H          14.83311050731238     38.46721009000191     11.71956612761081
  H          13.52244675919475     36.70969231990557     10.22347332670510
  H          13.34792909112469     33.22299904643316     11.44813914380593
  H           8.56401883088358     32.84228652373150     11.32945928578263
  H           7.27444307388565     33.95456176062061     11.07636210301648
  H           9.12877761236753     37.98886521464443     10.70898234451213
