195
Coordinates from ORCA-job amp_dimer_gfn_frame03 E -14918.170574968632
  Si          3.50180233095058     33.89983609575400      7.78810227899534
  Si          3.46358222411501     30.79273795572226      7.81238104712285
  O           2.29087284324822     34.80212764184077      8.39511605574582
  O           2.17745282837318     30.02976246547080      8.45682148891329
  O           3.46311017109272     32.35224437044074      8.32525196998725
  O           3.50842381715746     33.88838246033930      6.14999183004027
  O           3.43867534157837     30.84187877469599      6.17656930952849
  Si          6.14316109928257     26.14633242288541      7.80719378351566
  Si          8.81317616608312     24.54606564579094      7.80585325955294
  O           4.78043454534171     25.52078430997195      8.43958172766647
  O           7.47457408309976     25.34347366944536      8.32461612903778
  O           8.75527261852849     23.04328349474779      8.43278500885640
  O           6.12949716215316     26.15414982648279      6.16941435870738
  O           8.77205874537803     24.55435920573036      6.16962642971786
  Si          6.13010323740680     29.23363526273768      7.70871472105007
  Si          6.16177240945423     35.45823360986169      7.67589598293279
  Si          8.89062071649142     33.86688018711175      7.59528917439613
  Si          8.87834286455054     30.78806781499376      7.64681974521950
  O           4.84957481019447     30.05668622058384      8.30635462390214
  O           4.89593075828962     34.62297472425979      8.28088377502909
  O           7.55741858027941     34.68485146191413      8.04049654234693
  O           7.49929525159604     30.04661977328858      8.08388257940207
  O           6.21635407430030     27.71529157380490      8.30068086225587
  O           8.81896378131614     32.33892927664140      8.20975681291598
  O           5.91805997137092     29.17742968955468      6.08770952318986
  O           5.99465581895923     35.60371870217307      6.05558929582840
  O           9.03081281320004     33.78524568776543      5.97226335799705
  O           9.00997269049152     30.89480023368401      6.02208842654761
  Si          6.19272825084863     38.55164826621854      7.78075046420451
  Si          8.91541631414581     40.06748184840946      7.78851096083554
  O           4.92392573507921     39.34511496903333      8.42497017908657
  O           7.55556145932358     39.30736141213482      8.29662798407475
  O           6.22791883259525     36.98007874776957      8.26940008320455
  O           9.04695041664654     41.55463564849261      8.43587147269901
  O           6.20991954677842     38.59476330670821      6.14542156484368
  O           8.93270881570947     40.09440745500142      6.15069512976122
  Si         11.49984470617251     26.07371817017171      7.70887226466452
  Si         14.17945343955600     24.53887737751716      7.78741312096795
  O          10.15398124451441     25.35894268896146      8.30436637528501
  O          12.85937427954657     25.38256467526799      8.29204189769700
  O          14.01711357580268     23.03849459545880      8.39907737182393
  O          11.44382096607661     25.87240746903837      6.08541452231125
  O          14.16364717398381     24.54240063188038      6.14855810173904
  Si         11.51781563613388     29.23398552146430      7.66801405961303
  Si         11.57786295833722     35.37351454253419      7.59827970055055
  Si         14.22185969724361     33.81533857460910      7.60670754244195
  Si         14.19254114835352     30.73543741272603      7.64731812097779
  O          10.17308193179574     29.98539105039412      8.24235112031816
  O          10.20955450673742     34.66100276612067      8.15114478420503
  O          12.91526181749630     34.62699996717851      8.17754382500472
  O          12.87947051671621     29.94170446358611      8.22858021288607
  O          11.47037667450364     27.66257220573005      8.09028321886887
  O          14.26176553400011     32.28219068941802      8.16861763381311
  O          11.47036740640095     29.39590729778805      6.03879449676949
  O          11.62348775599212     35.23048677705420      5.96910013446682
  O          14.10547283632654     33.70708507366604      5.97726020481953
  O          14.01160597073005     30.75541697476241      6.01589540587470
  Si         11.59325630769636     38.53078779031433      7.67704997277286
  Si         14.27661431002508     40.06352283397718      7.80333316555953
  O          10.23707192499009     39.21601505314920      8.27560117202416
  O          12.94773410462282     39.22073745484518      8.27979484892327
  O          11.60997220192577     36.93804264598354      8.04310323241199
  O          14.22054577325755     41.55682432914111      8.45066453777657
  O          11.64438686435643     38.75606896128925      6.05777811448880
  O          14.35740485208733     40.06344944970187      6.16791228347294
  Si         16.90141332289489     26.04739217828225      7.78924751432974
  O          15.54054588234403     25.28620343466282      8.30368816063973
  O          18.18009976654086     25.28384751854920      8.44966304846144
  O          16.88435482860544     25.98543304408928      6.15251570550843
  Si         16.92889821698241     29.14934380005697      7.69828841278788
  Si         16.96239942962525     35.39698405416548      7.69293087216657
  Si         19.62741308787900     33.83015277544592      7.80008341672618
  Si         19.59578734896204     30.71714368171850      7.80185753189779
  O          15.53676603691703     29.92228493252746      8.06202146024748
  O          15.59028737974750     34.58263680707322      8.03453625877973
  O          18.24999375788348     34.58358487028613      8.28956080793004
  O          18.21055786715030     29.97745986991626      8.28115113943191
  O          16.86940375102726     27.61672459449125      8.26104734031767
  O          19.60321991208531     32.27325409320355      8.31909513348605
  O          17.09024729906402     29.01521787729376      6.07208776090241
  O          17.19365343536219     35.46879896423419      6.07290145796519
  O          19.65353721556037     33.79075015308431      6.16390117902553
  O          19.61159248397303     30.69960042130326      6.16345016437440
  Si         16.94964408879135     38.48166743987437      7.79453251878177
  O          15.62931551954808     39.29561601506358      8.32710366378815
  O          18.33636090138820     39.08206942911091      8.40012620851616
  O          16.87338508645370     36.91550323159442      8.29172636270320
  O          16.93792170479757     38.48144517536758      6.15638022901323
  O          20.84093006379864     29.89142255603947      8.45019481651332
  O          20.95030059818760     34.53937241987046      8.43618425001868
  H           4.07465742961988     24.98677204157642      8.03659115459048
  H           1.41040897166040     29.60201497123311      8.03674925698333
  H           1.41040905679266     35.00798499579358      8.03674926989947
  H           4.07465743481812     39.62322797340516      8.03659115882967
  H           8.94818084690955     22.17325470816534      8.03830168936756
  H           8.94818087729194     42.43674530553598      8.03830167957673
  H          14.27776170140617     22.17320385285303      8.03828218878524
  H          14.27776170117454     42.43679613281640      8.03828219612627
  H          18.96055658571717     24.87622778101001      8.03640578307437
  H          18.96055653395727     39.73377222660015      8.03640577815578
  H          21.62471721733981     29.49141992148968      8.03658340543088
  H          21.62471723220357     35.11858007846482      8.03658340822998
  H          13.34900585688424     34.18185750660572      5.59936446607033
  H          10.84366748422616     34.80795649497196      5.57908815566202
  H           9.02432802244182     32.88299267929092      5.61422762118454
  H           9.78185337352361     30.42780586973534      5.66041474326709
  H          12.26204721622014     29.82288862786334      5.67083470834784
  H          14.04814950780822     31.64326687140260      5.62814784112122
  H          13.54363308829217     39.78962940368972      5.72199628167688
  H          10.83137294121170     39.11021725541946      5.67118710446816
  H           8.17313387273027     39.67001581545355      5.72961102040087
  H           6.08472558496945     37.73577240236983      5.71759078271001
  H           5.29331061068613     35.06180257350612      5.66743744882561
  H           3.50643012346980     33.00483931247967      5.75545726756088
  H           4.11129944634918     30.29290170314587      5.74833572848354
  H           6.03549790352695     28.30357151430874      5.68989891622994
  H           6.87668329471365     25.69928088497283      5.75722797907543
  H           9.57798466912116     24.89078086621923      5.75142789325813
  H          12.25444720855593     25.52123024337854      5.69102974632031
  H          14.92692295321654     24.97418512855426      5.74076622000035
  H          17.02049011244460     26.84114702905879      5.72177950134187
  H          17.79883243039976     29.55236352276558      5.69187347629807
  H          19.64320592080059     31.57281752068181      5.74962944022095
  H          18.96479067876855     34.32498652849937      5.74221063663702
  H          17.07176171209934     36.34407743379273      5.67993273860968
  H          16.17386301641920     38.92698677942307      5.76325625506814
  O          16.60402870140483     26.76400909901975     11.96716895029764
  P          15.86120546601868     28.04897403877497     11.80839204675978
  C          14.61587261694558     27.57861398382065     14.07882054513942
  H          15.36322907448625     27.00443412712985     14.63451032128407
  H          14.00996994986272     26.87275625110553     13.49915637911390
  O          15.25256089361523     28.52250764612130     13.24084766189947
  C          13.69979567473405     28.29144042355083     15.03665434147978
  H          13.19301407860652     27.53911677844240     15.65198510269910
  O          14.44617844661656     29.16633355073253     15.88729666065745
  C          12.65305294958905     29.17802260088148     14.37670925988064
  H          13.06175820540211     29.62811930656904     13.47003789496965
  O          11.47284851986976     28.45432904957694     14.10327795952711
  C          12.41093169550333     30.25523626698362     15.42558936117196
  H          12.05695700551853     31.19231555585927     14.99007656480367
  O          11.54390137985609     29.79404297984854     16.43560506502584
  H          10.88587273106739     29.22848568627837     16.01076546336178
  C          13.79551193590705     30.39401076353368     16.04096534893142
  H          13.71303186021490     30.64155924351780     17.10268337083528
  N          14.49973362415009     35.43731127288797     15.61850273257844
  C          13.48728978416546     34.72083771388080     16.10622107010953
  H          12.67581488939536     35.29619148044359     16.54397460427930
  N          13.34513237941497     33.40197532567488     16.12935357506495
  C          14.38304232560476     32.78728544164603     15.55828454771545
  C          15.49873993356588     33.39749151213239     14.99576833541957
  C          15.53877763956717     34.79960180140500     15.05944538019243
  N          16.58436549526354     35.51807596320968     14.62397907149548
  H          16.48079279001175     36.51685716807605     14.55379881668306
  H          17.26703313914244     35.07748488387396     14.03074362238861
  N          16.37645666512991     32.45282177115278     14.51624945791551
  C          15.80397493591196     31.30799741622443     14.78545917973964
  H          16.19387017781631     30.33270881512200     14.54212713030344
  N          14.59314933955115     31.44267327417030     15.41151376004306
  O          14.54123574351466     27.75398595045843     10.94701514926274
  H          13.66590479634875     28.04498093638894     11.30171523909607
  O          16.59962355230561     29.23937994732623     11.28666955373246
  P          10.88785582323672     28.37986531622620     12.58920319435414
  C           9.38604663603419     30.53176376311205     13.11806338178310
  H           9.53679819409413     30.31116490760621     14.17812792274689
  H           8.38298576148533     30.19571723223101     12.83650710038932
  O          10.36169198647751     29.88095944307902     12.32520757909877
  C           9.47723948097745     32.02168310760045     12.89188016870879
  H           8.65653604774342     32.49470685524779     13.44446011272783
  O          10.72298143031225     32.52897077568856     13.37063846257102
  C           9.39527653300010     32.44999828474260     11.43247011351317
  H           9.87031279854708     31.70390588229967     10.79145877828336
  O           8.05304010696181     32.65037718114044     11.06346871377865
  H           7.97849755952255     32.50240375406445     10.11212246467794
  C          10.21502300211163     33.74294187111919     11.42019196987228
  H          10.66873580998152     33.94818989384119     10.44833232283091
  O           9.42395757188042     34.82265730488253     11.85257200142671
  H           8.52355018959472     34.63684623447211     11.54847916144586
  C          11.27808188432948     33.46443868845022     12.47368415129774
  H          11.54528706135239     34.38215024505006     13.00154772314416
  N          16.24111328049311     34.26935783154256     11.32757165151309
  C          15.27870612296311     35.11708439143715     11.69059740499622
  H          15.58686665136405     36.15396352315043     11.79346303288819
  N          14.00084575333776     34.86466299538633     11.95332063892720
  C          13.71149457828454     33.57344630212785     11.77283887626787
  C          14.59720586000686     32.59077498469532     11.34982777149567
  C          15.93432358930321     32.97135790866987     11.16142135450481
  N          16.87876650319858     32.09099255770356     10.81807317558997
  H          17.83268763024471     32.40916918708997     10.77735505206837
  H          16.69982428317858     31.08788376091021     10.90460389640779
  N          13.95870475770714     31.38359701282585     11.21356814893646
  C          12.72541051842640     31.62446264660831     11.55715379922336
  H          11.93322088679923     30.89491523769363     11.58476871841689
  N          12.50879965403837     32.92753579437149     11.92468043606087
  O           9.76400846345316     27.41730428207101     12.63953949763087
  O          12.01855850114798     28.21885240341473     11.62908689175810
