159
Coordinates from ORCA-job ump_frame15
  Si          4.28676804658763     34.22788093142989      8.87600259920196
  Si          4.40093267411512     31.32165176378959      9.65339875216024
  O           3.63109466335224     35.44565653960081      9.71905938875855
  O           3.81779959298893     30.80649364810917     11.07493569388125
  O           4.53521944666317     32.92791110799926      9.81960956956070
  O           3.37886042581435     33.78579701123017      7.58527961820181
  O           3.39468807625194     31.03692669060985      8.38975465054119
  Si          6.51818478519757     26.68277356359635      8.88912142827491
  Si          8.79552715184834     25.16941942673842      7.61070215217192
  O           5.68884928752326     26.34727308443620     10.23863675937016
  O           7.86434151401150     25.78586645895356      8.78456369089510
  O           9.45686785897122     23.75125846816500      8.03693769113582
  O           5.60624880599493     26.46920187718333      7.54295078094127
  O           7.78134906911808     25.07162463827510      6.33103324584259
  Si          6.47215233813648     29.61746097087525      8.26167378375903
  Si          6.46492144630873     34.87356512386356      6.90797283880309
  Si          9.22018632602159     33.57092177835182      6.58617332331766
  Si          9.07928207871252     30.56705791215388      6.73917063835170
  O           5.84698809436666     30.65641700669041      9.33302994129293
  O           5.70040153686218     34.81193567469629      8.33681747283533
  O           7.66180048756466     33.78199765763167      6.92716332916155
  O           7.74831384601873     30.31703740698849      7.58815590533611
  O           6.91677894131068     28.25194149681863      9.00817426041936
  O           9.62814883596823     32.07356851165985      7.06683139652247
  O           5.31398762112468     29.30800768032053      7.14796821338243
  O           5.43467535738178     34.56404420560094      5.69226204220235
  O           9.55580461687860     33.83069370247089      5.01184126286078
  O           8.70591198298958     30.42808911403257      5.16362029083934
  Si          6.76913439508641     37.84200070803759      6.29968237151872
  Si          8.83948488522528     39.93424231203520      7.05579014143540
  O           5.17200296056713     37.97927984253501      6.54905032394707
  O           7.61436788286285     38.87888120113514      7.21561426524650
  O           7.15468130253006     36.32397918995422      6.70421220634110
  O           8.44399316073290     41.39149472187754      7.64148253122574
  O           7.24257806400737     38.19410533606452      4.77480387013997
  O           9.32615372272708     39.96842540123549      5.49307664830178
  Si         11.58853682620954     26.17256054285125      6.90136731367885
  Si         13.90273976298858     24.77220410748385      8.16072471933171
  O          10.02803667449382     26.17174830569355      7.30573230152643
  O          12.47127749396103     25.55606905476982      8.13320875256011
  O          13.62636911597957     23.45807092634629      9.06192994076235
  O          11.78609194924791     25.28630624150061      5.55694049588355
  O          14.33116740007426     24.40707694252827      6.62457698908610
  Si         11.71905777946393     29.26257725834511      6.56285986486974
  Si         11.39967729518274     35.59570027327191      7.05732162585113
  Si         13.99728702692508     34.15231691029834      7.33045584176399
  Si         14.01347317451404     31.17450533388521      6.99071349446004
  O          10.24769278070258     29.53999433005017      7.18844066737530
  O          10.14903841718532     34.62140413782480      7.38976167808796
  O          12.74248986118152     35.06554836639024      7.79624571895881
  O          12.86621764991651     30.09655796098586      7.34521503100797
  O          12.06185395296669     27.69606525275650      6.67695847548790
  O          13.67003023976039     32.60122930108218      7.66518825777492
  O          11.66482504772164     29.73769545491532      5.00043650877229
  O          11.69625388747429     35.62344363051855      5.45177138545424
  O          14.27106709477217     34.30101016085194      5.72782307506712
  O          14.06868634187353     31.30858980165645      5.36197235275793
  Si         11.44118534608849     38.62269055079040      7.59776560300084
  Si         14.01029724558227     39.72114283039825      8.73104960703908
  O          10.10996670765543     39.47087503023641      7.95751370596056
  O          12.59700341132778     38.91574184862532      8.68887387290524
  O          11.05437391567716     37.05499169583652      7.64158048502694
  O          13.92035329935869     41.02474542514127      9.69056109736038
  O          12.04633867280627     39.06311514053001      6.14430175120317
  O          14.47293226821486     40.07984173647225      7.20140762760420
  Si         16.28881909943588     26.61220014412646      8.30997428992812
  O          15.03538421507719     25.72746088801256      8.82215501787770
  O          17.52085294562797     26.23344699048764      9.29303859467326
  O          16.56310566160640     26.19160835302406      6.74806991660371
  Si         16.54439198672887     29.51523789433280      7.66228371162777
  Si         16.73849807759503     35.29394788575379      8.23382539868905
  Si         19.24306035319313     33.67155068883455      8.41636781821040
  Si         19.25433981699658     30.66326949580299      8.22679910386589
  O          15.41770372193287     30.66201269914128      7.59661314855122
  O          15.29635361404686     34.57536115658938      8.17730193936124
  O          17.78471609581631     34.22803415016395      8.85716474037501
  O          17.77490881572348     30.07763504253686      8.55067106267103
  O          15.91950446110159     28.19677054006551      8.36677887285550
  O          19.42123708441712     32.13315939350066      8.89801748653145
  O          17.04983219582712     29.04652164772304      6.18169557216446
  O          17.27957766205135     35.71211933671014      6.75254422756490
  O          19.38236104620658     33.63297475428119      6.78474359990805
  O          19.44109751117253     30.76937946563878      6.60446419968153
  Si         16.60752322677837     38.19728026451246      8.97976941039452
  O          15.15568011228898     38.79193492855133      9.39943992541552
  O          17.78126802270859     38.76229190968868      9.94443472101221
  O          16.63403807429925     36.59092588581229      9.19796236907680
  O          16.88201875819625     38.50272500757440      7.39358150334138
  O          20.28181447082548     29.59762335258706      8.88366825831312
  O          20.32394417748028     34.62985764538622      9.15297572186849
  H           5.38293622651484     25.44467623248431     10.36658999069902
  H           3.76851359820650     29.85691804758133     11.21902174466668
  H           2.79454065665159     35.28397833891323     10.16467712755774
  H           4.75114989147192     38.82220305280705      6.35638931825201
  H           8.86950359001915     23.00696071227725      8.19716402789220
  H           7.67410527929448     41.83139802959437      7.26975145760175
  H          14.36711112294649     22.87278954464247      9.24579312761753
  H          13.26564618364988     41.69646914052154      9.47946528976348
  H          18.35775357530324     26.69072304265380      9.16858742559095
  H          17.89865748797077     39.71532681617663      9.99706001492504
  H          21.22286219288774     29.78613302022666      8.82410043294671
  H          21.25812678916999     34.44508052787256      9.01925262836038
  H          13.56634302650871     34.76262110830918      5.24801481214473
  H          11.04705531133445     35.14456311900778      4.91275651592729
  H           9.12113105700733     33.30290304684274      4.33518931033282
  H           9.46886834360470     30.32395074747002      4.58060096183986
  H          12.40856202956758     30.29195140932879      4.72033761597599
  H          14.21858664000161     32.20305771711961      5.02585344077366
  H          13.80587821040150     39.88212682809904      6.52408971396563
  H          11.38718258017451     39.37963301356307      5.50953819172706
  H           8.76837427462673     39.44993382569216      4.89165335522506
  H           6.91353268750134     37.66344764708203      4.04355893861308
  H           4.57175716103603     34.23081334901762      5.98123970736754
  H           3.15240509406670     32.84085274035103      7.57483151114940
  H           3.73291511375586     30.38456010285872      7.75480985588235
  H           5.19002146146448     28.36561284185042      6.95159126312835
  H           6.06308546209189     25.98914191737838      6.83413708859538
  H           8.12687422960773     24.79117032584623      5.47867418440244
  H          12.65584209061037     24.86807791726674      5.47983254626409
  H          15.11046106811978     24.89322884997427      6.30773030813410
  H          16.80855253033125     26.92341577738227      6.16450854021181
  H          17.81199369389487     29.52793840513143      5.83112380596108
  H          19.42800372114732     31.67819256104883      6.26538389339886
  H          18.92744397539921     34.34397662666380      6.31342524100260
  H          17.22623391168635     36.66013016128057      6.55648861573284
  H          16.20520397839788     39.05419966767075      6.96969225454632
  N          13.77217232150022     29.24748292709466     10.81349447147224
  C          15.00621756982136     28.86290025869910     11.27138496694889
  N          15.89913284368381     29.87341871147217     11.46290060339870
  C          15.68525564399111     31.23626712266318     11.28835851776803
  C          14.35843954176299     31.55074541868902     10.84617396811031
  C          13.47475305890145     30.56070790590514     10.61421188191679
  O          15.29587643402878     27.69341691148259     11.49599279018739
  O          16.59152902900894     32.02726247777324     11.50863699077460
  C          12.82934549923522     28.16297137141115     10.45118164401109
  C          12.35104634181436     27.33262462598295     11.65510896637431
  C          10.89912081372656     27.01575397627898     11.28748789188689
  C          10.49687915902179     28.26127620341318     10.50119246724611
  O          10.75403933379731     25.82363880159458     10.55976369185097
  O          11.70113052435001     28.71067545223760      9.85346408279458
  C           9.87941493423837     29.33501215739039     11.37073547887179
  O           9.35001625468838     30.38776430623150     10.58739698747563
  P           9.75837192736511     31.94371079540190     10.81542443512800
  O          10.41590755766900     32.10977907818519     12.14074935762221
  O          10.91915310674607     32.17242282461077      9.70919705722602
  O           8.55959260861447     32.74387233638017     10.43951891146101
  H          16.81462195440077     29.58972406051214     11.78724927663315
  H          14.09014110031157     32.58135770747089     10.67089162810133
  H          12.48037736112312     30.75994187685008     10.24144201171014
  H          13.36824709623350     27.52814915587405      9.74139928262794
  H          10.28459516609012     26.90013154319542     12.18125228805706
  H           9.79649608053340     27.99655248712936      9.70751760157506
  H          11.42380963332900     25.76917216780979      9.86457976325305
  H           9.05382812457967     28.87712888144667     11.92590945788093
  H          10.60195259336669     29.72352093610087     12.09357106126007
  H          10.56532648335787     32.14153374414598      8.80770873437362
  O          13.09401310369545     26.17179583419260     11.87291952698627
  H          12.34717795803977     27.98379545793709     12.53975695129389
  H          14.02527607618137     26.45504343383903     11.83005871993135
