163
6 Eopt=-23.8059403003 (Eh) Einter=-33.465103 (kcal/mol)
Si 3.55625019656028129589 33.84481352479286186963 7.82283052278224833032
Si 3.55593639203996669806 30.76681374418907211066 7.82283149497114926874
O  2.14730563749822600528 34.47995712126452616531 8.40980825154093203366
O  2.14686231980753561288 30.13195801686379127204 8.40980965984952355541
O  3.71008409478337242149 32.30579811987679050844 8.41283351036479842833
O  3.55527628767289805012 33.84681297543722422461 6.16683050750122507822
O  3.55496202327936039467 30.76481349835812650895 6.16683148092549870967
Si 6.21946585341816504666 26.15154206430855055032 7.82287394005969005661
Si 8.88330921976634080295 24.61427032565833883382 7.82291554135264544101
O  4.81039181921261427277 25.51668623375555000621 8.40985212649348135017
O  7.47536479290439892509 25.24941401093914450371 8.40989357703193540772
O  9.03814384302238060798 23.07525464050234020874 8.41291806278478659920
O  6.21949137449177058556 26.14954191146621553798 6.16687394246088604888
O  8.88333532795171265661 24.61627018271992284326 6.16691554185254720011
Si 6.21977957530185765478 29.22954202913785337614 7.82287337716032205037
Si 6.22040690769161486173 35.38154176783420012953 7.82287164878927310241
Si 8.88424986410370820522 33.84427020840467292828 7.82291381822494802378
Si 8.88393592320800884465 30.76627043726365329235 7.82291463330949987665
O  4.81083522476531477707 29.86468586834389071782 8.40985129755860683076
O  4.81133299521432977741 34.74668570943815382179 8.40984984350445685664
O  7.47630577949388896997 34.47941395787589868860 8.40989157685171306866
O  7.47586248140357145786 30.13141394195989875016 8.40989280941079186960
O  6.37361354571922333889 27.69052642942473951848 8.41287613708123593881
O  9.03908435122315268018 32.30525460355979561200 8.41291658763571703616
O  6.21980561434644396712 29.23154162255543297988 6.16687341005861888732
O  6.22043261670222324966 35.37954121374659877119 6.16687165242124368802
O  8.88427625487361183332 33.84626970952016478122 6.16691376010368941252
O  8.88396196239861346555 30.76426987469636387118 6.16691462625835917777
Si 6.22072074818257370055 38.45954160525027987205 7.82287044050265567563
Si 8.88487749821250005766 39.99627009551958423117 7.82291135313656837980
O  4.81177610574748371164 39.09468497584326485139 8.40984815215157865964
O  7.47680356752471464432 39.36141385626392974473 8.40988966439417851007
O  6.37455463336894911919 36.92052623014058099216 8.41287352655162656845
O  9.04002569342959283460 41.53525449264670044158 8.41291308181695285384
O  6.22074678695369520653 38.46154080486265769423 6.16687043972742010567
O  8.88490322600737592040 39.99426934438518799197 6.16691135388074673784
Si 11.54846575796386431989 26.15099867626726393155 7.82295698115169901854
Si 14.21330911475897806895 24.61372707265604375948 7.82299879705395273533
O  10.13939193065809973859 25.51614235578484013445 8.40993508663570388251
O  12.80436466615466173380 25.24887074127031638682 8.40997670591840496002
O  14.36714371843461179878 23.07471152264490399375 8.41300136395026854075
O  11.54849138221374360569 26.14899848711986152239 6.16695698308085837880
O  14.21233531248487835796 24.61572701471246915617 6.16699878112586485912
Si 11.54877956002556338433 29.22899841626837513786 7.82295661764471450539
Si 11.54940675233920366338 35.38099853524791171822 7.82295480069207549434
Si 14.21424988384537968500 33.84372695232449501646 7.82299680511154171825
Si 14.21393611607598650437 30.76572679712743862979 7.82299775911636618986
O  10.13983513163629979204 29.86414238608943705344 8.40993441583203171774
O  10.14033291936456215865 34.74614238454007875134 8.40993307449214810845
O  12.80530557808422642552 34.47887066751034268464 8.40997467165873402450
O  12.80486204633097635508 30.13087101352309815638 8.40997579168299935759
O  11.70261340587956411241 27.68998307232380184928 8.41295915343907374506
O  14.36808381814459778525 32.30471135551591999047 8.41299970429665044946
O  11.54880546365917304286 29.23099832325762292839 6.16695648955279907000
O  11.54943233787042800031 35.37899793264313075269 6.16695480161719977730
O  14.21327586761975858565 33.84572640662735665273 6.16699678021528541194
O  14.21296158096325790154 30.76372668058336401486 6.16699765702303448478
Si 11.54972065836347994150 38.45899842165552229289 7.82295359375289578452
Si 14.21487737042634691420 39.99572669388179235739 7.82299444831354939822
O  10.14077630390884365852 39.09414231215928481333 8.40993138145617891155
O  12.80580347558699649824 39.36087061912649431861 8.40997276991769204812
O  11.70355452038221599764 36.91998300360535978371 8.41295663507823299199
O  14.36902553036993168689 41.53471116350801395356 8.41299608121167707964
O  11.54974665217498852599 38.46099771195702032855 6.16695359095141881767
O  14.21390301388133536875 39.99372599791276883252 6.16699439726437592668
Si 16.87746539815244517513 26.15045546491003847223 7.82304011482651961984
O  15.46839169474095143642 25.51559922190390139463 8.41001837206232671917
O  18.13336401820947330066 25.24832717966481965277 8.41005977566432605386
O  16.87749085155426342908 26.14845510355603508401 6.16704011579080635386
Si 16.87777918386291275965 29.22845538846720359061 7.82303948832669515667
Si 16.87840659147125421669 35.38045556611695729998 7.82303768277293887223
Si 19.54224970707073794074 33.84318386703556313932 7.82307947540513737295
Si 19.54193573978811215852 30.76518362590246624677 7.82308037252029997433
O  15.46883484527905494588 29.86359915771426898345 8.41001742340415070487
O  15.46933273226996341521 34.74559899349660696544 8.41001605038716348872
O  18.13430521570088060912 34.47832719764318198941 8.41005742085574503619
O  18.13386196641793901563 30.13032741759599275611 8.41005878958249297739
O  17.03161313673896870569 27.68943984214793374576 8.41304221784610817281
O  19.69708352579929311332 32.30416802883117100009 8.41308233520647696935
O  16.87780510874079098471 29.23045500310760758111 6.16703947823606402068
O  16.87843198676338474229 35.37845458502031448234 6.16703763648352687454
O  19.54227532986654125580 33.84518319523709806163 6.16707943038471739783
O  19.54196108329612258103 30.76318307821615505304 6.16708037167342126850
Si 16.87872051154392494254 38.45845531305040765346 7.82303654946982618412
O  15.46977610475585862559 39.09359896675260159782 8.41001435974138544793
O  18.13480300209804951805 39.36032776485545525702 8.41005551110530724657
O  17.03255425687526525280 36.91943970783386674839 8.41303944586103114034
O  16.87874621752766302052 38.46045457344293083679 6.16703643100721521364
O  20.79783428586790705594 29.86305523032629949398 8.41010005789126324771
O  20.79833210090396278247 34.74505626929783375090 8.41009856318808957099
H  4.07465742950177745030 24.98677204111707794709 8.03659115485770669807
H  1.41040896910612190140 29.60201496911282603719 8.03674925630109271424
H  1.41040900883471920224 35.00798498539874969993 8.03674926204647199768
H  4.07465743674671010410 39.62322797230991255901 8.03659115991861838779
H  8.94818084691749149329 22.17325470607192272610 8.03830168960952384793
H  8.94818087845283116621 42.43674530332386041209 8.03830168074116357957
H  14.27776169753823154451 22.17320385292747531025 8.03828218835739072290
H  14.27776172533958742861 42.43679616299462509232 8.03828219528688059370
H  18.96055658431745882808 24.87622777430011566935 8.03640577882566198298
H  18.96055654074071128434 39.73377222568392141966 8.03640578399596350323
H  21.62471723013339897079 29.49141993156260355136 8.03658340903399093236
H  21.62471723719554006493 35.11858007442148021937 8.03658341078012838921
H  13.43954241000802873884 34.27033906905210614013 5.76911863292802262748
H  10.79702477476539357326 34.91824967051218919778 5.76839602664213924044
H  8.90770697740481409710 32.96594597065175236139 5.76499475439605912896
H  9.65945432309675666716 30.34299410488630499572 5.76888004269146392744
H  12.30259137394066470961 29.68912267819017003490 5.76803922595891460645
H  14.18560352715499561782 31.64418151724299832495 5.76552258381625915007
H  13.46208429052698285489 39.53603768266624740590 5.76468154380809760795
H  10.78553467879108751504 38.90473306705158051955 5.77122838977640384428
H  8.14831461447589333602 39.50994490515162738120 5.76699955034274935883
H  6.23317386269769713181 37.58286575765810511029 5.76180503598042648150
H  5.45415701930376339845 34.93908511564821139928 5.77152547629447365551
H  3.60566386855138354406 32.96814933244576195648 5.76410508772786212006
H  4.32812544174670499331 30.34544671529391379750 5.76331957730796773376
H  6.21212642939383030694 28.34933201816636128001 5.76816829046454415675
H  7.00946743370197467016 25.75759721983973093984 5.76754704179469079861
H  9.64012207136433829646 25.06582757761263380303 5.76488469560135108338
H  12.31500792547176104108 25.70853944688632708448 5.77192568460891042292
H  14.95343799051096489450 25.09203406458883378605 5.76610003219277000852
H  16.85241664021977214816 27.02653749580012032538 5.76116217495523841308
H  17.64630213892978716217 29.66655897843523348456 5.77122747450933015756
H  19.48194552610889118682 31.64158903890691831862 5.76482831510683446652
H  18.77355784927201654000 34.27390177546401162090 5.76498788643691995048
H  16.88031298435774374411 36.26100722061281089736 5.76894104128126272713
H  16.09309774922536462327 38.86024085385415816063 5.76722976603223269620
P  11.81262123248307638335 39.13597477922146339324 12.02349958335495827555
O  11.44154590756063960555 38.15275013867876907625 10.93549543495426945583
O  11.74069534119083257906 40.57760080553163817285 11.57523318667668554838
O  10.80313020018731329230 38.87457905441131345015 13.23943486680624914698
O  13.30105050752681350446 38.79061369223335020706 12.54729138904721708059
C  14.07919112748252743472 38.24280597480485255346 11.52858028867770556758
C  15.37762928438495535488 37.67051198927678967721 12.11096585740317266300
O  15.10837916131951885745 36.76435190433853961167 13.17997197691922295348
C  16.19158250968233403455 36.86940474083280605555 11.07256239014679621846
O  17.57252395032529079799 36.98215174557697793034 11.32205824340830524477
C  15.73046133497500420617 35.40223772461670392886 11.27620566765658338682
O  16.84184370804927155518 34.53147591416478690007 11.30173297850752511806
C  14.99592710673888795725 35.43797560695178106016 12.64776798661752010844
N  13.58727066032560060194 35.04378754499676063006 12.53031283675326790217
C  12.48858127133326689773 35.82056025324351367090 12.85055276558174597312
N  11.37020451049413338751 35.24285309935844878737 12.50863938879285797157
C  11.71323318548336800404 34.04983380116587454722 11.94656631167581295472
C  10.93255033960767974577 33.10194355792482667766 11.25730427163618863062
N  9.59555880356603729808 33.25520402895112681563 11.08137913442771882444
N  11.64605519704075220488 32.09910339070446383403 10.67640333012658615530
C  13.01153991843704105236 32.01346742887427865298 10.79379535142436807860
N  13.78314601890418700236 32.85695325255135657017 11.40150567448722718211
C  13.11040427898742777302 33.89041904195605070527 11.95529629939372995295
H  9.94676668251814355415 38.60523419393950916856 12.86471754549992141392
H  13.49009109029456077167 37.44339803169934555171 11.04816927138569937483
H  14.26925587426549668635 39.02567430308496909674 10.77540407678854705864
H  15.99119095060830986199 38.47647909928422649273 12.53911039888248879492
H  15.99506452272575529605 37.23908895605860891465 10.05858399593281582440
H  17.80634366254904321636 36.35427062335781300817 12.04089351093653448288
H  15.02511595983715153579 35.06514620787832825499 10.49825642432166361573
H  17.27180131861452849762 34.50117174793155072621 10.41234738027332262789
H  15.49423753613160492648 34.75784288357002793646 13.35008280038766059761
H  12.54668805492750394137 36.82665634913632857206 13.24321735728144844302
H  9.15350387579759505741 34.13322748585056132242 11.30615256138601765201
H  9.18791266694376673740 32.83234357440066730760 10.25461560146052519826
H  13.50165961191030561395 31.20836258419771880313 10.26981102002111967408
H  11.16076631191384649355 31.42332293838188306268 10.08802026884786862126
