159
Coordinates from ORCA-job /data/Seafile/ump/frames/frame14/ump_frame14 E -13412.059546132183
  Si          3.50228696222291     33.89884497457148      7.78783238877274
  Si          3.45991303618066     30.79358992837145      7.81949408174581
  O           2.30607976665721     34.83025062109355      8.37415227536029
  O           2.17626152821635     30.02594006515755      8.46134520098560
  O           3.44210330833624     32.35565316299471      8.32784204772280
  O           3.53954307972148     33.89068130277805      6.15127468376181
  O           3.44571047011411     30.84134870936258      6.18364857258088
  Si          6.13427159804302     26.15011255915679      7.77744534973987
  Si          8.82974832609196     24.53953751876976      7.76463525921446
  O           4.80618968446267     25.48213245565697      8.44352527703836
  O           7.48494295245398     25.34948934343392      8.23487137244659
  O           8.74836914168233     23.04798025879570      8.41886884788259
  O           6.05906445839487     26.19293236688112      6.14052108562468
  O           8.84904871802757     24.50321933613150      6.13097000983704
  Si          6.12801502645246     29.24602492800950      7.71979346823326
  Si          6.17419307665693     35.45551010203052      7.71957286317167
  Si          8.90109136200507     33.86422494864830      7.68049284854265
  Si          8.87619180469964     30.79478747172062      7.70138191580942
  O           4.84596390097037     30.06551912744841      8.32213837620359
  O           4.91249563322995     34.58584935323672      8.31055462167651
  O           7.56515522261530     34.69088499713747      8.10828295677559
  O           7.49509046447731     30.04585204169242      8.12276167922055
  O           6.19617248602510     27.71570938838179      8.27624007070965
  O           8.83711116098119     32.33526572195987      8.26564893554139
  O           5.92829489773336     29.22024481017914      6.09489047100396
  O           6.01158775349549     35.58308927522393      6.09798297314209
  O           9.05103989040067     33.80409864941905      6.05296696371824
  O           9.01000719867834     30.90061099834936      6.07431437938458
  Si          6.19313945987836     38.55211410724521      7.79129394058203
  Si          8.91847276960226     40.06402799450589      7.79811634755880
  O           4.92902609944441     39.36124689992040      8.42460841239850
  O           7.55801913169713     39.30521339840589      8.30686464143266
  O           6.21539952885743     36.98440590642720      8.29021642747114
  O           9.05029994359179     41.55512311819518      8.43696590595367
  O           6.21652609019753     38.58337469486777      6.15546631481162
  O           8.93965119994755     40.08154619245339      6.16016808452515
  Si         11.51067247569066     26.07986875133587      7.71314687501785
  Si         14.18696505634868     24.53899255304962      7.79497317431751
  O          10.15986553005969     25.35882773781258      8.28841507704120
  O          12.86677560509043     25.38209740963417      8.29845238906427
  O          14.02167371738572     23.03809088470960      8.40241513565461
  O          11.47122773267520     25.90171752452056      6.08658674119489
  O          14.17971145900054     24.55005974503416      6.15669355751002
  Si         11.51711262416147     29.23830532045675      7.71722251003841
  Si         11.58028038673225     35.36432916399162      7.66511028659409
  Si         14.23051561126111     33.81442103920570      7.65514478575199
  Si         14.19485763459742     30.73948649433198      7.67597703108138
  O          10.16845283623193     29.97846210181516      8.29010800053059
  O          10.22047575125010     34.65758934872635      8.24484890093562
  O          12.92848232234559     34.62505209141726      8.23511026546930
  O          12.88625388104172     29.94818364546203      8.26772586085969
  O          11.48054319691777     27.66169065161483      8.12253893520247
  O          14.28563552256874     32.27891760421009      8.22075290923433
  O          11.46678082700963     29.40804386889430      6.08801058849593
  O          11.60963492511070     35.20035458692586      6.03742884364754
  O          14.10360169304992     33.70572344708144      6.02756952960089
  O          14.01650951857324     30.76723383664190      6.04818182355501
  Si         11.59585827240283     38.52319345359709      7.70243978621252
  Si         14.27684615946755     40.06304056977052      7.80715743619719
  O          10.23920904030971     39.21470176760336      8.29266784711513
  O          12.94944233540743     39.22435504331952      8.29488932020971
  O          11.61783101589037     36.93515829693843      8.08929863935341
  O          14.23705393710289     41.55718811306232      8.45334077799392
  O          11.64552726689178     38.72732911772975      6.08023222197182
  O          14.34313220569209     40.06256960657189      6.17131334296552
  Si         16.90251086895245     26.05554042614513      7.80944716543448
  O          15.54852047686894     25.28230956359258      8.32171114545148
  O          18.19750795390443     25.31002208831956      8.45670218934803
  O          16.87655577889769     26.01101602607764      6.17366605211028
  Si         16.92392150549283     29.14724093743245      7.71376891704193
  Si         16.96790689579824     35.39357270240830      7.69405196819323
  Si         19.63332569710971     33.82342275703832      7.79268228922001
  Si         19.58832875280314     30.70714815466297      7.80630474242144
  O          15.53684532351026     29.91998494652679      8.09869770012616
  O          15.60491698358590     34.57815344003159      8.08062978157627
  O          18.26073159997482     34.58513214841150      8.28718988386025
  O          18.20094385124802     29.97628024438294      8.30642236410120
  O          16.85702686450332     27.62321646305362      8.30395480749757
  O          19.60310512126888     32.26585003389512      8.31133309043352
  O          17.07993284858085     29.00511461609798      6.09139836531443
  O          17.17142662810194     35.44402294941785      6.07133416529291
  O          19.65383861999467     33.78584531347867      6.15728420688366
  O          19.58249708989016     30.67326728128441      6.16841810603632
  Si         16.95186794673787     38.48234539937152      7.78752666726970
  O          15.63047535758195     39.29111492255254      8.32312079267467
  O          18.33697156630679     39.08079084211793      8.39745552487319
  O          16.88201574683831     36.91459614007401      8.28138173820627
  O          16.93975281946712     38.48352428214375      6.14995274128346
  O          20.82968781417321     29.87206845120946      8.44754604579179
  O          20.96385788542526     34.51809899640697      8.42683605859816
  H           4.07465742420555     24.98677203659351      8.03659115250472
  H           1.41040896362100     29.60201496828885      8.03674925587967
  H           1.41040916834986     35.00798485780454      8.03674926207751
  H           4.07465743398387     39.62322797412480      8.03659115887699
  H           8.94818084396482     22.17325470430066      8.03830169030059
  H           8.94818087916852     42.43674527632690      8.03830168907235
  H          14.27776156499691     22.17320394093946      8.03828218908791
  H          14.27776173270607     42.43679625023780      8.03828218242834
  H          18.96055658262001     24.87622777432469      8.03640578227335
  H          18.96055653260717     39.73377222276383      8.03640578089074
  H          21.62471722665516     29.49141993098743      8.03658340920601
  H          21.62471722677392     35.11858006938705      8.03658340708312
  H          13.33558325652537     34.16977481886558      5.65821082556599
  H          10.82050515472897     34.77364958509359      5.66750521719483
  H           9.04188493729436     32.90372323796895      5.69006241095983
  H           9.78283930280847     30.43357596586558      5.71542640643511
  H          12.25691567854502     29.83009125249308      5.71323907272390
  H          14.05554949478238     31.65556516005235      5.66102903446718
  H          13.53097459036734     39.77018115492378      5.73409002449046
  H          10.83353792299497     39.08066474164440      5.69062516360987
  H           8.17995971061347     39.65641958423330      5.73990331054043
  H           6.09468067902823     37.72093946645090      5.73395463515906
  H           5.32092510242061     35.02818583755796      5.70847165003543
  H           3.54571762905147     33.00745683151239      5.75553448244995
  H           4.13228647353760     30.30188958811441      5.76412830684240
  H           6.01811287126856     28.34509616532823      5.69220200267805
  H           6.74950962894408     25.70496719376366      5.67617825663215
  H           9.64748726522584     24.88007806224850      5.73383500577684
  H          12.28413221588543     25.55101955741655      5.69632239924391
  H          14.94348826137785     24.98546392644267      5.75345893158450
  H          17.01706245003103     26.86772492307217      5.74573097698693
  H          17.79002236479147     29.53737687779557      5.70524307274059
  H          19.61905959145309     31.54043371500134      5.74295870832132
  H          18.95997763386575     34.31269252270665      5.73528907076181
  H          17.04834869543033     36.31409512082980      5.66787015700203
  H          16.17688422863457     38.93010465072547      5.75626441831134
  N           9.61195283887131     30.29694177308080     11.94466144812215
  C          10.24306919297277     29.19710856267957     11.42177951260670
  N           9.43895344761558     28.12224926685246     11.18994329512041
  C           8.07093825589619     28.02681880914615     11.42658648966900
  C           7.47986306064021     29.25531373879785     11.88214850249232
  C           8.26397609976963     30.31952755059044     12.13908304986491
  O          11.44634140555289     29.18406860453472     11.19119380019816
  O           7.49377186034065     26.96582758101935     11.24803781905742
  C          10.49181654674231     31.41000060946934     12.36240799809135
  C          11.11788308283699     32.16368101786360     11.17658751191217
  C          11.04682906866159     33.61801640545423     11.63739017618536
  C           9.78376688477214     33.61689349578327     12.47478692605939
  O          12.14975616231872     33.93365410650117     12.45471568486833
  O           9.76348748725846     32.32684659126694     13.10663151841349
  C           8.53159415841109     33.85523090847813     11.66170009354114
  O           7.41497110099639     33.65395248501215     12.50275354439886
  P           5.93090048564998     34.01504605681382     11.94859592430422
  O           5.90889114770583     35.40832863430385     11.41762589192932
  O           5.80209917956123     32.98547376455208     10.70292829167234
  O           5.00769220768103     33.58757859462108     13.03261601933266
  H           9.90048239212684     27.29892068145308     10.82564881522335
  H           6.41408745020086     29.29659023897072     12.05015904109755
  H           7.87427138901995     31.25195441365911     12.52636787682789
  H          11.27655471335349     30.96116130902709     12.97806854147630
  H          10.97327855751779     34.30690488977025     10.79026674161299
  H           9.84418330833444     34.35249363643575     13.27876909845448
  H          12.89475659293148     33.41481513323713     12.12096574476926
  H           8.55028398224523     34.87969974198569     11.27490698469309
  H           8.47618505001568     33.16951137630164     10.80797847940884
  H           5.62884328508062     33.47059420360995      9.88416060966458
  O          12.44539076361691     31.80329409420307     10.92905036765034
  H          10.49340854004521     32.03054947728519     10.28767315542710
  H          12.45602482670690     30.83544085655503     10.85493715614130
