161
Coordinates from ORCA-job /data/Seafile/cmp/protonated/frames/frame11/dry/cmp_prot11 E -13392.416043157009
  Si      3.502012     33.898490      7.790680
  Si      3.461445     30.790629      7.810760
  O       2.289391     34.798971      8.396928
  O       2.175764     30.029974      8.458723
  O       3.462616     32.349602      8.324003
  O       3.514402     33.891902      6.152873
  O       3.433019     30.839098      6.175057
  Si      6.145967     26.139800      7.799756
  Si      8.823972     24.545635      7.791961
  O       4.798991     25.492093      8.443957
  O       7.487639     25.348090      8.308136
  O       8.767797     23.047339      8.429697
  O       6.119111     26.152397      6.162397
  O       8.782306     24.542581      6.156427
  Si      6.128007     29.229694      7.705301
  Si      6.171038     35.447874      7.702744
  Si      8.906652     33.866055      7.691411
  Si      8.872679     30.796144      7.668439
  O       4.846004     30.051133      8.302265
  O       4.894621     34.618298      8.291240
  O       7.561325     34.685571      8.104345
  O       7.494811     30.040987      8.088164
  O       6.210431     27.708984      8.293395
  O       8.837869     32.328354      8.254536
  O       5.920134     29.176401      6.083491
  O       6.038656     35.581438      6.078491
  O       9.081249     33.825733      6.064292
  O       9.001614     30.919828      6.042758
  Si      6.198358     38.545290      7.793519
  Si      8.912630     40.066750      7.789593
  O       4.941838     39.375235      8.407659
  O       7.572357     39.279394      8.349759
  O       6.206700     36.978900      8.282494
  O       9.023298     41.552773      8.437457
  O       6.269211     38.597028      6.160408
  O       8.873240     40.078330      6.158053
  Si     11.514209     26.075568      7.697446
  Si     14.194978     24.538048      7.787860
  O      10.166616     25.360022      8.286035
  O      12.873245     25.385364      8.282465
  O      14.022775     23.039646      8.399295
  O      11.460651     25.887071      6.073435
  O      14.197793     24.544383      6.150164
  Si     11.519195     29.235786      7.674433
  Si     11.578233     35.370869      7.705305
  Si     14.222883     33.821470      7.701638
  Si     14.185080     30.754184      7.706178
  O      10.166268     29.968782      8.244249
  O      10.220254     34.656099      8.275761
  O      12.932243     34.645730      8.286465
  O      12.862588     29.962701      8.279071
  O      11.488690     27.663469      8.092464
  O      14.252168     32.286613      8.291600
  O      11.501671     29.408416      6.049678
  O      11.622629     35.196081      6.079258
  O      14.080373     33.691720      6.077540
  O      14.024575     30.813211      6.080367
  Si     11.602046     38.523572      7.699037
  Si     14.282147     40.065359      7.796249
  O      10.244085     39.230357      8.263736
  O      12.953466     39.228554      8.288083
  O      11.607900     36.944060      8.120569
  O      14.253092     41.555671      8.451428
  O      11.675573     38.697321      6.074949
  O      14.336075     40.073903      6.160890
  Si     16.904048     26.064827      7.811429
  O      15.555868     25.279194      8.321003
  O      18.212540     25.338966      8.453868
  O      16.874189     26.024884      6.175586
  Si     16.909357     29.156810      7.729560
  Si     16.970580     35.383390      7.699970
  Si     19.636993     33.816639      7.797772
  Si     19.581761     30.701712      7.811298
  O      15.522785     29.930046      8.127084
  O      15.608919     34.571023      8.100907
  O      18.263535     34.576579      8.293939
  O      18.189711     29.982842      8.318208
  O      16.843923     27.630560      8.312727
  O      19.611305     32.259554      8.318686
  O      17.053413     29.024713      6.105736
  O      17.161750     35.416119      6.075078
  O      19.652297     33.776155      6.162265
  O      19.565786     30.672963      6.173316
  Si     16.956928     38.476757      7.778758
  O      15.633691     39.287819      8.304179
  O      18.337969     39.078611      8.395174
  O      16.891671     36.908815      8.270838
  O      16.952661     38.473850      6.141137
  O      20.814299     29.845950      8.441532
  O      20.967757     34.514154      8.427355
  H       4.074657     24.986772      8.036591
  H       1.410409     29.602015      8.036749
  H       1.410409     35.007985      8.036749
  H       4.074657     39.623228      8.036591
  H       8.948181     22.173255      8.038302
  H       8.948181     42.436745      8.038302
  H      14.277762     22.173204      8.038282
  H      14.277762     42.436796      8.038282
  H      18.960557     24.876228      8.036406
  H      18.960557     39.733772      8.036406
  H      21.624717     29.491420      8.036583
  H      21.624717     35.118580      8.036583
  H      13.310713     34.157196      5.710651
  H      10.832229     34.770611      5.708107
  H       9.053806     32.933277      5.684321
  H       9.764461     30.454051      5.665541
  H      12.287743     29.849463      5.688540
  H      14.034252     31.713159      5.714870
  H      13.528714     39.761258      5.728549
  H      10.864641     39.000856      5.647409
  H       8.107059     39.633140      5.767648
  H       6.160527     37.740850      5.722403
  H       5.334991     35.050536      5.680293
  H       3.507554     33.010191      5.754713
  H       4.105136     30.290863      5.745399
  H       6.031114     28.301605      5.685926
  H       6.855060     25.690014      5.739564
  H       9.583820     24.881196      5.732661
  H      12.271886     25.544824      5.673530
  H      14.959757     24.987688      5.751851
  H      17.011571     26.882618      5.748886
  H      17.764453     29.555691      5.719100
  H      19.602574     31.541813      5.750880
  H      18.953943     34.298545      5.741956
  H      17.045823     36.284114      5.665374
  H      16.197150     38.925446      5.740273
  P       8.350128     37.728099     11.990559
  O      12.290300     37.271092     13.237238
  O      14.332432     39.356145     12.709932
  O      15.166776     37.339236     11.253930
  O       9.751861     38.263488     12.615675
  O      14.692908     34.554266     11.436842
  O       7.490926     37.448645     13.169757
  O       8.636036     36.679068     10.969366
  O       7.777538     39.048705     11.251879
  N      12.623615     35.272028     12.058404
  N      12.934807     33.153127     11.174451
  N      11.199878     31.697791     10.788876
  C      13.370076     38.811081     11.837998
  C      13.778032     37.404135     11.401875
  C      12.093252     38.554042     12.612197
  C      13.236797     36.533721     12.551150
  C      10.841275     38.558494     11.766434
  C      11.294097     35.038316     12.109409
  C      13.499522     34.346858     11.550786
  C      10.749589     33.873064     11.688916
  C      11.613287     32.870902     11.204348
  H      13.202499     39.463673     10.975523
  H      13.262895     37.141511     10.471118
  H      11.984183     39.275924     13.423444
  H      14.045585     36.227148     13.219976
  H      10.905335     37.819575     10.960144
  H      10.720541     39.548220     11.312219
  H      15.190626     39.017335     12.420029
  H      15.403303     36.401156     11.201401
  H      10.691463     35.843655     12.505365
  H       9.683350     33.710016     11.719007
  H      10.217742     31.477216     10.812858
  H      11.836744     30.999132     10.437820
  H       7.809529     38.970384     10.287571
  H      13.592153     32.474806     10.807134
161
Coordinates from ORCA-job /data/Seafile/cmp/protonated/frames/frame11/dry/cmp_prot11 E -13392.411369985419
  Si      3.499967     33.898130      7.781466
  Si      3.459705     30.790335      7.805097
  O       2.288124     34.799441      8.389374
  O       2.173960     30.028904      8.453538
  O       3.462454     32.348824      8.312389
  O       3.497451     33.884289      6.141409
  O       3.429092     30.831800      6.167385
  Si      6.145392     26.137671      7.801969
  Si      8.823179     24.544656      7.798308
  O       4.795641     25.491225      8.441957
  O       7.486579     25.346709      8.309765
  O       8.767570     23.043252      8.429594
  O       6.120236     26.140988      6.162713
  O       8.786347     24.542592      6.161127
  Si      6.124601     29.227382      7.694446
  Si      6.166484     35.451023      7.675806
  Si      8.903367     33.869165      7.630675
  Si      8.870885     30.795446      7.636575
  O       4.845874     30.051108      8.289772
  O       4.895068     34.616988      8.268031
  O       7.563221     34.686080      8.048852
  O       7.494607     30.043187      8.062884
  O       6.210068     27.708807      8.286669
  O       8.839357     32.332633      8.205594
  O       5.910141     29.161948      6.072454
  O       6.011196     35.589782      6.051211
  O       9.075438     33.807612      6.001462
  O       9.007647     30.898942      6.008987
  Si      6.197853     38.544540      7.788505
  Si      8.905395     40.071932      7.786410
  O       4.939073     39.372833      8.402689
  O       7.570683     39.278500      8.342942
  O       6.207044     36.976359      8.258918
  O       9.025486     41.556893      8.434933
  O       6.263252     38.602047      6.152328
  O       8.855496     40.097263      6.152733
  Si     11.513928     26.073420      7.705167
  Si     14.195727     24.538510      7.796568
  O      10.165785     25.359334      8.290704
  O      12.873535     25.385232      8.289019
  O      14.023532     23.036187      8.400264
  O      11.464186     25.880148      6.080413
  O      14.202011     24.545220      6.157359
  Si     11.519383     29.234216      7.664379
  Si     11.577106     35.377468      7.634811
  Si     14.223820     33.824550      7.653557
  Si     14.187648     30.754657      7.687913
  O      10.165634     29.973458      8.222582
  O      10.222393     34.660837      8.196659
  O      12.930199     34.651003      8.224132
  O      12.861922     29.968671      8.267746
  O      11.487649     27.665403      8.091459
  O      14.250434     32.292391      8.257932
  O      11.512304     29.397064      6.037907
  O      11.618720     35.194301      6.008181
  O      14.078644     33.685279      6.029788
  O      14.030938     30.806382      6.061068
  Si     11.597143     38.534974      7.662725
  Si     14.282596     40.067755      7.781859
  O      10.242653     39.232688      8.238039
  O      12.951258     39.229324      8.258800
  O      11.605833     36.947638      8.056494
  O      14.252152     41.555855      8.442525
  O      11.666257     38.736411      6.040055
  O      14.339826     40.084863      6.144998
  Si     16.904606     26.064679      7.818853
  O      15.557068     25.278749      8.326873
  O      18.216077     25.337005      8.454160
  O      16.874171     26.025601      6.181500
  Si     16.913009     29.156300      7.730441
  Si     16.975935     35.386583      7.672004
  Si     19.639407     33.816959      7.791206
  Si     19.584389     30.702878      7.811605
  O      15.523074     29.933244      8.117631
  O      15.607821     34.573479      8.053159
  O      18.262868     34.577307      8.273772
  O      18.191511     29.984548      8.315423
  O      16.845291     27.631466      8.315427
  O      19.612583     32.260936      8.312465
  O      17.063447     29.020261      6.106552
  O      17.183564     35.430728      6.048214
  O      19.660991     33.774891      6.154189
  O      19.572255     30.673837      6.171852
  Si     16.957195     38.479380      7.768418
  O      15.632122     39.287595      8.287944
  O      18.338774     39.078891      8.387932
  O      16.890851     36.908239      8.247107
  O      16.957570     38.487698      6.129024
  O      20.817316     29.845223      8.439291
  O      20.968336     34.516876      8.422501
  H       4.074657     24.986772      8.036591
  H       1.410409     29.602015      8.036749
  H       1.410409     35.007985      8.036749
  H       4.074657     39.623228      8.036591
  H       8.948181     22.173255      8.038302
  H       8.948181     42.436745      8.038302
  H      14.277762     22.173204      8.038282
  H      14.277762     42.436796      8.038282
  H      18.960557     24.876228      8.036406
  H      18.960557     39.733772      8.036406
  H      21.624717     29.491420      8.036583
  H      21.624717     35.118580      8.036583
  H      13.311588     34.157124      5.666165
  H      10.820099     34.773528      5.648517
  H       9.038626     32.910894      5.636813
  H       9.767094     30.422045      5.643733
  H      12.303317     29.828731      5.680881
  H      14.049755     31.704816      5.694426
  H      13.532333     39.775368      5.713386
  H      10.852156     39.047196      5.626540
  H       8.083125     39.659950      5.769772
  H       6.152254     37.746072      5.718368
  H       5.302486     35.059913      5.666003
  H       3.481912     33.000915      5.751784
  H       4.100611     30.281621      5.742811
  H       6.020107     28.285303      5.684166
  H       6.853564     25.672073      5.746778
  H       9.588495     24.880830      5.742400
  H      12.275527     25.537604      5.685994
  H      14.966669     24.983868      5.763577
  H      17.012245     26.882427      5.757616
  H      17.775892     29.550491      5.725189
  H      19.615276     31.542828      5.753611
  H      18.964670     34.297237      5.733864
  H      17.071395     36.302513      5.648335
  H      16.204887     38.946546      5.733817
  P       8.466044     37.731326     11.969741
  O      12.417213     37.658944     13.022154
  O      14.283284     39.897015     12.421679
  O      15.030374     38.012879     10.740697
  O       9.790547     38.430933     12.615899
  O      14.562195     35.216933     10.607481
  O       7.656759     37.301741     13.132327
  O       8.921288     36.771960     10.916667
  O       7.764426     39.008848     11.257320
  N      12.635555     35.805733     11.668619
  N      12.789842     33.809506     10.506394
  N      11.018235     32.360744     10.254237
  C      13.254679     39.359187     11.629298
  C      13.666985     38.011282     11.045857
  C      12.085734     38.963123     12.505929
  C      13.299411     37.036615     12.175999
  C      10.782929     38.899382     11.749162
  C      11.336535     35.538978     11.928658
  C      13.414744     34.966856     10.916348
  C      10.730990     34.404113     11.492816
  C      11.494571     33.492880     10.741631
  H      12.957428     40.054073     10.837619
  H      13.054377     37.793295     10.162716
  H      11.997085     39.622751     13.369840
  H      14.198901     36.704737     12.703136
  H      10.872836     38.213250     10.895534
  H      10.531349     39.894286     11.360712
  H      15.112784     39.625100     12.007476
  H      15.287038     37.090520     10.600876
  H      10.807355     36.285420     12.513320
  H       9.688759     34.213446     11.711415
  H      10.057051     32.114568     10.416408
  H      11.580433     31.732621      9.699306
  H       7.808343     38.951100     10.293498
  H      13.370667     33.202231      9.942305
161
Coordinates from ORCA-job /data/Seafile/cmp/protonated/frames/frame11/dry/cmp_prot11 E -13392.425905654974
  Si      3.497310     33.898587      7.771482
  Si      3.458605     30.790956      7.804753
  O       2.287147     34.801666      8.380409
  O       2.170714     30.029022      8.450158
  O       3.462089     32.349744      8.303214
  O       3.477879     33.874703      6.128995
  O       3.429055     30.823047      6.164615
  Si      6.145382     26.135399      7.811839
  Si      8.823565     24.544656      7.813301
  O       4.791222     25.489310      8.442832
  O       7.485566     25.344586      8.319408
  O       8.767308     23.037909      8.432270
  O       6.124115     26.131568      6.170328
  O       8.793628     24.547656      6.174141
  Si      6.121103     29.224757      7.696460
  Si      6.161297     35.454096      7.642167
  Si      8.898463     33.872693      7.584081
  Si      8.866936     30.794413      7.622108
  O       4.844703     30.051292      8.287054
  O       4.894474     34.618458      8.240550
  O       7.562806     34.688882      7.998278
  O       7.492843     30.045348      8.054300
  O       6.208688     27.707510      8.289936
  O       8.838092     32.337575      8.172388
  O       5.904917     29.149234      6.073555
  O       5.986557     35.591202      6.016237
  O       9.068043     33.784166      5.953251
  O       9.011411     30.874127      5.992585
  Si      6.194935     38.546175      7.763644
  Si      8.901973     40.072284      7.771862
  O       4.938289     39.369899      8.388966
  O       7.571970     39.268542      8.314473
  O       6.206276     36.977023      8.218984
  O       9.028060     41.555072      8.427406
  O       6.250609     38.608882      6.123666
  O       8.841029     40.120293      6.136213
  Si     11.514309     26.073982      7.728361
  Si     14.196379     24.540007      7.811099
  O      10.165627     25.358693      8.307849
  O      12.875197     25.385373      8.305723
  O      14.025493     23.032249      8.403438
  O      11.467244     25.881947      6.102044
  O      14.202873     24.549757      6.170081
  Si     11.518776     29.234104      7.672658
  Si     11.571251     35.385737      7.560162
  Si     14.224564     33.829720      7.573222
  Si     14.188506     30.755974      7.667814
  O      10.164130     29.980144      8.219495
  O      10.223964     34.667210      8.130921
  O      12.931188     34.658665      8.137549
  O      12.861359     29.981487      8.266648
  O      11.487280     27.669359      8.109343
  O      14.250598     32.305308      8.206059
  O      11.517317     29.381161      6.043909
  O      11.600010     35.196209      5.932050
  O      14.062254     33.672452      5.951970
  O      14.029981     30.790439      6.040278
  Si     11.597591     38.547061      7.627689
  Si     14.284868     40.072599      7.771593
  O      10.243471     39.232148      8.207192
  O      12.951854     39.232046      8.236835
  O      11.605707     36.951576      7.991336
  O      14.253135     41.558262      8.436685
  O      11.664582     38.776465      6.006754
  O      14.343847     40.101705      6.132916
  Si     16.905022     26.065722      7.828021
  O      15.559102     25.279100      8.335914
  O      18.220160     25.336110      8.454462
  O      16.872458     26.026291      6.188935
  Si     16.915213     29.157041      7.729877
  Si     16.984828     35.392242      7.616609
  Si     19.643044     33.816935      7.772710
  Si     19.586685     30.703744      7.806748
  O      15.522654     29.939626      8.105790
  O      15.607761     34.578066      7.967205
  O      18.261065     34.578183      8.231934
  O      18.192643     29.987719      8.308445
  O      16.846301     27.634089      8.317737
  O      19.612691     32.263030      8.296714
  O      17.071148     29.015366      6.105744
  O      17.219830     35.456285      5.995633
  O      19.678838     33.772028      6.134147
  O      19.579427     30.671413      6.164992
  Si     16.958565     38.484388      7.750079
  O      15.633151     39.288163      8.269101
  O      18.340382     39.077423      8.376459
  O      16.890658     36.906856      8.205084
  O      16.964700     38.512359      6.108767
  O      20.819626     29.845683      8.434531
  O      20.966307     34.519901      8.412994
  H       4.074657     24.986772      8.036591
  H       1.410409     29.602015      8.036749
  H       1.410409     35.007985      8.036749
  H       4.074657     39.623228      8.036591
  H       8.948181     22.173255      8.038302
  H       8.948181     42.436745      8.038302
  H      14.277762     22.173204      8.038282
  H      14.277762     42.436796      8.038282
  H      18.960557     24.876228      8.036406
  H      18.960557     39.733772      8.036406
  H      21.624717     29.491420      8.036583
  H      21.624717     35.118580      8.036583
  H      13.293348     34.149974      5.598036
  H      10.792661     34.781231      5.587538
  H       9.021706     32.882910      5.606753
  H       9.767124     30.386515      5.640002
  H      12.310737     29.802643      5.686369
  H      14.057466     31.685420      5.667361
  H      13.536926     39.797092      5.701270
  H      10.848288     39.094007      5.606616
  H       8.061928     39.690681      5.760821
  H       6.134585     37.751932      5.696146
  H       5.273442     35.060807      5.645509
  H       3.453687     32.989585      5.749465
  H       4.099982     30.270656      5.746817
  H       6.015273     28.271371      5.693916
  H       6.855264     25.657081      5.761718
  H       9.596367     24.886322      5.761956
  H      12.278490     25.540785      5.711414
  H      14.969378     24.984538      5.780270
  H      17.010717     26.882016      5.767347
  H      17.784972     29.544270      5.729114
  H      19.628840     31.540183      5.750189
  H      18.985742     34.294459      5.711158
  H      17.114429     36.333879      5.610033
  H      16.215676     38.980584      5.721384
  P       8.384095     37.441071     11.841419
  O      12.140870     37.062089     13.176228
  O      14.309167     39.056767     12.706524
  O      15.041487     36.991647     11.259504
  O       9.747997     38.030292     12.529357
  O      14.287425     34.258178     11.219629
  O       7.552833     37.000285     12.975949
  O       8.828729     36.513818     10.749355
  O       7.769262     38.799392     11.195469
  N      12.302790     35.127385     11.922785
  N      12.395060     33.074692     10.854271
  N      10.531803     31.843807     10.291043
  C      13.331500     38.577387     11.821216
  C      13.659395     37.156055     11.372703
  C      12.028509     38.365485     12.570099
  C      13.034207     36.302365     12.486265
  C      10.799007     38.396699     11.702907
  C      10.954657     35.027368     11.969255
  C      13.085038     34.168045     11.338174
  C      10.294567     33.948986     11.454029
  C      11.050490     32.930122     10.861122
  H      13.217276     39.239754     10.953747
  H      13.146462     36.947965     10.425782
  H      11.926856     39.066160     13.398426
  H      13.810596     35.897015     13.143442
  H      10.877817     37.672940     10.875318
  H      10.656391     39.400948     11.279953
  H      15.146211     38.674396     12.417852
  H      15.208757     36.043420     11.211630
  H      10.426759     35.860759     12.432848
  H       9.215463     33.899417     11.484982
  H       9.535559     31.724606     10.267889
  H      11.099062     31.143928      9.832609
  H       7.807170     38.801252     10.238138
  H      12.982172     32.384441     10.407633
161
Coordinates from ORCA-job /data/Seafile/cmp/protonated/frames/frame11/dry/cmp_prot11 E -13392.430854047623
  Si      3.498172     33.897633      7.784430
  Si      3.457564     30.790110      7.806037
  O       2.285810     34.799871      8.387211
  O       2.171991     30.027009      8.451148
  O       3.461090     32.346667      8.309405
  O       3.486123     33.878531      6.141452
  O       3.424033     30.826926      6.165728
  Si      6.145604     26.133067      7.802718
  Si      8.823499     24.543899      7.803889
  O       4.793577     25.490393      8.439205
  O       7.486592     25.344492      8.308553
  O       8.767656     23.040518      8.428506
  O       6.121220     26.125262      6.160818
  O       8.792778     24.542639      6.164390
  Si      6.116807     29.220317      7.683037
  Si      6.161620     35.453709      7.678012
  Si      8.893972     33.870166      7.627839
  Si      8.864312     30.788888      7.611667
  O       4.844588     30.047295      8.280532
  O       4.891428     34.615869      8.263735
  O       7.558172     34.683689      8.038638
  O       7.490642     30.038129      8.036221
  O       6.208640     27.704846      8.276234
  O       8.830620     32.323624      8.185626
  O       5.894039     29.144156      6.061007
  O       5.998049     35.591733      6.050862
  O       9.073298     33.798902      5.997481
  O       9.020245     30.884941      5.984481
  Si      6.200960     38.546470      7.795716
  Si      8.905791     40.072144      7.778122
  O       4.938729     39.373529      8.403938
  O       7.582439     39.272622      8.334437
  O       6.207461     36.977183      8.254492
  O       9.031328     41.556530      8.427688
  O       6.258460     38.604841      6.155073
  O       8.844329     40.110774      6.141449
  Si     11.515080     26.069603      7.713003
  Si     14.197009     24.539956      7.808103
  O      10.166061     25.358017      8.293498
  O      12.874280     25.384399      8.295552
  O      14.023934     23.033450      8.400843
  O      11.470620     25.872355      6.086868
  O      14.209700     24.548777      6.166714
  Si     11.522366     29.230417      7.663948
  Si     11.566786     35.380508      7.632312
  Si     14.225309     33.832765      7.665104
  Si     14.189989     30.757444      7.707215
  O      10.161240     29.970018      8.207087
  O      10.213994     34.659119      8.198555
  O      12.924136     34.656802      8.218974
  O      12.858148     29.973022      8.279308
  O      11.487870     27.664655      8.090756
  O      14.245526     32.298439      8.274052
  O      11.532421     29.396483      6.036928
  O      11.611512     35.186444      6.004639
  O      14.081497     33.686356      6.040788
  O      14.040193     30.811361      6.078735
  Si     11.596273     38.540156      7.649287
  Si     14.283944     40.069754      7.779457
  O      10.245254     39.234969      8.219031
  O      12.949889     39.233717      8.244661
  O      11.602137     36.950919      8.041658
  O      14.251421     41.557915      8.437100
  O      11.662928     38.748790      6.024952
  O      14.342822     40.084858      6.140347
  Si     16.904084     26.066916      7.835055
  O      15.557853     25.278337      8.336784
  O      18.218730     25.334133      8.457154
  O      16.872524     26.036822      6.195338
  Si     16.913899     29.158034      7.757515
  Si     16.977539     35.391028      7.698970
  Si     19.638192     33.817420      7.813290
  Si     19.584230     30.704765      7.834209
  O      15.521502     29.936270      8.139955
  O      15.605863     34.578696      8.071429
  O      18.263961     34.579731      8.295612
  O      18.192771     29.985502      8.337650
  O      16.845675     27.631487      8.333461
  O      19.614699     32.261754      8.331652
  O      17.063453     29.026162      6.131304
  O      17.186371     35.434489      6.073352
  O      19.653521     33.774127      6.173883
  O      19.568154     30.678815      6.191929
  Si     16.956346     38.482176      7.783688
  O      15.630847     39.292314      8.289475
  O      18.341216     39.083400      8.392675
  O      16.890134     36.913333      8.266043
  O      16.958674     38.487845      6.141755
  O      20.821798     29.842869      8.445528
  O      20.972706     34.519347      8.428627
  H       4.074657     24.986772      8.036591
  H       1.410409     29.602015      8.036749
  H       1.410409     35.007985      8.036749
  H       4.074657     39.623228      8.036591
  H       8.948181     22.173255      8.038302
  H       8.948181     42.436745      8.038302
  H      14.277762     22.173204      8.038282
  H      14.277762     42.436796      8.038282
  H      18.960557     24.876228      8.036406
  H      18.960557     39.733772      8.036406
  H      21.624717     29.491420      8.036583
  H      21.624717     35.118580      8.036583
  H      13.318769     34.166435      5.680154
  H      10.809774     34.773067      5.650671
  H       9.026247     32.901034      5.639619
  H       9.779527     30.398455      5.632150
  H      12.330451     29.822147      5.689495
  H      14.069999     31.709599      5.714854
  H      13.533080     39.775303      5.713073
  H      10.844607     39.063077      5.622996
  H       8.064487     39.679912      5.768129
  H       6.142013     37.747734      5.728192
  H       5.285621     35.062119      5.674539
  H       3.462273     32.993325      5.758910
  H       4.094637     30.275006      5.744287
  H       6.002947     28.263597      5.681896
  H       6.852771     25.647522      5.752646
  H       9.597388     24.880819      5.751386
  H      12.284133     25.529268      5.698666
  H      14.980039     24.982678      5.779853
  H      17.011867     26.896695      5.778975
  H      17.775208     29.557430      5.753656
  H      19.617365     31.548623      5.779125
  H      18.957161     34.297652      5.758268
  H      17.074719     36.305370      5.676095
  H      16.209235     38.952006      5.749402
  P       8.605367     37.526780     11.862877
  O      12.460713     37.333783     13.196915
  O      14.527614     39.384295     12.642498
  O      15.347143     37.311489     11.232533
  O       9.971630     38.169687     12.515325
  O      14.768893     34.532200     11.445093
  O       7.818636     37.066324     13.020388
  O       9.049526     36.603918     10.766986
  O       7.909008     38.844735     11.220608
  N      12.725094     35.335649     12.056176
  N      12.951952     33.209944     11.180155
  N      11.159160     31.842277     10.742858
  C      13.561020     38.837233     11.785260
  C      13.959846     37.414339     11.373193
  C      12.268056     38.601749     12.546279
  C      13.387002     36.581058     12.536117
  C      11.022344     38.560140     11.681068
  C      11.387861     35.165984     12.103539
  C      13.570068     34.381035     11.558704
  C      10.800334     34.016410     11.676213
  C      11.618008     32.995915     11.196744
  H      13.407346     39.465912     10.908338
  H      13.447679     37.145842     10.441602
  H      12.139912     39.323611     13.352774
  H      14.183919     36.254804     13.212425
  H      11.124903     37.825974     10.866994
  H      10.843957     39.549926     11.239240
  H      15.376780     39.026925     12.352707
  H      15.559990     36.366098     11.196350
  H      10.811334     36.001762     12.488713
  H       9.729660     33.908948     11.688797
  H      10.169580     31.678861     10.730458
  H      11.754032     31.130147     10.359430
  H       7.907866     38.836871     10.260651
  H      13.581403     32.513660     10.804304
161
Coordinates from ORCA-job /data/Seafile/cmp/protonated/frames/frame11/dry/cmp_prot11 E -13392.434803639529
  Si      3.499559     33.897598      7.791220
  Si      3.458777     30.790913      7.813754
  O       2.285688     34.800340      8.388946
  O       2.171526     30.026983      8.453563
  O       3.461393     32.346555      8.314450
  O       3.486197     33.875691      6.147128
  O       3.427488     30.825902      6.172307
  Si      6.147033     26.133571      7.810248
  Si      8.824075     24.545139      7.810627
  O       4.793373     25.490090      8.441410
  O       7.487458     25.344436      8.313968
  O       8.768037     23.040156      8.430210
  O       6.124630     26.125836      6.167218
  O       8.794557     24.546004      6.170203
  Si      6.116780     29.220161      7.692690
  Si      6.161963     35.454336      7.685420
  Si      8.894126     33.871254      7.631682
  Si      8.864526     30.788644      7.619232
  O       4.845080     30.047291      8.287621
  O       4.891770     34.615249      8.268059
  O       7.559170     34.683454      8.039256
  O       7.491585     30.038075      8.042762
  O       6.209599     27.704340      8.283129
  O       8.832439     32.323359      8.190137
  O       5.894447     29.142568      6.069881
  O       5.995811     35.591215      6.057065
  O       9.075153     33.794201      6.000457
  O       9.022283     30.882281      5.991811
  Si      6.201231     38.546159      7.801669
  Si      8.903883     40.072258      7.786575
  O       4.937360     39.373976      8.404344
  O       7.581946     39.271135      8.338773
  O       6.207316     36.977433      8.257613
  O       9.032131     41.558179      8.430862
  O       6.259146     38.603376      6.159272
  O       8.842367     40.111984      6.148503
  Si     11.516033     26.068638      7.719669
  Si     14.197757     24.540192      7.812619
  O      10.167169     25.358122      8.298895
  O      12.875848     25.384093      8.299516
  O      14.024311     23.032752      8.401722
  O      11.472150     25.870379      6.092915
  O      14.211012     24.550212      6.170287
  Si     11.523192     29.229720      7.669156
  Si     11.566184     35.382529      7.632169
  Si     14.225591     33.833369      7.661340
  Si     14.191263     30.757360      7.706119
  O      10.163577     29.970333      8.213528
  O      10.216110     34.658438      8.195946
  O      12.925381     34.657492      8.214985
  O      12.859619     29.974827      8.281757
  O      11.489437     27.664590      8.095075
  O      14.245641     32.298668      8.272018
  O      11.533175     29.397084      6.041910
  O      11.610881     35.185533      6.003842
  O      14.077093     33.682228      6.037243
  O      14.037459     30.810918      6.077541
  Si     11.594690     38.541946      7.655053
  Si     14.283901     40.068047      7.784236
  O      10.244385     39.235998      8.223155
  O      12.949746     39.233695      8.248244
  O      11.602479     36.951625      8.040188
  O      14.252295     41.557309      8.438068
  O      11.661815     38.754745      6.030121
  O      14.341871     40.082338      6.144118
  Si     16.903591     26.067215      7.838415
  O      15.558552     25.278171      8.339051
  O      18.219037     25.334098      8.457276
  O      16.871442     26.037694      6.197787
  Si     16.915376     29.157364      7.758481
  Si     16.979380     35.390986      7.697158
  Si     19.638214     33.816390      7.814387
  Si     19.584240     30.704964      7.836397
  O      15.522301     29.936621      8.137733
  O      15.606312     34.578187      8.063894
  O      18.263965     34.578408      8.293332
  O      18.192931     29.985637      8.337282
  O      16.845707     27.631719      8.334144
  O      19.614684     32.261346      8.331433
  O      17.067295     29.024376      6.131803
  O      17.191573     35.438091      6.071217
  O      19.653909     33.773075      6.174020
  O      19.569338     30.679692      6.193016
  Si     16.955829     38.481074      7.788223
  O      15.630822     39.291145      8.292114
  O      18.342194     39.082126      8.393432
  O      16.890220     36.911582      8.265490
  O      16.957644     38.489380      6.145111
  O      20.821653     29.842122      8.445455
  O      20.972686     34.518867      8.428057
  H       4.074657     24.986772      8.036591
  H       1.410409     29.602015      8.036749
  H       1.410409     35.007985      8.036749
  H       4.074657     39.623228      8.036591
  H       8.948181     22.173255      8.038302
  H       8.948181     42.436745      8.038302
  H      14.277762     22.173204      8.038282
  H      14.277762     42.436796      8.038282
  H      18.960557     24.876228      8.036406
  H      18.960557     39.733772      8.036406
  H      21.624717     29.491420      8.036583
  H      21.624717     35.118580      8.036583
  H      13.315393     34.165663      5.678662
  H      10.805607     34.774925      5.652607
  H       9.023220     32.895599      5.645102
  H       9.779575     30.391767      5.641083
  H      12.333472     29.819276      5.694563
  H      14.070951     31.709358      5.713473
  H      13.530495     39.773684      5.719277
  H      10.842262     39.070323      5.631910
  H       8.059490     39.683211      5.777795
  H       6.141727     37.744126      5.735343
  H       5.282210     35.060356      5.683656
  H       3.458859     32.988771      5.767644
  H       4.099268     30.272807      5.753384
  H       6.004216     28.260918      5.692856
  H       6.855958     25.644889      5.761647
  H       9.600433     24.884737      5.759308
  H      12.287014     25.527003      5.706467
  H      14.984407     24.981768      5.785596
  H      17.011104     26.898952      5.783138
  H      17.780476     29.556556      5.756190
  H      19.622919     31.551242      5.782600
  H      18.957051     34.298383      5.759517
  H      17.080095     36.311330      5.677119
  H      16.208806     38.957716      5.755437
  P       8.660558     37.470153     11.828390
  O      12.488424     37.356488     13.201019
  O      14.553436     39.412405     12.633952
  O      15.348854     37.340078     11.208905
  O      10.002432     38.146393     12.508752
  O      14.736884     34.555266     11.361256
  O       7.890173     36.940320     12.964395
  O       9.151739     36.604031     10.705065
  O       7.925667     38.782784     11.221067
  N      12.718216     35.374196     12.033388
  N      12.891728     33.265706     11.104557
  N      11.063459     31.943343     10.658848
  C      13.576353     38.870554     11.785937
  C      13.964716     37.449205     11.361462
  C      12.291502     38.628155     12.556283
  C      13.401877     36.607716     12.521685
  C      11.047058     38.577593     11.689559
  C      11.380032     35.226315     12.105261
  C      13.538621     34.418491     11.498109
  C      10.762617     34.096650     11.664339
  C      11.552185     33.076267     11.140879
  H      13.413401     39.502906     10.910874
  H      13.441662     37.190920     10.432768
  H      12.162718     39.344917     13.367241
  H      14.207522     36.264774     13.179294
  H      11.170090     37.856865     10.866693
  H      10.849576     39.568498     11.259033
  H      15.398591     39.055413     12.331309
  H      15.553283     36.393883     11.166485
  H      10.826522     36.062339     12.520829
  H       9.688442     34.014532     11.696724
  H      10.069273     31.802118     10.652239
  H      11.636668     31.234823     10.235941
  H       7.920624     38.796164     10.259384
  H      13.501569     32.571166     10.694326
161
Coordinates from ORCA-job /data/Seafile/cmp/protonated/frames/frame11/dry/cmp_prot11 E -13392.437537091650
  Si      3.501411     33.897783      7.796955
  Si      3.460549     30.791903      7.820149
  O       2.286114     34.800440      8.390526
  O       2.171976     30.027301      8.455507
  O       3.462683     32.346522      8.317990
  O       3.487499     33.874807      6.151698
  O       3.429792     30.825877      6.177502
  Si      6.148422     26.134509      7.814471
  Si      8.824579     24.546231      7.812030
  O       4.794202     25.490053      8.442372
  O       7.489010     25.345010      8.314418
  O       8.768844     23.041230      8.430008
  O       6.125788     26.127699      6.170165
  O       8.793668     24.546004      6.170583
  Si      6.117928     29.220868      7.700793
  Si      6.163164     35.454690      7.691381
  Si      8.895895     33.872608      7.636065
  Si      8.865781     30.789285      7.626955
  O       4.846442     30.047668      8.293050
  O       4.892468     34.615049      8.271110
  O       7.560972     34.683688      8.039783
  O       7.493619     30.038296      8.049017
  O       6.211068     27.704006      8.287092
  O       8.836041     32.323271      8.196112
  O       5.896175     29.143930      6.076940
  O       5.996111     35.590560      6.061591
  O       9.076243     33.793243      6.003449
  O       9.020143     30.884204      5.999134
  Si      6.200360     38.546061      7.802687
  Si      8.901681     40.072285      7.793708
  O       4.936581     39.374018      8.402289
  O       7.578411     39.270957      8.338255
  O       6.207224     36.978110      8.257726
  O       9.031722     41.558948      8.434219
  O       6.258202     38.602387      6.158464
  O       8.841767     40.112678      6.154045
  Si     11.516993     26.067192      7.716069
  Si     14.198731     24.539890      7.809472
  O      10.168795     25.358720      8.296102
  O      12.877626     25.383927      8.293469
  O      14.024653     23.033827      8.399861
  O      11.472433     25.865554      6.088904
  O      14.212542     24.547360      6.165993
  Si     11.524100     29.228873      7.664119
  Si     11.566388     35.384160      7.631162
  Si     14.225973     33.833736      7.647771
  Si     14.193301     30.756750      7.689946
  O      10.168144     29.970071      8.215364
  O      10.219424     34.657556      8.191581
  O      12.928459     34.657029      8.206339
  O      12.863461     29.974947      8.269768
  O      11.491800     27.664040      8.087950
  O      14.247701     32.297539      8.257753
  O      11.528831     29.398477      6.036728
  O      11.610567     35.186512      6.001601
  O      14.070925     33.678959      6.023794
  O      14.032879     30.810777      6.061538
  Si     11.592679     38.542098      7.662352
  Si     14.283071     40.065887      7.788692
  O      10.242131     39.236193      8.227403
  O      12.949587     39.232333      8.252868
  O      11.602592     36.951281      8.038364
  O      14.252913     41.556070      8.439218
  O      11.661268     38.758206      6.036364
  O      14.340426     40.081671      6.147467
  Si     16.903360     26.067231      7.833001
  O      15.558895     25.279222      8.332391
  O      18.217737     25.335549      8.453942
  O      16.873294     26.033937      6.191317
  Si     16.918169     29.156216      7.744567
  Si     16.981782     35.391152      7.683871
  Si     19.638540     33.815760      7.806979
  Si     19.584826     30.705472      7.829240
  O      15.524393     29.936576      8.118354
  O      15.607301     34.577792      8.042967
  O      18.263598     34.576935      8.280075
  O      18.192942     29.985958      8.323799
  O      16.845807     27.632613      8.322187
  O      19.613523     32.261220      8.321343
  O      17.075755     29.019906      6.117784
  O      17.199150     35.443747      6.057740
  O      19.658631     33.773910      6.165531
  O      19.575336     30.680093      6.184529
  Si     16.955384     38.480069      7.788217
  O      15.630449     39.288825      8.291849
  O      18.342400     39.080083      8.392388
  O      16.890541     36.909018      8.256238
  O      16.957816     38.493479      6.143644
  O      20.819639     29.842532      8.441699
  O      20.970831     34.517823      8.424283
  H       4.074657     24.986772      8.036591
  H       1.410409     29.602015      8.036749
  H       1.410409     35.007985      8.036749
  H       4.074657     39.623228      8.036591
  H       8.948181     22.173255      8.038302
  H       8.948181     42.436745      8.038302
  H      14.277762     22.173204      8.038282
  H      14.277762     42.436796      8.038282
  H      18.960557     24.876228      8.036406
  H      18.960557     39.733772      8.036406
  H      21.624717     29.491420      8.036583
  H      21.624717     35.118580      8.036583
  H      13.308466     34.163724      5.668052
  H      10.803110     34.776559      5.652586
  H       9.021974     32.894800      5.647825
  H       9.775566     30.392641      5.645894
  H      12.329405     29.819377      5.687390
  H      14.066796     31.709697      5.697510
  H      13.527773     39.773891      5.724374
  H      10.840751     39.074527      5.640714
  H       8.056570     39.684405      5.785406
  H       6.140506     37.740578      5.737497
  H       5.281919     35.058243      5.690037
  H       3.458831     32.986442      5.774299
  H       4.102488     30.271827      5.760180
  H       6.006711     28.261547      5.701000
  H       6.857470     25.645158      5.766244
  H       9.600272     24.884592      5.760131
  H      12.288591     25.521116      5.704694
  H      14.988261     24.977610      5.783104
  H      17.013936     26.895788      5.776966
  H      17.791358     29.552781      5.745528
  H      19.632164     31.553801      5.777026
  H      18.961608     34.301268      5.751667
  H      17.088146     36.320022      5.668038
  H      16.208613     38.964842      5.756917
  P       8.668233     37.456205     11.807304
  O      12.495291     37.406442     13.187709
  O      14.529010     39.495067     12.612053
  O      15.304733     37.454109     11.132697
  O       9.988529     38.158063     12.514597
  O      14.695302     34.660026     11.190736
  O       7.912321     36.869701     12.923550
  O       9.191234     36.635977     10.663793
  O       7.903068     38.758828     11.222099
  N      12.703296     35.451210     11.965094
  N      12.839425     33.376050     10.956239
  N      10.990256     32.072112     10.524126
  C      13.538126     38.960177     11.775872
  C      13.924320     37.550274     11.315648
  C      12.273734     38.688932     12.566915
  C      13.396824     36.678076     12.468625
  C      11.023715     38.633735     11.708324
  C      11.369133     35.299926     12.081347
  C      13.502843     34.514893     11.367388
  C      10.731328     34.186880     11.625760
  C      11.498938     33.186722     11.034039
  H      13.349607     39.608121     10.913797
  H      13.381342     37.308440     10.393900
  H      12.147798     39.389499     13.392449
  H      14.222978     36.322369     13.092966
  H      11.161826     37.935354     10.869647
  H      10.804445     39.628202     11.298506
  H      15.370515     39.151533     12.284554
  H      15.511610     36.510985     11.067900
  H      10.835290     36.120363     12.547875
  H       9.656799     34.113561     11.699165
  H       9.994702     31.934676     10.541566
  H      11.546662     31.381554     10.050589
  H       7.904121     38.783000     10.258721
  H      13.432707     32.698707     10.494756
161
Coordinates from ORCA-job /data/Seafile/cmp/protonated/frames/frame11/dry/cmp_prot11 E -13392.439847231028
  Si      3.502111     33.897918      7.804893
  Si      3.461279     30.792552      7.828658
  O       2.284632     34.801012      8.392531
  O       2.170412     30.026685      8.457564
  O       3.461797     32.346517      8.324354
  O       3.490625     33.872220      6.158709
  O       3.434810     30.826228      6.185019
  Si      6.148978     26.134641      7.822183
  Si      8.824532     24.546726      7.818125
  O       4.793034     25.488799      8.444196
  O       7.489019     25.344029      8.319713
  O       8.769057     23.040069      8.431090
  O       6.129601     26.130458      6.176822
  O       8.794253     24.549805      6.175831
  Si      6.117817     29.220707      7.713308
  Si      6.163365     35.455218      7.701674
  Si      8.896550     33.872978      7.648294
  Si      8.866073     30.789213      7.641598
  O       4.846094     30.047492      8.302395
  O       4.892079     34.614850      8.278103
  O       7.561109     34.683282      8.046536
  O       7.494189     30.037608      8.060708
  O       6.211319     27.702870      8.295780
  O       8.837850     32.322745      8.209984
  O       5.897368     29.143743      6.088530
  O       5.995634     35.589382      6.070653
  O       9.078450     33.789294      6.015147
  O       9.021121     30.884942      6.013658
  Si      6.200783     38.546347      7.806906
  Si      8.901342     40.072853      7.799640
  O       4.936455     39.375229      8.401650
  O       7.577551     39.271581      8.339196
  O       6.206998     36.979291      8.262304
  O       9.032902     41.560674      8.436319
  O       6.260043     38.598802      6.161308
  O       8.841659     40.111536      6.158665
  Si     11.517187     26.065996      7.722301
  Si     14.199105     24.540039      7.813418
  O      10.169105     25.358334      8.301232
  O      12.878693     25.383474      8.296901
  O      14.024783     23.033141      8.400443
  O      11.472805     25.862766      6.094664
  O      14.212990     24.550042      6.169058
  Si     11.524438     29.228422      7.671785
  Si     11.566047     35.384439      7.639356
  Si     14.226420     33.834767      7.649664
  Si     14.194489     30.756727      7.691232
  O      10.170914     29.970630      8.227455
  O      10.221955     34.654899      8.198089
  O      12.930351     34.657350      8.210588
  O      12.865473     29.975523      8.272871
  O      11.493127     27.663390      8.092097
  O      14.247791     32.297573      8.261114
  O      11.526656     29.402355      6.044589
  O      11.610231     35.181584      6.009398
  O      14.064791     33.674682      6.026346
  O      14.028123     30.813177      6.063288
  Si     11.592109     38.542215      7.671113
  Si     14.283348     40.064657      7.794683
  O      10.241764     39.237585      8.232151
  O      12.950587     39.231439      8.259515
  O      11.603645     36.951146      8.041585
  O      14.253817     41.557011      8.440047
  O      11.661657     38.760773      6.044257
  O      14.339932     40.077883      6.152547
  Si     16.902924     26.067342      7.835744
  O      15.559574     25.278779      8.334102
  O      18.218057     25.335288      8.453535
  O      16.871144     26.035003      6.193191
  Si     16.920076     29.155449      7.745309
  Si     16.984360     35.391665      7.683925
  Si     19.639107     33.815131      7.808204
  Si     19.585211     30.705823      7.830925
  O      15.525793     29.936572      8.115562
  O      15.608690     34.578230      8.036868
  O      18.264524     34.576028      8.278993
  O      18.193644     29.986216      8.323113
  O      16.846040     27.632660      8.322619
  O      19.614371     32.261051      8.320963
  O      17.080603     29.017369      6.118297
  O      17.205239     35.448048      6.057651
  O      19.657799     33.772794      6.165898
  O      19.575032     30.682043      6.185170
  Si     16.955483     38.479675      7.793994
  O      15.631096     39.288897      8.295713
  O      18.344192     39.080021      8.393607
  O      16.891517     36.908123      8.257783
  O      16.955960     38.493242      6.148263
  O      20.819751     29.841689      8.441156
  O      20.971670     34.517555      8.423413
  H       4.074657     24.986772      8.036591
  H       1.410409     29.602015      8.036749
  H       1.410409     35.007985      8.036749
  H       4.074657     39.623228      8.036591
  H       8.948181     22.173255      8.038302
  H       8.948181     42.436745      8.038302
  H      14.277762     22.173204      8.038282
  H      14.277762     42.436796      8.038282
  H      18.960557     24.876228      8.036406
  H      18.960557     39.733772      8.036406
  H      21.624717     29.491420      8.036583
  H      21.624717     35.118580      8.036583
  H      13.303395     34.163150      5.673078
  H      10.800006     34.774444      5.663500
  H       9.018383     32.891075      5.660577
  H       9.774209     30.390435      5.660013
  H      12.328990     29.820072      5.695742
  H      14.065415     31.712456      5.700563
  H      13.525854     39.769718      5.732416
  H      10.839930     39.078192      5.651738
  H       8.053763     39.684564      5.794008
  H       6.142201     37.734533      5.745564
  H       5.281161     35.055902      5.701752
  H       3.459481     32.982578      5.784844
  H       4.109297     30.271896      5.771218
  H       6.009065     28.260878      5.714511
  H       6.861172     25.645335      5.776064
  H       9.601743     24.889266      5.768141
  H      12.289941     25.518301      5.713070
  H      14.991416     24.977897      5.789378
  H      17.011763     26.897977      5.781569
  H      17.797032     29.550988      5.749065
  H      19.635942     31.557214      5.781647
  H      18.960405     34.301733      5.754950
  H      17.094099     36.326016      5.672052
  H      16.207149     38.967879      5.764898
  P       8.734648     37.397221     11.738308
  O      12.538109     37.444224     13.177821
  O      14.540972     39.554237     12.592859
  O      15.317028     37.529698     11.086529
  O      10.021381     38.124114     12.487622
  O      14.716004     34.724690     11.112951
  O       8.009180     36.714415     12.818585
  O       9.299511     36.665348     10.555066
  O       7.916600     38.691788     11.213354
  N      12.738028     35.497651     11.938427
  N      12.861243     33.434225     10.904643
  N      11.007872     32.132310     10.484779
  C      13.545665     39.017825     11.764008
  C      13.937710     37.613995     11.286514
  C      12.292055     38.726179     12.563726
  C      13.432641     36.727486     12.439445
  C      11.044426     38.654315     11.702987
  C      11.407605     35.338444     12.081453
  C      13.528427     34.571752     11.313214
  C      10.763227     34.228580     11.625413
  C      11.522233     33.240801     11.004902
  H      13.339787     39.672568     10.909792
  H      13.385386     37.376150     10.369499
  H      12.158408     39.418961     13.394296
  H      14.271079     36.371775     13.046892
  H      11.206695     37.982263     10.847125
  H      10.795941     39.651591     11.317261
  H      15.381439     39.221689     12.252315
  H      15.529233     36.588788     11.008064
  H      10.882195     36.151396     12.571391
  H       9.689092     34.160587     11.716610
  H      10.012572     31.996969     10.506918
  H      11.557286     31.454007      9.987061
  H       7.911415     38.746005     10.252096
  H      13.446389     32.767945     10.416143
161
Coordinates from ORCA-job /data/Seafile/cmp/protonated/frames/frame11/dry/cmp_prot11 E -13392.442879152217
  Si      3.503309     33.898181      7.814742
  Si      3.462192     30.793500      7.838445
  O       2.283272     34.801688      8.395558
  O       2.169063     30.025932      8.460192
  O       3.460437     32.346817      8.332894
  O       3.497170     33.869398      6.167912
  O       3.441496     30.828138      6.194073
  Si      6.149636     26.135247      7.830653
  Si      8.824308     24.547578      7.824614
  O       4.792003     25.487850      8.446414
  O       7.488823     25.343153      8.326119
  O       8.769231     23.039244      8.432412
  O       6.135084     26.135147      6.184462
  O       8.794359     24.555333      6.181682
  Si      6.117473     29.220668      7.727159
  Si      6.164039     35.455779      7.715918
  Si      8.897751     33.872671      7.667911
  Si      8.866175     30.789309      7.659257
  O       4.845570     30.047538      8.313584
  O       4.892106     34.614528      8.288557
  O       7.560662     34.682215      8.059058
  O       7.494429     30.036361      8.074056
  O       6.211832     27.701985      8.306000
  O       8.839642     32.321513      8.229703
  O       5.897564     29.143546      6.101704
  O       5.996192     35.588606      6.083938
  O       9.082233     33.786083      6.034664
  O       9.022496     30.888646      6.031474
  Si      6.202016     38.547012      7.812960
  Si      8.903210     40.072848      7.805137
  O       4.937047     39.377400      8.401916
  O       7.578155     39.272875      8.340681
  O       6.207098     36.981055      8.270622
  O       9.035516     41.561995      8.438226
  O       6.264007     38.593597      6.166484
  O       8.843580     40.107579      6.163086
  Si     11.517063     26.064982      7.728765
  Si     14.199007     24.540364      7.818114
  O      10.169046     25.358357      8.307088
  O      12.879439     25.383549      8.301299
  O      14.024271     23.032469      8.401288
  O      11.472792     25.858939      6.100931
  O      14.212835     24.554812      6.173082
  Si     11.524017     29.228536      7.680828
  Si     11.565807     35.383336      7.655908
  Si     14.226414     33.835480      7.656372
  Si     14.194725     30.756889      7.695188
  O      10.173377     29.971569      8.242197
  O      10.225422     34.649115      8.214463
  O      12.932838     34.657045      8.222054
  O      12.866696     29.975929      8.277644
  O      11.494200     27.662732      8.096117
  O      14.246713     32.297296      8.269402
  O      11.522596     29.409423      6.054186
  O      11.610632     35.173159      6.025890
  O      14.056113     33.668941      6.034293
  O      14.020822     30.817498      6.068181
  Si     11.593070     38.541184      7.683491
  Si     14.284255     40.062785      7.802743
  O      10.242930     39.239369      8.238755
  O      12.953063     39.229602      8.270074
  O      11.606632     36.950485      8.049476
  O      14.255426     41.557945      8.441647
  O      11.663953     38.762354      6.055910
  O      14.339573     40.070914      6.159882
  Si     16.901939     26.067391      7.839590
  O      15.560003     25.277823      8.337294
  O      18.218101     25.334972      8.453623
  O      16.867140     26.036893      6.196350
  Si     16.921232     29.154469      7.747781
  Si     16.987031     35.391784      7.687506
  Si     19.639460     33.813901      7.811642
  Si     19.584853     30.705746      7.834339
  O      15.526538     29.936227      8.114128
  O      15.610427     34.578205      8.033569
  O      18.265447     34.574402      8.281454
  O      18.193555     29.986343      8.324686
  O      16.845309     27.632485      8.325007
  O      19.615382     32.260343      8.323217
  O      17.085269     29.014048      6.120798
  O      17.212243     35.452408      6.061453
  O      19.654858     33.770079      6.168683
  O      19.571891     30.684623      6.187757
  Si     16.955700     38.478704      7.802234
  O      15.632562     39.289276      8.302242
  O      18.346528     39.079415      8.395916
  O      16.892472     36.906925      8.263161
  O      16.952365     38.490436      6.155539
  O      20.819329     29.840031      8.441323
  O      20.972900     34.516583      8.423425
  H       4.074657     24.986772      8.036591
  H       1.410409     29.602015      8.036749
  H       1.410409     35.007985      8.036749
  H       4.074657     39.623228      8.036591
  H       8.948181     22.173255      8.038302
  H       8.948181     42.436745      8.038302
  H      14.277762     22.173204      8.038282
  H      14.277762     42.436796      8.038282
  H      18.960557     24.876228      8.036406
  H      18.960557     39.733772      8.036406
  H      21.624717     29.491420      8.036583
  H      21.624717     35.118580      8.036583
  H      13.295990     34.162213      5.683926
  H      10.797464     34.769632      5.682591
  H       9.013980     32.888586      5.679555
  H       9.773130     30.390945      5.676448
  H      12.327366     29.823695      5.705937
  H      14.062351     31.717716      5.707333
  H      13.523452     39.761650      5.743633
  H      10.840676     39.081106      5.666695
  H       8.052367     39.681637      5.803208
  H       6.146188     37.725908      5.756932
  H       5.281393     35.053510      5.717248
  H       3.463012     32.977946      5.797768
  H       4.118785     30.273750      5.784144
  H       6.010758     28.259727      5.729605
  H       6.866648     25.646400      5.787296
  H       9.603263     24.896169      5.777096
  H      12.291529     25.514463      5.722115
  H      14.995222     24.979325      5.797074
  H      17.007456     26.901770      5.787876
  H      17.802522     29.548981      5.754441
  H      19.638216     31.561741      5.788675
  H      18.956908     34.301415      5.761137
  H      17.100465     36.332457      5.680087
  H      16.203956     38.969369      5.775960
  P       8.842218     37.310223     11.624258
  O      12.602397     37.454948     13.179319
  O      14.588777     39.562733     12.590261
  O      15.368844     37.542553     11.076923
  O      10.086479     38.052368     12.432063
  O      14.759188     34.729284     11.090212
  O       8.164899     36.499424     12.646665
  O       9.445276     36.706378     10.389493
  O       7.952499     38.591130     11.196012
  N      12.791115     35.499318     11.942495
  N      12.904657     33.436917     10.905012
  N      11.047899     32.141444     10.489533
  C      13.594252     39.026605     11.760567
  C      13.988664     37.622191     11.278858
  C      12.340536     38.730306     12.557787
  C      13.488735     36.733299     12.434524
  C      11.103012     38.643514     11.682536
  C      11.463245     35.336096     12.101766
  C      13.574309     34.575002     11.305052
  C      10.813661     34.227771     11.648418
  C      11.566446     33.245137     11.014673
  H      13.383512     39.684841     10.909179
  H      13.436517     37.384672     10.362203
  H      12.194006     39.423007     13.386127
  H      14.330693     36.377425     13.036698
  H      11.295123     38.007225     10.806544
  H      10.827455     39.645078     11.327735
  H      15.430595     39.234747     12.249193
  H      15.584647     36.603177     10.991563
  H      10.945122     36.146266     12.605039
  H       9.739125     34.169443     11.744624
  H      10.051318     32.014798     10.502788
  H      11.593038     31.471089      9.977184
  H       7.931396     38.692271     10.239229
  H      13.482638     32.776504     10.399025
161
Coordinates from ORCA-job /data/Seafile/cmp/protonated/frames/frame11/dry/cmp_prot11 E -13392.446307682805
  Si      3.504900     33.898674      7.821118
  Si      3.462841     30.794960      7.844320
  O       2.282944     34.802525      8.396950
  O       2.168831     30.025084      8.460975
  O       3.458900     32.347564      8.338236
  O       3.504642     33.866130      6.173835
  O       3.446912     30.831806      6.199376
  Si      6.150210     26.136274      7.835859
  Si      8.823656     24.548701      7.828725
  O       4.791252     25.488144      8.446894
  O       7.488245     25.342694      8.330209
  O       8.769245     23.039137      8.432478
  O       6.142084     26.139643      6.188903
  O       8.793638     24.561700      6.185223
  Si      6.115983     29.220549      7.733181
  Si      6.165013     35.456603      7.723600
  Si      8.900714     33.871877      7.676278
  Si      8.865757     30.789725      7.665832
  O       4.845297     30.048366      8.319104
  O       4.893746     34.613409      8.294158
  O       7.560409     34.679950      8.060657
  O       7.494059     30.034860      8.075885
  O       6.213051     27.702037      8.311024
  O       8.841920     32.320265      8.239078
  O       5.891347     29.140060      6.107907
  O       5.991452     35.592469      6.091692
  O       9.086570     33.782613      6.042920
  O       9.025003     30.893274      6.038427
  Si      6.204056     38.547957      7.816273
  Si      8.907650     40.072600      7.806353
  O       4.938804     39.379947      8.400757
  O       7.580070     39.274179      8.338394
  O       6.208162     36.982532      8.275458
  O       9.040429     41.562586      8.438290
  O       6.268615     38.588757      6.169361
  O       8.845635     40.103042      6.163416
  Si     11.516292     26.063950      7.731361
  Si     14.198205     24.540958      7.821874
  O      10.168180     25.359429      8.310245
  O      12.879582     25.384858      8.303760
  O      14.022422     23.032070      8.401173
  O      11.472424     25.850453      6.103938
  O      14.212522     24.562171      6.176258
  Si     11.522140     29.229574      7.683125
  Si     11.567070     35.381276      7.663124
  Si     14.226339     33.835132      7.655576
  Si     14.193237     30.757218      7.695077
  O      10.174461     29.974049      8.248743
  O      10.232182     34.637888      8.220155
  O      12.936742     34.656688      8.226233
  O      12.865291     29.977667      8.277373
  O      11.494365     27.662595      8.092815
  O      14.243571     32.297099      8.274236
  O      11.517552     29.419013      6.057271
  O      11.615239     35.157949      6.033458
  O      14.045270     33.657138      6.035766
  O      14.010150     30.822396      6.069600
  Si     11.596690     38.540639      7.688822
  Si     14.286729     40.060768      7.809368
  O      10.247052     39.242589      8.238674
  O      12.958136     39.226050      8.278490
  O      11.613561     36.949723      8.042476
  O      14.257832     41.558581      8.442537
  O      11.670192     38.773803      6.061475
  O      14.342934     40.063897      6.165966
  Si     16.900143     26.067222      7.843211
  O      15.559993     25.276142      8.340524
  O      18.217582     25.334649      8.453213
  O      16.860820     26.039191      6.199325
  Si     16.921439     29.152901      7.748977
  Si     16.991396     35.391485      7.686159
  Si     19.640275     33.811466      7.813814
  Si     19.583451     30.704832      7.837226
  O      15.525898     29.935728      8.107913
  O      15.612970     34.577477      8.018749
  O      18.266282     34.571261      8.281434
  O      18.191983     29.986471      8.325745
  O      16.842770     27.632120      8.327394
  O      19.616688     32.258761      8.325175
  O      17.092085     29.007606      6.122627
  O      17.227257     35.460116      6.061505
  O      19.652125     33.764226      6.170308
  O      19.565109     30.687620      6.189890
  Si     16.956643     38.476770      7.809356
  O      15.635481     39.289618      8.307926
  O      18.349658     39.077393      8.397453
  O      16.893638     36.904408      8.266255
  O      16.947973     38.485664      6.161663
  O      20.817689     29.837032      8.440757
  O      20.974328     34.514534      8.422582
  H       4.074657     24.986772      8.036591
  H       1.410409     29.602015      8.036749
  H       1.410409     35.007985      8.036749
  H       4.074657     39.623228      8.036591
  H       8.948181     22.173255      8.038302
  H       8.948181     42.436745      8.038302
  H      14.277762     22.173204      8.038282
  H      14.277762     42.436796      8.038282
  H      18.960557     24.876228      8.036406
  H      18.960557     39.733772      8.036406
  H      21.624717     29.491420      8.036583
  H      21.624717     35.118580      8.036583
  H      13.286566     34.156532      5.688628
  H      10.798491     34.758429      5.693067
  H       9.005623     32.886383      5.686447
  H       9.773166     30.391685      5.682421
  H      12.325508     29.829466      5.710695
  H      14.056958     31.724008      5.711027
  H      13.524779     39.752880      5.753544
  H      10.845118     39.096220      5.677982
  H       8.050738     39.677284      5.810361
  H       6.151167     37.717071      5.766900
  H       5.275707     35.055378      5.728699
  H       3.465897     32.972273      5.808623
  H       4.127664     30.277649      5.793526
  H       6.006033     28.254237      5.739743
  H       6.873412     25.645101      5.797241
  H       9.604725     24.903593      5.784616
  H      12.293795     25.506137      5.729601
  H      15.000683     24.981728      5.805574
  H      17.001017     26.906616      5.795048
  H      17.809944     29.544981      5.760012
  H      19.638458     31.567367      5.796753
  H      18.954394     34.299633      5.766557
  H      17.114363     36.343425      5.686803
  H      16.199809     38.970005      5.787191
  P       8.994893     37.189623     11.459849
  O      12.681878     37.435787     13.197313
  O      14.662573     39.521888     12.599551
  O      15.444739     37.497881     11.094815
  O      10.175216     37.941756     12.351231
  O      14.806780     34.680603     11.103903
  O       8.398031     36.213892     12.388340
  O       9.635952     36.765172     10.173722
  O       8.006504     38.432949     11.166599
  N      12.848340     35.463829     11.967607
  N      12.944157     33.402160     10.926124
  N      11.078445     32.130146     10.491725
  C      13.671600     38.987063     11.765342
  C      14.062682     37.577922     11.289895
  C      12.411371     38.699307     12.555707
  C      13.555148     36.696584     12.450868
  C      11.191599     38.599670     11.655741
  C      11.521012     35.303998     12.134210
  C      13.621539     34.535379     11.323101
  C      10.859969     34.205047     11.675236
  C      11.604185     33.223297     11.029358
  H      13.464645     39.644813     10.911846
  H      13.516378     37.338595     10.370907
  H      12.250429     39.400067     13.374336
  H      14.394233     36.335829     13.053660
  H      11.421634     38.011805     10.757291
  H      10.890843     39.606268     11.337972
  H      15.506998     39.193722     12.266407
  H      15.662775     36.560755     11.000151
  H      11.012295     36.114818     12.648314
  H       9.782881     34.168467     11.766830
  H      10.079282     32.025404     10.477183
  H      11.620232     31.467941      9.963968
  H       7.962505     38.603358     10.219901
  H      13.512319     32.746785     10.402015
161
Coordinates from ORCA-job /data/Seafile/cmp/protonated/frames/frame11/dry/cmp_prot11 E -13392.448447545279
  Si      3.510254     33.900109      7.844445
  Si      3.464514     30.798458      7.864070
  O       2.281920     34.804902      8.404865
  O       2.167534     30.023646      8.466892
  O       3.454367     32.349620      8.360531
  O       3.531983     33.861530      6.197222
  O       3.463805     30.842724      6.218833
  Si      6.151712     26.140074      7.853232
  Si      8.822159     24.552122      7.844259
  O       4.789184     25.489059      8.451555
  O       7.485843     25.341416      8.347921
  O       8.768063     23.038381      8.436173
  O       6.159767     26.156124      6.205746
  O       8.793777     24.581296      6.200428
  Si      6.113826     29.221794      7.759324
  Si      6.168672     35.459443      7.762809
  Si      8.907105     33.870509      7.718260
  Si      8.865241     30.791935      7.701168
  O       4.843620     30.050575      8.343512
  O       4.896935     34.612119      8.326005
  O       7.561169     34.677355      8.093346
  O       7.492791     30.032760      8.099619
  O       6.214348     27.702813      8.334278
  O       8.844160     32.318847      8.281772
  O       5.884104     29.138545      6.134328
  O       5.990222     35.602451      6.131545
  O       9.094114     33.778415      6.085165
  O       9.032646     30.906054      6.075434
  Si      6.209222     38.549848      7.842500
  Si      8.917888     40.068697      7.828539
  O       4.939647     39.387869      8.407241
  O       7.581387     39.281826      8.361273
  O       6.209377     36.986873      8.312265
  O       9.050960     41.565818      8.445976
  O       6.287087     38.572799      6.196065
  O       8.853859     40.078510      6.184679
  Si     11.514076     26.064181      7.752770
  Si     14.195232     24.543568      7.837839
  O      10.165427     25.360959      8.330226
  O      12.878840     25.387097      8.323900
  O      14.017811     23.030353      8.404433
  O      11.470878     25.843859      6.125697
  O      14.207654     24.585061      6.192021
  Si     11.517768     29.233070      7.713811
  Si     11.572350     35.375631      7.702021
  Si     14.227086     33.831739      7.691313
  Si     14.188677     30.757831      7.728090
  O      10.174391     29.978859      8.285978
  O      10.246050     34.616702      8.259775
  O      12.944591     34.655893      8.266783
  O      12.860979     29.979207      8.308784
  O      11.493003     27.662741      8.110295
  O      14.237272     32.294900      8.318680
  O      11.508729     29.440445      6.089990
  O      11.628338     35.123957      6.074516
  O      14.030225     33.634628      6.075546
  O      13.989966     30.833380      6.105488
  Si     11.604675     38.538648      7.716106
  Si     14.291631     40.055305      7.830497
  O      10.256946     39.247478      8.261578
  O      12.968082     39.220669      8.308133
  O      11.630220     36.947910      8.049727
  O      14.264018     41.560019      8.448398
  O      11.681214     38.793878      6.090054
  O      14.345758     40.040126      6.186716
  Si     16.895678     26.067010      7.860374
  O      15.559891     25.270902      8.358412
  O      18.217184     25.332251      8.457491
  O      16.843386     26.050074      6.216048
  Si     16.918907     29.150230      7.773469
  Si     16.997385     35.388849      7.712600
  Si     19.640876     33.805491      7.832527
  Si     19.578619     30.701910      7.855360
  O      15.523495     29.933603      8.127580
  O      15.618731     34.573634      8.032185
  O      18.269970     34.565423      8.306308
  O      18.188891     29.985318      8.348222
  O      16.837852     27.629570      8.350479
  O      19.621198     32.254226      8.345430
  O      17.094005     29.000528      6.147482
  O      17.243363     35.465605      6.089524
  O      19.636408     33.750276      6.188674
  O      19.541352     30.693924      6.207602
  Si     16.957884     38.470640      7.833028
  O      15.642594     39.291074      8.330815
  O      18.356880     39.072885      8.404215
  O      16.896273     36.900396      8.294522
  O      16.932640     38.465634      6.184466
  O      20.815225     29.828822      8.444996
  O      20.980305     34.509158      8.426781
  H       4.074657     24.986772      8.036591
  H       1.410409     29.602015      8.036749
  H       1.410409     35.007985      8.036749
  H       4.074657     39.623228      8.036591
  H       8.948181     22.173255      8.038302
  H       8.948181     42.436745      8.038302
  H      14.277762     22.173204      8.038282
  H      14.277762     42.436796      8.038282
  H      18.960557     24.876228      8.036406
  H      18.960557     39.733772      8.036406
  H      21.624717     29.491420      8.036583
  H      21.624717     35.118580      8.036583
  H      13.275785     34.145633      5.731764
  H      10.804870     34.734802      5.736356
  H       8.986916     32.885585      5.724722
  H       9.777439     30.397958      5.718262
  H      12.323461     29.843353      5.746544
  H      14.047083     31.737996      5.751749
  H      13.521837     39.725678      5.784157
  H      10.852539     39.121392      5.715623
  H       8.052777     39.652850      5.842728
  H       6.171678     37.692884      5.806936
  H       5.275874     35.059625      5.770318
  H       3.485046     32.963670      5.838563
  H       4.151397     30.288576      5.820831
  H       6.004226     28.250169      5.770063
  H       6.890563     25.651478      5.822331
  H       9.610104     24.924807      5.808137
  H      12.297703     25.503575      5.756025
  H      15.006242     24.995487      5.829730
  H      16.983410     26.923452      5.820881
  H      17.809402     29.545043      5.787343
  H      19.627683     31.577836      5.823253
  H      18.940246     34.296042      5.793023
  H      17.123715     36.352604      5.721801
  H      16.185016     38.959830      5.818046
  P       9.068690     37.151248     11.414995
  O      12.761159     37.403327     13.271675
  O      14.729561     39.457155     12.642819
  O      15.502821     37.446355     11.146225
  O      10.209872     37.904597     12.356517
  O      14.837993     34.646057     11.101047
  O       8.557931     36.060048     12.273789
  O       9.700696     36.853424     10.096488
  O       7.994341     38.336580     11.222245
  N      12.897385     35.399645     12.036349
  N      12.978969     33.369694     10.928061
  N      11.106813     32.131833     10.446323
  C      13.733462     38.924758     11.812665
  C      14.118658     37.511578     11.340374
  C      12.475607     38.657534     12.613233
  C      13.608702     36.634836     12.509970
  C      11.252913     38.582881     11.706961
  C      11.578538     35.214665     12.236031
  C      13.657968     34.492529     11.344355
  C      10.907640     34.138941     11.743006
  C      11.640297     33.191925     11.032202
  H      13.522804     39.583760     10.961365
  H      13.579450     37.268364     10.419076
  H      12.327458     39.371988     13.422338
  H      14.447638     36.267780     13.108082
  H      11.490252     38.052314     10.779198
  H      10.963348     39.605429     11.434254
  H      15.575702     39.134159     12.309740
  H      15.735644     36.517186     11.023021
  H      11.078839     36.000064     12.793419
  H       9.828816     34.122328     11.839985
  H      10.104866     32.058593     10.396910
  H      11.641910     31.512703      9.860930
  H       7.944321     38.556992     10.282692
  H      13.531155     32.751739     10.343353
161
Coordinates from ORCA-job /data/Seafile/cmp/protonated/frames/frame11/dry/cmp_prot11 E -13392.449457818591
  Si      3.511877     33.901500      7.846351
  Si      3.464590     30.800618      7.868746
  O       2.282481     34.808991      8.402294
  O       2.166383     30.023087      8.467046
  O       3.450636     32.352058      8.365881
  O       3.540598     33.857106      6.199239
  O       3.471437     30.846881      6.223383
  Si      6.152067     26.142230      7.861932
  Si      8.821047     24.553479      7.854473
  O       4.785875     25.490750      8.452608
  O       7.483063     25.339579      8.360038
  O       8.767503     23.036083      8.438239
  O       6.170992     26.164120      6.214379
  O       8.793978     24.593333      6.210654
  Si      6.112537     29.223001      7.768129
  Si      6.168423     35.463392      7.761873
  Si      8.910477     33.873365      7.698731
  Si      8.864585     30.794789      7.702492
  O       4.843030     30.053724      8.352254
  O       4.900033     34.611871      8.328287
  O       7.563685     34.679556      8.079701
  O       7.492540     30.034719      8.102748
  O       6.215222     27.704596      8.345749
  O       8.846381     32.325409      8.275116
  O       5.876742     29.133944      6.144142
  O       5.976942     35.614516      6.132495
  O       9.090140     33.772642      6.065226
  O       9.033462     30.901843      6.076437
  Si      6.209483     38.551740      7.844201
  Si      8.920193     40.066605      7.835824
  O       4.939153     39.393135      8.403450
  O       7.578087     39.284256      8.369313
  O       6.207627     36.989368      8.318041
  O       9.055738     41.567412      8.446982
  O       6.293290     38.567089      6.197938
  O       8.852228     40.069689      6.191895
  Si     11.512433     26.065429      7.767811
  Si     14.192597     24.545046      7.846275
  O      10.163200     25.362255      8.345343
  O      12.878389     25.389350      8.338121
  O      14.013030     23.028197      8.404045
  O      11.469419     25.839856      6.141373
  O      14.202685     24.600785      6.200709
  Si     11.514684     29.235814      7.723659
  Si     11.579625     35.375487      7.666697
  Si     14.230545     33.827943      7.665325
  Si     14.185742     30.756971      7.726575
  O      10.173230     29.986026      8.294116
  O      10.258561     34.610425      8.228410
  O      12.951698     34.658033      8.238869
  O      12.856974     29.985858      8.315915
  O      11.491711     27.665229      8.120647
  O      14.236075     32.296839      8.309838
  O      11.505284     29.442252      6.099676
  O      11.636050     35.105925      6.040981
  O      14.024203     33.615747      6.052708
  O      13.979123     30.831084      6.105451
  Si     11.610373     38.544551      7.703232
  Si     14.297577     40.054966      7.831145
  O      10.264374     39.250451      8.260450
  O      12.975789     39.216462      8.307332
  O      11.643497     36.948896      8.005737
  O      14.268030     41.560789      8.448071
  O      11.686419     38.829954      6.081241
  O      14.355077     40.038561      6.187383
  Si     16.893578     26.065201      7.867244
  O      15.560635     25.265570      8.368320
  O      18.218556     25.331099      8.458222
  O      16.833100     26.052515      6.222998
  Si     16.917252     29.146894      7.777631
  Si     17.006026     35.387443      7.695397
  Si     19.644585     33.799989      7.828043
  Si     19.575991     30.698054      7.855402
  O      15.521199     29.932597      8.124153
  O      15.624361     34.570298      7.996577
  O      18.272804     34.560715      8.297277
  O      18.185896     29.984401      8.351876
  O      16.834094     27.627590      8.358827
  O      19.625083     32.250135      8.345676
  O      17.099615     28.990518      6.152997
  O      17.270589     35.478737      6.075836
  O      19.636832     33.738571      6.184273
  O      19.528762     30.695168      6.207760
  Si     16.961090     38.466668      7.829286
  O      15.649694     39.291004      8.331802
  O      18.362598     39.066612      8.398287
  O      16.899107     36.895086      8.287182
  O      16.927998     38.459006      6.180530
  O      20.811955     29.820890      8.441299
  O      20.983937     34.504969      8.422201
  H       4.074657     24.986772      8.036591
  H       1.410409     29.602015      8.036749
  H       1.410409     35.007985      8.036749
  H       4.074657     39.623228      8.036591
  H       8.948181     22.173255      8.038302
  H       8.948181     42.436745      8.038302
  H      14.277762     22.173204      8.038282
  H      14.277762     42.436796      8.038282
  H      18.960557     24.876228      8.036406
  H      18.960557     39.733772      8.036406
  H      21.624717     29.491420      8.036583
  H      21.624717     35.118580      8.036583
  H      13.267172     34.127711      5.712463
  H      10.807291     34.722862      5.707332
  H       8.971813     32.880050      5.709765
  H       9.778220     30.392552      5.723533
  H      12.321422     29.841299      5.757276
  H      14.039052     31.736858      5.753044
  H      13.529845     39.727676      5.786118
  H      10.857053     39.162153      5.714772
  H       8.050098     39.643644      5.854758
  H       6.174841     37.685893      5.814342
  H       5.266583     35.066059      5.774710
  H       3.487694     32.958675      5.845603
  H       4.158808     30.290654      5.830091
  H       6.002261     28.245811      5.783665
  H       6.900346     25.655271      5.836042
  H       9.612515     24.934187      5.823069
  H      12.298734     25.505299      5.774007
  H      15.005200     25.005786      5.842682
  H      16.974033     26.926722      5.831563
  H      17.811336     29.540374      5.794559
  H      19.621076     31.580347      5.828129
  H      18.946714     34.293327      5.790360
  H      17.146185     36.368547      5.716624
  H      16.181662     38.958025      5.819104
  P       9.059267     37.020142     11.424208
  O      12.711021     37.344043     13.305433
  O      14.658941     39.412494     12.657956
  O      15.450989     37.399458     11.175746
  O      10.182152     37.785973     12.371596
  O      14.841648     34.563698     11.223293
  O       8.579273     35.897682     12.264088
  O       9.689346     36.766127     10.098040
  O       7.955643     38.183402     11.263421
  N      12.876323     35.346468     12.079722
  N      12.983456     33.287990     11.026248
  N      11.122314     32.039428     10.508264
  C      13.674784     38.864026     11.826774
  C      14.068419     37.453211     11.372863
  C      12.418402     38.584683     12.627542
  C      13.570414     36.587906     12.552442
  C      11.204992     38.482758     11.721786
  C      11.550634     35.166089     12.246318
  C      13.654052     34.423300     11.430720
  C      10.888690     34.083239     11.754184
  C      11.639784     33.117560     11.084803
  H      13.465093     39.513860     10.965563
  H      13.525816     37.192868     10.457343
  H      12.261842     39.312622     13.422370
  H      14.412618     36.239734     13.157205
  H      11.456709     37.971316     10.785944
  H      10.892669     39.501565     11.455975
  H      15.509058     39.097140     12.328960
  H      15.687349     36.476109     11.031321
  H      11.031710     35.965945     12.767180
  H       9.805382     34.083294     11.815583
  H      10.123745     31.979541     10.404773
  H      11.677150     31.412276      9.947821
  H       7.924552     38.446636     10.335933
  H      13.549520     32.661466     10.464659
161
Coordinates from ORCA-job /data/Seafile/cmp/protonated/frames/frame11/dry/cmp_prot11 E -13392.450511689300
  Si      3.513780     33.903105      7.844348
  Si      3.463837     30.802158      7.865853
  O       2.284759     34.812249      8.399347
  O       2.167031     30.023678      8.465848
  O       3.448572     32.353767      8.365446
  O       3.548491     33.859081      6.197602
  O       3.471438     30.849958      6.220780
  Si      6.151473     26.144412      7.858813
  Si      8.818942     24.553965      7.851136
  O       4.784937     25.494155      8.450414
  O       7.480800     25.339457      8.359227
  O       8.766569     23.036893      8.436570
  O       6.172754     26.168990      6.211631
  O       8.790380     24.595028      6.207631
  Si      6.110940     29.224083      7.763716
  Si      6.169390     35.466300      7.765072
  Si      8.910972     33.875618      7.697144
  Si      8.862851     30.796818      7.695038
  O       4.842769     30.056090      8.350437
  O       4.901499     34.612908      8.331319
  O       7.564471     34.681102      8.082024
  O       7.491695     30.035405      8.096018
  O       6.214643     27.706707      8.344623
  O       8.844335     32.326966      8.271352
  O       5.871542     29.133115      6.140677
  O       5.978193     35.620969      6.136314
  O       9.092631     33.779113      6.064204
  O       9.032044     30.905938      6.069551
  Si      6.213006     38.552945      7.849310
  Si      8.922848     40.065272      7.840169
  O       4.941703     39.397946      8.403872
  O       7.579409     39.288773      8.380101
  O       6.208048     36.990976      8.327745
  O       9.058818     41.568311      8.446495
  O       6.299203     38.564578      6.203482
  O       8.860137     40.060387      6.196296
  Si     11.510311     26.065458      7.763441
  Si     14.189613     24.545954      7.843382
  O      10.160811     25.363350      8.342844
  O      12.875838     25.390772      8.337270
  O      14.007308     23.028388      8.399463
  O      11.467951     25.836913      6.137610
  O      14.199624     24.607212      6.198319
  Si     11.512232     29.236447      7.718270
  Si     11.584160     35.374801      7.667201
  Si     14.232452     33.825203      7.678029
  Si     14.183719     30.756142      7.730961
  O      10.170125     29.986616      8.287689
  O      10.261950     34.609344      8.229400
  O      12.953753     34.658849      8.248257
  O      12.853097     29.984518      8.317442
  O      11.489150     27.665654      8.114824
  O      14.234833     32.293603      8.319448
  O      11.504562     29.444898      6.094570
  O      11.643124     35.102592      6.042246
  O      14.029704     33.616723      6.064452
  O      13.979991     30.834092      6.109699
  Si     11.613209     38.547351      7.703286
  Si     14.300097     40.054894      7.832050
  O      10.268794     39.252108      8.267191
  O      12.977860     39.217499      8.309707
  O      11.650878     36.949941      8.000619
  O      14.271152     41.560833      8.448326
  O      11.688018     38.837090      6.082425
  O      14.355643     40.033567      6.188565
  Si     16.891752     26.063351      7.867322
  O      15.559396     25.261703      8.369169
  O      18.217638     25.330188      8.458151
  O      16.830285     26.053329      6.223407
  Si     16.914575     29.144735      7.781918
  Si     17.007222     35.385615      7.710089
  Si     19.645276     33.796690      7.834806
  Si     19.572809     30.695307      7.858776
  O      15.518387     29.930185      8.128759
  O      15.627280     34.565580      8.013244
  O      18.275651     34.559325      8.311054
  O      18.182763     29.982396      8.358649
  O      16.830718     27.624944      8.363023
  O      19.627694     32.246614      8.354125
  O      17.097649     28.988696      6.157449
  O      17.269837     35.476799      6.090460
  O      19.630950     33.733061      6.191360
  O      19.519089     30.696492      6.211722
  Si     16.961443     38.463291      7.831493
  O      15.653559     39.292801      8.336273
  O      18.365712     39.061768      8.395795
  O      16.898849     36.894295      8.300088
  O      16.921755     38.446825      6.183345
  O      20.808042     29.813591      8.440160
  O      20.987995     34.500651      8.423274
  H       4.074657     24.986772      8.036591
  H       1.410409     29.602015      8.036749
  H       1.410409     35.007985      8.036749
  H       4.074657     39.623228      8.036591
  H       8.948181     22.173255      8.038302
  H       8.948181     42.436745      8.038302
  H      14.277762     22.173204      8.038282
  H      14.277762     42.436796      8.038282
  H      18.960557     24.876228      8.036406
  H      18.960557     39.733772      8.036406
  H      21.624717     29.491420      8.036583
  H      21.624717     35.118580      8.036583
  H      13.266404     34.120492      5.726198
  H      10.816041     34.718917      5.706272
  H       8.981369     32.886087      5.707461
  H       9.782740     30.403500      5.718209
  H      12.318401     29.851365      5.754162
  H      14.030006     31.742669      5.762029
  H      13.525728     39.730952      5.789447
  H      10.857046     39.165308      5.714995
  H       8.061781     39.630251      5.855254
  H       6.174540     37.684501      5.819163
  H       5.274104     35.066248      5.774961
  H       3.497861     32.960681      5.842870
  H       4.154870     30.289076      5.826729
  H       6.002955     28.245698      5.779411
  H       6.903768     25.662457      5.832580
  H       9.611089     24.930226      5.818866
  H      12.299624     25.508077      5.769421
  H      15.001982     25.013568      5.840619
  H      16.976390     26.927239      5.832330
  H      17.804046     29.544181      5.796933
  H      19.607860     31.582161      5.832329
  H      18.947852     34.296187      5.797459
  H      17.136141     36.364381      5.729031
  H      16.174619     38.944453      5.821339
  P       9.036607     37.005071     11.459301
  O      12.719951     37.280648     13.293581
  O      14.671574     39.368938     12.675693
  O      15.495770     37.364284     11.209748
  O      10.183258     37.772935     12.376052
  O      14.875895     34.546688     11.183343
  O       8.527485     35.922935     12.332979
  O       9.646722     36.705636     10.132252
  O       7.948613     38.180810     11.278478
  N      12.910926     35.303088     12.065087
  N      13.022099     33.262347     10.980955
  N      11.159802     32.012206     10.462967
  C      13.698618     38.814343     11.835185
  C      14.110603     37.409020     11.384823
  C      12.436689     38.527266     12.625197
  C      13.598789     36.537630     12.551749
  C      11.218211     38.445452     11.721007
  C      11.586866     35.116663     12.235176
  C      13.691567     34.393773     11.401507
  C      10.929545     34.034587     11.737890
  C      11.679331     33.084650     11.046714
  H      13.496997     39.461921     10.973794
  H      13.584578     37.143852     10.460472
  H      12.285009     39.251791     13.424410
  H      14.432171     36.189161     13.168704
  H      11.457786     37.932420     10.781832
  H      10.925908     39.471398     11.456727
  H      15.526130     39.062246     12.348475
  H      15.739120     36.442726     11.055822
  H      11.063606     35.904145     12.767548
  H       9.848896     34.021310     11.816186
  H      10.160401     31.954099     10.364955
  H      11.709119     31.397847      9.885334
  H       7.925289     38.440147     10.351930
  H      13.587232     32.649484     10.404088
161
Coordinates from ORCA-job /data/Seafile/cmp/protonated/frames/frame11/dry/cmp_prot11 E -13392.450773124183
  Si      3.516383     33.906349      7.822931
  Si      3.461453     30.805198      7.846385
  O       2.292234     34.818314      8.385544
  O       2.170387     30.026272      8.457783
  O       3.447396     32.357433      8.347034
  O       3.549206     33.863156      6.176146
  O       3.460787     30.852461      6.201309
  Si      6.150336     26.146992      7.841754
  Si      8.816222     24.554785      7.835650
  O       4.785131     25.501280      8.441481
  O       7.478342     25.340731      8.345779
  O       8.766425     23.040584      8.429684
  O       6.170559     26.168535      6.194562
  O       8.783465     24.590855      6.192156
  Si      6.105928     29.224694      7.732883
  Si      6.170942     35.470827      7.735400
  Si      8.911740     33.877367      7.646375
  Si      8.858491     30.797911      7.646798
  O       4.843310     30.060973      8.326576
  O       4.906779     34.614348      8.307770
  O       7.567098     34.682131      8.039768
  O       7.489345     30.036122      8.053001
  O       6.213927     27.710987      8.323830
  O       8.841181     32.328960      8.222694
  O       5.853257     29.125650      6.112481
  O       5.969053     35.637400      6.109065
  O       9.090737     33.784523      6.013296
  O       9.026264     30.902633      6.021332
  Si      6.217850     38.554566      7.835751
  Si      8.924916     40.064848      7.824522
  O       4.948243     39.401581      8.396153
  O       7.581743     39.294130      8.372028
  O       6.212629     36.990950      8.312765
  O       9.064310     41.565430      8.437070
  O       6.299468     38.569865      6.189890
  O       8.865055     40.061399      6.180379
  Si     11.507701     26.065521      7.739515
  Si     14.185429     24.547325      7.828315
  O      10.157826     25.367610      8.324262
  O      12.872354     25.394874      8.321382
  O      13.997524     23.030803      8.387015
  O      11.466101     25.825724      6.115383
  O      14.196416     24.611489      6.183470
  Si     11.508178     29.237970      7.681176
  Si     11.590963     35.373783      7.618479
  Si     14.237223     33.823326      7.650151
  Si     14.180724     30.755793      7.702868
  O      10.163740     29.987908      8.244669
  O      10.269079     34.603903      8.176217
  O      12.958264     34.661907      8.213620
  O      12.845038     29.989099      8.289245
  O      11.486423     27.668157      8.081642
  O      14.235496     32.292276      8.292765
  O      11.505480     29.442569      6.056926
  O      11.656008     35.098425      5.994059
  O      14.041882     33.616696      6.035091
  O      13.983363     30.833122      6.080995
  Si     11.615374     38.553117      7.670103
  Si     14.302313     40.055258      7.816872
  O      10.273597     39.252496      8.247570
  O      12.978546     39.215745      8.288425
  O      11.660076     36.951004      7.944024
  O      14.273255     41.557450      8.441807
  O      11.688435     38.863862      6.053254
  O      14.360892     40.037557      6.173557
  Si     16.889254     26.060437      7.855844
  O      15.557468     25.256884      8.358688
  O      18.214911     25.331459      8.452936
  O      16.830701     26.047668      6.211993
  Si     16.910908     29.141129      7.766426
  Si     17.012485     35.385441      7.698918
  Si     19.647436     33.791755      7.828199
  Si     19.567937     30.691224      7.849274
  O      15.513013     29.928015      8.105235
  O      15.632568     34.560878      7.991832
  O      18.278239     34.557481      8.305460
  O      18.175848     29.980612      8.349484
  O      16.823514     27.622627      8.351733
  O      19.629773     32.241758      8.350270
  O      17.102034     28.980408      6.143341
  O      17.284597     35.483495      6.081405
  O      19.634172     33.724398      6.184851
  O      19.511216     30.696229      6.202549
  Si     16.961683     38.459885      7.817746
  O      15.656857     39.293815      8.325477
  O      18.367951     39.052652      8.384287
  O      16.897268     36.892430      8.293346
  O      16.918938     38.438077      6.169846
  O      20.798393     29.802405      8.431195
  O      20.991092     34.493363      8.418143
  H       4.074657     24.986772      8.036591
  H       1.410409     29.602015      8.036749
  H       1.410409     35.007985      8.036749
  H       4.074657     39.623228      8.036591
  H       8.948181     22.173255      8.038302
  H       8.948181     42.436745      8.038302
  H      14.277762     22.173204      8.038282
  H      14.277762     42.436796      8.038282
  H      18.960557     24.876228      8.036406
  H      18.960557     39.733772      8.036406
  H      21.624717     29.491420      8.036583
  H      21.624717     35.118580      8.036583
  H      13.266851     34.104991      5.699601
  H      10.834019     34.705754      5.656552
  H       8.992945     32.889623      5.656952
  H       9.787166     30.411594      5.674392
  H      12.314513     29.862334      5.719863
  H      14.017899     31.745067      5.738032
  H      13.525478     39.749461      5.773383
  H      10.853867     39.188672      5.688574
  H       8.071350     39.626343      5.833560
  H       6.164396     37.692528      5.801433
  H       5.271954     35.074462      5.745407
  H       3.503918     32.964229      5.820817
  H       4.134548     30.281609      5.803858
  H       5.992468     28.238243      5.752643
  H       6.905831     25.667450      5.815427
  H       9.607621     24.914248      5.799660
  H      12.301618     25.504830      5.747694
  H      14.996633     25.023289      5.826298
  H      16.986725     26.919380      5.818889
  H      17.801619     29.543987      5.781509
  H      19.589087     31.583416      5.823937
  H      18.963083     34.298799      5.786881
  H      17.138603     36.369603      5.720234
  H      16.168545     38.930715      5.807011
  P       9.166126     36.999330     11.375264
  O      12.793347     37.328244     13.222351
  O      14.751802     39.434263     12.643521
  O      15.598688     37.440053     11.175323
  O      10.269393     37.830163     12.290244
  O      14.962689     34.655221     11.058266
  O       8.733703     35.874945     12.235058
  O       9.777646     36.772416     10.033455
  O       7.989430     38.094399     11.231235
  N      13.005808     35.369470     11.990027
  N      13.115045     33.360440     10.850969
  N      11.254893     32.109433     10.327870
  C      13.787681     38.880084     11.791205
  C      14.212662     37.480358     11.337360
  C      12.519623     38.582880     12.566988
  C      13.690969     36.597762     12.489834
  C      11.305131     38.514236     11.653246
  C      11.685580     35.168862     12.175715
  C      13.784806     34.483301     11.296235
  C      11.031028     34.090481     11.668025
  C      11.775275     33.169855     10.932232
  H      13.596296     39.528800     10.931617
  H      13.696558     37.214783     10.406999
  H      12.366431     39.301639     13.371803
  H      14.518313     36.249330     13.115530
  H      11.552255     38.013828     10.708086
  H      11.015394     39.545039     11.401766
  H      15.609333     39.134669     12.315996
  H      15.842045     36.522540     10.991538
  H      11.158611     35.935462     12.731909
  H       9.955789     34.053676     11.787552
  H      10.254253     32.052896     10.238079
  H      11.797874     31.523503      9.713737
  H       7.956752     38.392210     10.318402
  H      13.675308     32.771963     10.244726
161
Coordinates from ORCA-job /data/Seafile/cmp/protonated/frames/frame11/dry/cmp_prot11 E -13392.451623153531
  Si      3.519229     33.907648      7.837409
  Si      3.462655     30.807156      7.861515
  O       2.291759     34.821893      8.389160
  O       2.167976     30.026316      8.463092
  O       3.443700     32.359406      8.363550
  O       3.565401     33.861545      6.191164
  O       3.473192     30.857545      6.216696
  Si      6.151368     26.149030      7.855735
  Si      8.816407     24.556889      7.847661
  O       4.783224     25.500911      8.446040
  O       7.476890     25.338671      8.360868
  O       8.767288     23.039403      8.433565
  O       6.179370     26.179999      6.208899
  O       8.783962     24.602470      6.204476
  Si      6.106063     29.226017      7.759502
  Si      6.172939     35.472652      7.762522
  Si      8.912937     33.876993      7.684715
  Si      8.858200     30.799520      7.683611
  O       4.841592     30.062382      8.349911
  O       4.906563     34.616471      8.331235
  O       7.567462     34.683275      8.073745
  O       7.488981     30.035642      8.085069
  O       6.212683     27.710571      8.346880
  O       8.841550     32.329479      8.263126
  O       5.857759     29.130591      6.138329
  O       5.977453     35.637114      6.135321
  O       9.090278     33.781579      6.051714
  O       9.025447     30.907640      6.058351
  Si      6.218979     38.555701      7.846652
  Si      8.926757     40.062046      7.838240
  O       4.948259     39.407683      8.396996
  O       7.578913     39.299621      8.385912
  O       6.211565     36.994998      8.335903
  O       9.066452     41.566599      8.441358
  O       6.309546     38.559122      6.201559
  O       8.871567     40.047061      6.194063
  Si     11.507620     26.067612      7.757874
  Si     14.183827     24.548519      7.835797
  O      10.157451     25.368404      8.341235
  O      12.872928     25.395194      8.336623
  O      13.994273     23.029682      8.387418
  O      11.464413     25.831607      6.133387
  O      14.190847     24.622433      6.191429
  Si     11.506968     29.240530      7.708116
  Si     11.591942     35.371732      7.648868
  Si     14.237527     33.823878      7.662412
  Si     14.179973     30.755958      7.716208
  O      10.164126     29.988328      8.277746
  O      10.273519     34.599770      8.211556
  O      12.963453     34.662066      8.237686
  O      12.845165     29.993927      8.311752
  O      11.488145     27.669510      8.103790
  O      14.240388     32.292714      8.305972
  O      11.500166     29.447743      6.084210
  O      11.651043     35.091027      6.024963
  O      14.030420     33.617909      6.048605
  O      13.975918     30.835254      6.095507
  Si     11.616954     38.552741      7.694072
  Si     14.303334     40.053365      7.830095
  O      10.274814     39.252838      8.270505
  O      12.981258     39.215697      8.310774
  O      11.665144     36.950475      7.963713
  O      14.277158     41.559144      8.446646
  O      11.688558     38.863998      6.077379
  O      14.357854     40.025618      6.186894
  Si     16.887874     26.059343      7.861284
  O      15.558730     25.252665      8.366729
  O      18.215780     25.331520      8.454390
  O      16.824040     26.049065      6.217752
  Si     16.909684     29.139082      7.773404
  Si     17.015426     35.384965      7.705093
  Si     19.648182     33.788768      7.831224
  Si     19.565771     30.689317      7.851665
  O      15.512511     29.926644      8.113199
  O      15.635786     34.559261      7.996186
  O      18.280543     34.555788      8.311727
  O      18.174358     29.979693      8.355839
  O      16.821626     27.620955      8.359674
  O      19.632650     32.239222      8.355216
  O      17.100379     28.976981      6.150555
  O      17.289664     35.487031      6.088343
  O      19.628592     33.718251      6.188146
  O      19.502861     30.698156      6.205375
  Si     16.961447     38.457744      7.825282
  O      15.660488     39.295140      8.338396
  O      18.371833     39.048723      8.383533
  O      16.898373     36.890625      8.303573
  O      16.909455     38.431810      6.177822
  O      20.795034     29.796053      8.429109
  O      20.993902     34.489873      8.417285
  H       4.074657     24.986772      8.036591
  H       1.410409     29.602015      8.036749
  H       1.410409     35.007985      8.036749
  H       4.074657     39.623228      8.036591
  H       8.948181     22.173255      8.038302
  H       8.948181     42.436745      8.038302
  H      14.277762     22.173204      8.038282
  H      14.277762     42.436796      8.038282
  H      18.960557     24.876228      8.036406
  H      18.960557     39.733772      8.036406
  H      21.624717     29.491420      8.036583
  H      21.624717     35.118580      8.036583
  H      13.257418     34.114387      5.718686
  H      10.824710     34.704925      5.690572
  H       8.982970     32.887547      5.695891
  H       9.782832     30.412211      5.710271
  H      12.312172     29.860256      5.745329
  H      14.020546     31.747818      5.753773
  H      13.519147     39.741438      5.790784
  H      10.853381     39.188430      5.713764
  H       8.074787     39.616871      5.847615
  H       6.172569     37.679315      5.818349
  H       5.283873     35.071398      5.769105
  H       3.518593     32.962184      5.837007
  H       4.146461     30.283654      5.822704
  H       6.000870     28.244548      5.776574
  H       6.914749     25.678439      5.830438
  H       9.609447     24.924721      5.813871
  H      12.300373     25.513423      5.764061
  H      14.992303     25.032515      5.834759
  H      16.981130     26.921140      5.825625
  H      17.798830     29.541807      5.787783
  H      19.582888     31.586364      5.828630
  H      18.958943     34.295627      5.791246
  H      17.140797     36.373913      5.728973
  H      16.159903     38.928026      5.817674
  P       9.098574     37.003114     11.437452
  O      12.725134     37.346063     13.259971
  O      14.685994     39.441623     12.677520
  O      15.529380     37.442926     11.207164
  O      10.203531     37.849910     12.331815
  O      14.933142     34.644284     11.158684
  O       8.659821     35.903807     12.326715
  O       9.713491     36.739215     10.104506
  O       7.921458     38.093359     11.263427
  N      12.955510     35.361974     12.043251
  N      13.101393     33.331551     10.942505
  N      11.263250     32.057310     10.401809
  C      13.722898     38.886642     11.822819
  C      14.144077     37.482812     11.375036
  C      12.452980     38.596326     12.596789
  C      13.625299     36.606419     12.535565
  C      11.241206     38.517819     11.682162
  C      11.634864     35.147797     12.214114
  C      13.751315     34.470803     11.374156
  C      10.998423     34.056278     11.709845
  C      11.763208     33.129992     11.001968
  H      13.534116     39.534400     10.959611
  H      13.623027     37.212755     10.448805
  H      12.298061     39.323140     13.394288
  H      14.454280     36.272856     13.167286
  H      11.486213     38.002754     10.745387
  H      10.957444     39.545640     11.414080
  H      15.544457     39.141345     12.353423
  H      15.770692     36.527833     11.013959
  H      11.090336     35.916007     12.751133
  H       9.920674     34.012093     11.810902
  H      10.264904     31.995911     10.287083
  H      11.823792     31.471206      9.801377
  H       7.912496     38.392244     10.349058
  H      13.677100     32.737084     10.355832
161
Coordinates from ORCA-job /data/Seafile/cmp/protonated/frames/frame11/dry/cmp_prot11 E -13392.451873799999
  Si      3.521295     33.909032      7.844563
  Si      3.462962     30.809032      7.870081
  O       2.292812     34.826943      8.387977
  O       2.166261     30.026364      8.465268
  O       3.439713     32.361398      8.372742
  O       3.576123     33.859749      6.198618
  O       3.481248     30.861758      6.225392
  Si      6.151790     26.150695      7.863781
  Si      8.815877     24.558470      7.854583
  O       4.780906     25.502381      8.447319
  O       7.474861     25.336538      8.370256
  O       8.768566     23.038668      8.434897
  O       6.185677     26.186844      6.217086
  O       8.783031     24.611130      6.211547
  Si      6.105100     29.226843      7.774801
  Si      6.174186     35.474633      7.778334
  Si      8.912704     33.876529      7.707227
  Si      8.857692     30.800101      7.704278
  O       4.840368     30.064253      8.363752
  O       4.906399     34.618486      8.344625
  O       7.567399     34.683942      8.093329
  O       7.488555     30.034883      8.102135
  O       6.211263     27.710666      8.360919
  O       8.841454     32.329174      8.286975
  O       5.857677     29.132322      6.153442
  O       5.982804     35.637978      6.150443
  O       9.088295     33.778667      6.074038
  O       9.025527     30.909706      6.079004
  Si      6.221284     38.556894      7.852403
  Si      8.928648     40.060868      7.845002
  O       4.950074     39.413936      8.394902
  O       7.578418     39.304788      8.394283
  O       6.211549     36.998094      8.350294
  O       9.069243     41.567723      8.441899
  O       6.318385     38.552240      6.207977
  O       8.878311     40.038072      6.200545
  Si     11.507291     26.068410      7.768007
  Si     14.182200     24.549459      7.839663
  O      10.156526     25.369577      8.350943
  O      12.872798     25.395430      8.345942
  O      13.989026     23.028727      8.384470
  O      11.463369     25.833065      6.143514
  O      14.187954     24.631267      6.195613
  Si     11.506693     29.242102      7.723425
  Si     11.592325     35.370190      7.668172
  Si     14.237446     33.824375      7.673112
  Si     14.180299     30.756079      7.725711
  O      10.163970     29.987524      8.296132
  O      10.275641     34.596826      8.231926
  O      12.966358     34.662714      8.255701
  O      12.845037     29.997796      8.326565
  O      11.490043     27.670332      8.114925
  O      14.244504     32.292709      8.316794
  O      11.499377     29.451990      6.099720
  O      11.648546     35.083751      6.044741
  O      14.023647     33.618825      6.060033
  O      13.972753     30.837457      6.105639
  Si     11.618345     38.553780      7.707267
  Si     14.305035     40.052350      7.837496
  O      10.276430     39.253744      8.284491
  O      12.983598     39.216225      8.323898
  O      11.669834     36.950625      7.970455
  O      14.280559     41.560471      8.448432
  O      11.688272     38.867365      6.090915
  O      14.358016     40.016606      6.194371
  Si     16.886506     26.057962      7.865484
  O      15.559859     25.247565      8.372251
  O      18.216760     25.331752      8.454938
  O      16.818456     26.050508      6.222123
  Si     16.909235     29.136784      7.779860
  Si     17.017690     35.384196      7.713775
  Si     19.648722     33.785789      7.835816
  Si     19.563819     30.687545      7.854501
  O      15.512160     29.925040      8.118947
  O      15.638082     34.556716      8.001807
  O      18.282765     34.554237      8.320067
  O      18.172988     29.978800      8.362454
  O      16.819514     27.618924      8.366520
  O      19.636611     32.236534      8.361415
  O      17.100590     28.973618      6.157259
  O      17.293723     35.489256      6.097655
  O      19.622185     33.711869      6.192874
  O      19.495354     30.701287      6.208563
  Si     16.961145     38.455297      7.831494
  O      15.664197     39.297645      8.347507
  O      18.376297     39.043881      8.380598
  O      16.898078     36.889091      8.315212
  O      16.901235     38.423479      6.184404
  O      20.790861     29.787353      8.425607
  O      20.997283     34.486378      8.416269
  H       4.074657     24.986772      8.036591
  H       1.410409     29.602015      8.036749
  H       1.410409     35.007985      8.036749
  H       4.074657     39.623228      8.036591
  H       8.948181     22.173255      8.038302
  H       8.948181     42.436745      8.038302
  H      14.277762     22.173204      8.038282
  H      14.277762     42.436796      8.038282
  H      18.960557     24.876228      8.036406
  H      18.960557     39.733772      8.036406
  H      21.624717     29.491420      8.036583
  H      21.624717     35.118580      8.036583
  H      13.249108     34.116719      5.734867
  H      10.820349     34.699444      5.713284
  H       8.976442     32.884568      5.719784
  H       9.781264     30.411505      5.731512
  H      12.312889     29.861167      5.760916
  H      14.018087     31.750748      5.766442
  H      13.517694     39.733804      5.800762
  H      10.852528     39.191569      5.729080
  H       8.081344     39.610611      5.852914
  H       6.182091     37.671170      5.828367
  H       5.292306     35.070191      5.782557
  H       3.527155     32.960161      5.846064
  H       4.153424     30.285323      5.833828
  H       6.003756     28.247124      5.791227
  H       6.920448     25.683656      5.839925
  H       9.609331     24.931832      5.821980
  H      12.299495     25.516060      5.773958
  H      14.991336     25.038416      5.840323
  H      16.977408     26.922544      5.831217
  H      17.797744     29.539453      5.794211
  H      19.576144     31.590471      5.834494
  H      18.955129     34.292348      5.796789
  H      17.140879     36.375686      5.739236
  H      16.151031     38.919539      5.825827
  P       9.101429     36.952980     11.419571
  O      12.718765     37.295256     13.267837
  O      14.679243     39.399684     12.699641
  O      15.540813     37.400369     11.241490
  O      10.195505     37.806024     12.320407
  O      14.938815     34.593110     11.171823
  O       8.673273     35.844074     12.301706
  O       9.726162     36.704566     10.087890
  O       7.910131     38.028465     11.251180
  N      12.962546     35.314191     12.057963
  N      13.106378     33.277805     10.968529
  N      11.265763     31.997912     10.443984
  C      13.723430     38.839560     11.839795
  C      14.153930     37.436978     11.395603
  C      12.449353     38.545116     12.605517
  C      13.628200     36.559527     12.552216
  C      11.244767     38.463957     11.680254
  C      11.642493     35.102383     12.229701
  C      13.757218     34.420640     11.390555
  C      11.004025     34.010820     11.728844
  C      11.767752     33.077091     11.031423
  H      13.536514     39.485954     10.974630
  H      13.640821     37.165436     10.465375
  H      12.287141     39.269725     13.403312
  H      14.453197     36.228260     13.190008
  H      11.496441     37.939791     10.750916
  H      10.969854     39.490911     11.400358
  H      15.540844     39.107053     12.377550
  H      15.784525     36.485585     11.049815
  H      11.098058     35.872326     12.765800
  H       9.926147     33.969858     11.829936
  H      10.267536     31.937815     10.329294
  H      11.823907     31.404739      9.849948
  H       7.908639     38.348772     10.343185
  H      13.681121     32.676690     10.387923
161
Coordinates from ORCA-job /data/Seafile/cmp/protonated/frames/frame11/dry/cmp_prot11 E -13392.452096945926
  Si      3.524037     33.911483      7.839752
  Si      3.462465     30.812070      7.867935
  O       2.297848     34.834606      8.379479
  O       2.166953     30.027359      8.463146
  O       3.436387     32.364721      8.370733
  O       3.582452     33.858935      6.194042
  O       3.482070     30.866702      6.223376
  Si      6.151883     26.152932      7.862337
  Si      8.814819     24.560497      7.853196
  O       4.778986     25.507600      8.444045
  O       7.472680     25.335698      8.371054
  O       8.770782     23.040260      8.432850
  O       6.188995     26.188904      6.215693
  O       8.779364     24.615897      6.210256
  Si      6.102389     29.227798      7.771162
  Si      6.175493     35.478282      7.773705
  Si      8.911945     33.875839      7.697024
  Si      8.856219     30.800073      7.695833
  O       4.840368     30.068086      8.362296
  O       4.908924     34.620776      8.341468
  O       7.568479     34.685034      8.084840
  O       7.487641     30.034650      8.093555
  O       6.210456     27.712792      8.360739
  O       8.841222     32.328939      8.279170
  O       5.848986     29.129866      6.150920
  O       5.980840     35.646707      6.146635
  O       9.081791     33.776987      6.063027
  O       9.023437     30.907740      6.070092
  Si      6.224485     38.559227      7.848503
  Si      8.931603     40.059208      7.841719
  O       4.954435     39.420241      8.388578
  O       7.579474     39.310174      8.392887
  O       6.214015     37.000654      8.349914
  O       9.075430     41.566191      8.437239
  O       6.325947     38.551767      6.204917
  O       8.884469     40.032219      6.197083
  Si     11.506799     26.068863      7.763634
  Si     14.180089     24.550548      7.835656
  O      10.155279     25.373028      8.348849
  O      12.872057     25.397362      8.344484
  O      13.980288     23.029254      8.375975
  O      11.462444     25.828265      6.140040
  O      14.186692     24.637605      6.191875
  Si     11.506131     29.243660      7.715373
  Si     11.593781     35.368517      7.655810
  Si     14.239442     33.825298      7.659684
  Si     14.180234     30.756326      7.714456
  O      10.162262     29.986553      8.287507
  O      10.278599     34.592374      8.217381
  O      12.969621     34.664263      8.245310
  O      12.842513     30.004502      8.320231
  O      11.492201     27.672046      8.106241
  O      14.249000     32.293597      8.304624
  O      11.500618     29.452793      6.091424
  O      11.650836     35.079056      6.032297
  O      14.024460     33.618515      6.046877
  O      13.972189     30.836021      6.094417
  Si     11.620046     38.556056      7.701249
  Si     14.307190     40.051087      7.835420
  O      10.278698     39.251476      8.285249
  O      12.985599     39.214655      8.322456
  O      11.675350     36.950346      7.947195
  O      14.283454     41.559322      8.446163
  O      11.687498     38.882817      6.087433
  O      14.361921     40.011822      6.192467
  Si     16.884611     26.056188      7.863071
  O      15.560535     25.241822      8.370913
  O      18.216757     25.334095      8.452749
  O      16.814513     26.048283      6.219873
  Si     16.908110     29.133861      7.774547
  Si     17.021895     35.384023      7.709273
  Si     19.649839     33.781677      7.833920
  Si     19.560677     30.684993      7.850448
  O      15.509990     29.923220      8.107860
  O      15.641829     34.553673      7.988102
  O      18.284838     34.552438      8.318723
  O      18.168888     29.978483      8.360088
  O      16.814925     27.617347      8.364073
  O      19.640418     32.232843      8.361660
  O      17.104722     28.966964      6.153060
  O      17.305696     35.494930      6.095132
  O      19.620101     33.703480      6.191131
  O      19.489672     30.704268      6.204901
  Si     16.960869     38.452465      7.829035
  O      15.667939     39.299670      8.348109
  O      18.380867     39.035624      8.371709
  O      16.896494     36.886742      8.316760
  O      16.894985     38.417404      6.182292
  O      20.782300     29.774736      8.416907
  O      21.000160     34.480890      8.412036
  H       4.074657     24.986772      8.036591
  H       1.410409     29.602015      8.036749
  H       1.410409     35.007985      8.036749
  H       4.074657     39.623228      8.036591
  H       8.948181     22.173255      8.038302
  H       8.948181     42.436745      8.038302
  H      14.277762     22.173204      8.038282
  H      14.277762     42.436796      8.038282
  H      18.960557     24.876228      8.036406
  H      18.960557     39.733772      8.036406
  H      21.624717     29.491420      8.036583
  H      21.624717     35.118580      8.036583
  H      13.245243     34.112228      5.724451
  H      10.823518     34.691097      5.702058
  H       8.969882     32.881981      5.710125
  H       9.780021     30.409497      5.723819
  H      12.313793     29.863011      5.752754
  H      14.012652     31.750009      5.756254
  H      13.520526     39.731136      5.798705
  H      10.850411     39.209217      5.729801
  H       8.086934     39.607378      5.847544
  H       6.190887     37.669732      5.826110
  H       5.291665     35.077666      5.777658
  H       3.531563     32.958596      5.843007
  H       4.152026     30.287453      5.831497
  H       5.997541     28.244487      5.789506
  H       6.923555     25.683757      5.840071
  H       9.606376     24.933591      5.819375
  H      12.299384     25.512016      5.771133
  H      14.992261     25.042078      5.838005
  H      16.976153     26.919666      5.828305
  H      17.800400     29.534809      5.790042
  H      19.568963     31.595159      5.833851
  H      18.957363     34.287713      5.793243
  H      17.148854     36.381477      5.737967
  H      16.143316     38.912538      5.824795
  P       9.104440     36.950960     11.421741
  O      12.711434     37.317065     13.262300
  O      14.669252     39.427975     12.702020
  O      15.538017     37.432915     11.239704
  O      10.183050     37.833105     12.312816
  O      14.950306     34.622038     11.173144
  O       8.699351     35.841496     12.313600
  O       9.735281     36.705394     10.092055
  O       7.884147     37.991309     11.244126
  N      12.968269     35.335180     12.052760
  N      13.124947     33.299395     10.963438
  N      11.292047     32.013767     10.428637
  C      13.715292     38.866318     11.840235
  C      14.150786     37.465691     11.393119
  C      12.441052     38.567972     12.603920
  C      13.626157     36.584752     12.548591
  C      11.238640     38.484968     11.675056
  C      11.648670     35.118421     12.218351
  C      13.769014     34.443866     11.389061
  C      11.016856     34.024300     11.714511
  C      11.787193     33.093292     11.021103
  H      13.526292     39.513612     10.975989
  H      13.637750     37.195967     10.462608
  H      12.275049     39.289423     13.403696
  H      14.451672     36.256950     13.187316
  H      11.492593     37.951943     10.751872
  H      10.969203     39.510791     11.386494
  H      15.532352     39.143270     12.377353
  H      15.782774     36.520422     11.038846
  H      11.097633     35.885872     12.751211
  H       9.938860     33.980115     11.809630
  H      10.294606     31.950870     10.309476
  H      11.854632     31.424560      9.834090
  H       7.893673     38.327860     10.341051
  H      13.703874     32.700324     10.385066
161
Coordinates from ORCA-job /data/Seafile/cmp/protonated/frames/frame11/dry/cmp_prot11 E -13392.452239684970
  Si      3.525967     33.913443      7.835457
  Si      3.462439     30.814332      7.866022
  O       2.302261     34.841749      8.371435
  O       2.167804     30.028154      8.461213
  O       3.433928     32.367294      8.368265
  O       3.586755     33.858475      6.189993
  O       3.482698     30.869576      6.221528
  Si      6.151708     26.155102      7.861155
  Si      8.813697     24.561923      7.851556
  O       4.776778     25.512885      8.441079
  O       7.470812     25.335186      8.370839
  O       8.772708     23.041600      8.430814
  O       6.190281     26.190813      6.214608
  O       8.776284     24.618463      6.208650
  Si      6.101472     29.229264      7.769561
  Si      6.176465     35.480658      7.770127
  Si      8.911108     33.875692      7.693937
  Si      8.856270     30.800577      7.693760
  O       4.840809     30.071336      8.361210
  O       4.910238     34.622979      8.338421
  O       7.569196     34.686715      8.081506
  O       7.487693     30.035176      8.090210
  O       6.210012     27.714699      8.360789
  O       8.841975     32.329036      8.277542
  O       5.846164     29.130207      6.149662
  O       5.982661     35.649810      6.143017
  O       9.077730     33.776273      6.059308
  O       9.022630     30.908111      6.067521
  Si      6.226413     38.561149      7.843389
  Si      8.934319     40.058251      7.837567
  O       4.958340     39.425967      8.381882
  O       7.581252     39.313083      8.388737
  O       6.215410     37.002956      8.347038
  O       9.081065     41.564898      8.432235
  O       6.330162     38.551744      6.200454
  O       8.891040     40.028695      6.192932
  Si     11.506447     26.068743      7.760199
  Si     14.178583     24.550924      7.832311
  O      10.154165     25.375186      8.346316
  O      12.871387     25.397895      8.343028
  O      13.972632     23.029342      8.368417
  O      11.461988     25.826464      6.136989
  O      14.185810     24.641109      6.188750
  Si     11.506415     29.244050      7.711408
  Si     11.594188     35.367461      7.651763
  Si     14.239707     33.825630      7.654632
  Si     14.180731     30.756355      7.709432
  O      10.162019     29.984959      8.283757
  O      10.278915     34.591948      8.211169
  O      12.970864     34.665237      8.242516
  O      12.841972     30.007393      8.317494
  O      11.494296     27.672480      8.100965
  O      14.252002     32.293646      8.299360
  O      11.501883     29.452962      6.087406
  O      11.650876     35.075768      6.027924
  O      14.022777     33.619015      6.042169
  O      13.973481     30.835552      6.089150
  Si     11.621659     38.557485      7.698424
  Si     14.309273     40.050356      7.834248
  O      10.279622     39.248562      8.286307
  O      12.987155     39.214532      8.322151
  O      11.679488     36.950403      7.933883
  O      14.286311     41.558555      8.444568
  O      11.688015     38.889843      6.085786
  O      14.364774     40.009639      6.191371
  Si     16.883461     26.054894      7.861125
  O      15.561197     25.237277      8.369183
  O      18.217231     25.336473      8.450955
  O      16.812431     26.046583      6.218020
  Si     16.907612     29.131917      7.771335
  Si     17.023798     35.382895      7.707035
  Si     19.650376     33.778673      7.832105
  Si     19.558513     30.683060      7.846916
  O      15.508764     29.921344      8.101986
  O      15.643935     34.550352      7.981482
  O      18.286483     34.551182      8.317494
  O      18.166190     29.978564      8.358433
  O      16.812227     27.616099      8.362065
  O      19.643551     32.230018      8.361058
  O      17.106357     28.963784      6.150337
  O      17.310343     35.496224      6.093807
  O      19.617832     33.698298      6.189395
  O      19.486265     30.706352      6.201749
  Si     16.960719     38.449694      7.827005
  O      15.670974     39.300887      8.348195
  O      18.384953     39.028221      8.363414
  O      16.894822     36.884444      8.318420
  O      16.890987     38.412885      6.180565
  O      20.774796     29.763081      8.408583
  O      21.002312     34.476448      8.408024
  H       4.074657     24.986772      8.036591
  H       1.410409     29.602015      8.036749
  H       1.410409     35.007985      8.036749
  H       4.074657     39.623228      8.036591
  H       8.948181     22.173255      8.038302
  H       8.948181     42.436745      8.038302
  H      14.277762     22.173204      8.038282
  H      14.277762     42.436796      8.038282
  H      18.960557     24.876228      8.036406
  H      18.960557     39.733772      8.036406
  H      21.624717     29.491420      8.036583
  H      21.624717     35.118580      8.036583
  H      13.242941     34.113209      5.721472
  H      10.823628     34.686828      5.698741
  H       8.972587     32.879971      5.707857
  H       9.781684     30.413790      5.721391
  H      12.313894     29.865029      5.748196
  H      14.012541     31.749708      5.751338
  H      13.522248     39.734070      5.796636
  H      10.850329     39.216329      5.729349
  H       8.094795     39.602931      5.841275
  H       6.192800     37.669706      5.821950
  H       5.295567     35.079177      5.772497
  H       3.537865     32.957526      5.839956
  H       4.150803     30.288412      5.829210
  H       5.997770     28.245570      5.787703
  H       6.926768     25.687829      5.839673
  H       9.603596     24.933398      5.816229
  H      12.299759     25.512560      5.767737
  H      14.990945     25.047332      5.835640
  H      16.976562     26.917193      5.825605
  H      17.799796     29.534150      5.786662
  H      19.560020     31.599023      5.833120
  H      18.958333     34.285536      5.790345
  H      17.150401     36.382279      5.736265
  H      16.137523     38.905957      5.823609
  P       9.109133     36.946528     11.410545
  O      12.703269     37.327706     13.256638
  O      14.653870     39.449790     12.708614
  O      15.533679     37.462968     11.240386
  O      10.173673     37.846326     12.301234
  O      14.960671     34.652509     11.162675
  O       8.712098     35.835888     12.304013
  O       9.750414     36.703607     10.084656
  O       7.874469     37.966377     11.223969
  N      12.973908     35.350578     12.042739
  N      13.143487     33.319527     10.946401
  N      11.318563     32.020805     10.413386
  C      13.705015     38.887104     11.842118
  C      14.146204     37.489705     11.391336
  C      12.430499     38.580543     12.601698
  C      13.623631     36.602980     12.543291
  C      11.233340     38.496176     11.667557
  C      11.655418     35.125975     12.206617
  C      13.780125     34.466301     11.375777
  C      11.030727     34.028065     11.701639
  C      11.806952     33.103370     11.006540
  H      13.514980     39.536353     10.979034
  H      13.635049     37.222846     10.459095
  H      12.256902     39.296750     13.404550
  H      14.450330     36.277334     13.181644
  H      11.491845     37.956614     10.749056
  H      10.965463     39.520783     11.374105
  H      15.519582     39.172309     12.384959
  H      15.782592     36.552235     11.038513
  H      11.099966     35.887620     12.742638
  H       9.952930     33.976207     11.796058
  H      10.320808     31.945180     10.304338
  H      11.883763     31.433528      9.819155
  H       7.890315     38.313333     10.325520
  H      13.726319     32.723532     10.369057
161
Coordinates from ORCA-job /data/Seafile/cmp/protonated/frames/frame11/dry/cmp_prot11 E -13392.452313411695
  Si      3.527156     33.914873      7.830364
  Si      3.462201     30.815929      7.862783
  O       2.306618     34.848759      8.363110
  O       2.168863     30.028526      8.458804
  O       3.431897     32.369198      8.364232
  O       3.588637     33.857455      6.185199
  O       3.481978     30.871073      6.218354
  Si      6.151232     26.157009      7.858681
  Si      8.812535     24.563014      7.849504
  O       4.774071     25.519065      8.437550
  O       7.469018     25.335091      8.369108
  O       8.774452     23.042918      8.428687
  O       6.190660     26.190834      6.212285
  O       8.774009     24.619914      6.206622
  Si      6.100926     29.230744      7.765350
  Si      6.176890     35.482198      7.764816
  Si      8.910083     33.875525      7.688013
  Si      8.856819     30.801027      7.689017
  O       4.841329     30.073986      8.357595
  O       4.911378     34.624094      8.333420
  O       7.569877     34.688612      8.076012
  O       7.487690     30.036346      8.084157
  O       6.210336     27.716667      8.357949
  O       8.843073     32.329195      8.272298
  O       5.843835     29.130546      6.145840
  O       5.983439     35.651589      6.137835
  O       9.073121     33.774952      6.052878
  O       9.024185     30.907728      6.062358
  Si      6.228200     38.562867      7.838751
  Si      8.937992     40.057691      7.832562
  O       4.962369     39.431166      8.375769
  O       7.584959     39.313673      8.383494
  O       6.216321     37.004554      8.341807
  O       9.088240     41.563736      8.426674
  O       6.333432     38.553025      6.196411
  O       8.896377     40.027245      6.188157
  Si     11.505996     26.068370      7.757034
  Si     14.177337     24.551077      7.829931
  O      10.152894     25.376840      8.343258
  O      12.870650     25.398150      8.341644
  O      13.965315     23.029227      8.361661
  O      11.461742     25.824972      6.134168
  O      14.185834     24.643480      6.186610
  Si     11.506707     29.243886      7.707666
  Si     11.594255     35.366746      7.645623
  Si     14.239427     33.825170      7.652068
  Si     14.180576     30.756145      7.707831
  O      10.161560     29.983563      8.278808
  O      10.277904     34.592931      8.202752
  O      12.970381     34.665720      8.238680
  O      12.841303     30.008229      8.315642
  O      11.495806     27.672399      8.096234
  O      14.252377     32.293409      8.297261
  O      11.503890     29.453237      6.083826
  O      11.651807     35.072846      6.021437
  O      14.023006     33.617071      6.040034
  O      13.974196     30.834414      6.087201
  Si     11.623965     38.558568      7.692981
  Si     14.311922     40.049845      7.831945
  O      10.280905     39.244837      8.284693
  O      12.989077     39.214495      8.318928
  O      11.683406     36.950579      7.920119
  O      14.288881     41.557725      8.442504
  O      11.689845     38.896254      6.081480
  O      14.368534     40.008960      6.189200
  Si     16.882601     26.054156      7.860314
  O      15.561644     25.233715      8.367898
  O      18.218132     25.339163      8.449737
  O      16.810719     26.045991      6.217284
  Si     16.906810     29.130810      7.770456
  Si     17.024402     35.381255      7.707236
  Si     19.650558     33.776152      7.831618
  Si     19.556572     30.681263      7.844797
  O      15.507185     29.919440      8.099600
  O      15.645092     34.546765      7.978624
  O      18.287776     34.550033      8.317533
  O      18.163672     29.979206      8.358289
  O      16.810182     27.615223      8.361304
  O      19.646191     32.227465      8.361133
  O      17.106434     28.962290      6.149723
  O      17.311811     35.495035      6.094510
  O      19.614999     33.694409      6.189012
  O      19.483442     30.708314      6.200020
  Si     16.961126     38.446904      7.825212
  O      15.673749     39.301463      8.346910
  O      18.389070     39.021275      8.355592
  O      16.893136     36.882418      8.320547
  O      16.889040     38.409041      6.179067
  O      20.767513     29.751118      8.400606
  O      21.004224     34.472545      8.404637
  H       4.074657     24.986772      8.036591
  H       1.410409     29.602015      8.036749
  H       1.410409     35.007985      8.036749
  H       4.074657     39.623228      8.036591
  H       8.948181     22.173255      8.038302
  H       8.948181     42.436745      8.038302
  H      14.277762     22.173204      8.038282
  H      14.277762     42.436796      8.038282
  H      18.960557     24.876228      8.036406
  H      18.960557     39.733772      8.036406
  H      21.624717     29.491420      8.036583
  H      21.624717     35.118580      8.036583
  H      13.242168     34.109279      5.718737
  H      10.824846     34.683503      5.692498
  H       8.973181     32.877247      5.703166
  H       9.783859     30.414117      5.716452
  H      12.315686     29.865465      5.744247
  H      14.010166     31.748264      5.748577
  H      13.525601     39.736978      5.792787
  H      10.851698     39.222840      5.725707
  H       8.101332     39.599743      5.835805
  H       6.194577     37.671324      5.817689
  H       5.297487     35.080171      5.766330
  H       3.541437     32.955864      5.836305
  H       4.148977     30.289044      5.825392
  H       5.996368     28.246164      5.783516
  H       6.928990     25.689523      5.838393
  H       9.601714     24.932336      5.812994
  H      12.299974     25.512362      5.764698
  H      14.990360     25.051970      5.834471
  H      16.977186     26.915960      5.824313
  H      17.798791     29.533584      5.785469
  H      19.552135     31.602556      5.833887
  H      18.957345     34.283389      5.789649
  H      17.150889     36.380420      5.735888
  H      16.134484     38.900820      5.822453
  P       9.119611     36.936917     11.404059
  O      12.710345     37.331713     13.255918
  O      14.651773     39.461029     12.710941
  O      15.542192     37.477837     11.243815
  O      10.175968     37.845538     12.296337
  O      14.974108     34.666367     11.160234
  O       8.721517     35.826518     12.297654
  O       9.768849     36.690445     10.082371
  O       7.881206     37.948035     11.208249
  N      12.984355     35.358228     12.037782
  N      13.159219     33.331174     10.935591
  N      11.336306     32.032550     10.397046
  C      13.706857     38.895558     11.842896
  C      14.154120     37.499873     11.391398
  C      12.432144     38.584127     12.600666
  C      13.631572     36.610333     12.541073
  C      11.237209     38.497058     11.664446
  C      11.665674     35.132491     12.197515
  C      13.793582     34.476407     11.370809
  C      11.043695     34.034746     11.689504
  C      11.822631     33.113195     10.993721
  H      13.515048     39.544336     10.980568
  H      13.646996     37.233786     10.456770
  H      12.252586     39.297223     13.404980
  H      14.458631     36.283491     13.178509
  H      11.498038     37.956484     10.747032
  H      10.966666     39.520954     11.371544
  H      15.519570     39.187924     12.389029
  H      15.796540     36.566607     11.049086
  H      11.109322     35.892108     12.734666
  H       9.965639     33.981874     11.777663
  H      10.338484     31.948892     10.297986
  H      11.902090     31.442636      9.806454
  H       7.900059     38.300012     10.312192
  H      13.743808     32.735743     10.359427
161
Coordinates from ORCA-job /data/Seafile/cmp/protonated/frames/frame11/dry/cmp_prot11 E -13392.452373795877
  Si      3.527940     33.915933      7.827615
  Si      3.462160     30.817008      7.861480
  O       2.309683     34.854492      8.356973
  O       2.169439     30.028702      8.457357
  O       3.430598     32.370573      8.362000
  O       3.589926     33.856070      6.182668
  O       3.482209     30.871548      6.217032
  Si      6.150732     26.158499      7.857734
  Si      8.811627     24.563689      7.848848
  O       4.771209     25.524447      8.435056
  O       7.467623     25.335005      8.368312
  O       8.775905     23.043625      8.427430
  O       6.191070     26.191078      6.211447
  O       8.772359     24.621011      6.205942
  Si      6.100989     29.232109      7.764085
  Si      6.177118     35.483315      7.761941
  Si      8.909653     33.876130      7.683176
  Si      8.857314     30.802153      7.686727
  O       4.841640     30.075761      8.356180
  O       4.912283     34.624669      8.330546
  O       7.571032     34.691178      8.072441
  O       7.487769     30.038092      8.081546
  O       6.211256     27.718093      8.356792
  O       8.844354     32.330378      8.268514
  O       5.843168     29.131297      6.144750
  O       5.983241     35.652184      6.135072
  O       9.069210     33.773509      6.047701
  O       9.024863     30.908043      6.059713
  Si      6.228949     38.564378      7.835829
  Si      8.940855     40.057567      7.829528
  O       4.964817     39.435403      8.370968
  O       7.587585     39.313620      8.379549
  O       6.216353     37.006107      8.337690
  O       9.095782     41.563283      8.422236
  O       6.335218     38.553757      6.193649
  O       8.898930     40.027325      6.185346
  Si     11.505491     26.068213      7.755604
  Si     14.176334     24.550999      7.828236
  O      10.151877     25.377943      8.341697
  O      12.870266     25.398493      8.340753
  O      13.959648     23.028875      8.356623
  O      11.461198     25.823815      6.133009
  O      14.185752     24.644696      6.185037
  Si     11.506258     29.243728      7.704418
  Si     11.594537     35.366543      7.637901
  Si     14.239140     33.824318      7.644995
  Si     14.180121     30.755547      7.702775
  O      10.161628     29.983643      8.275795
  O      10.277729     34.594574      8.194557
  O      12.970366     34.665532      8.230928
  O      12.841413     30.007810      8.311160
  O      11.496516     27.672481      8.093286
  O      14.251691     32.292883      8.291012
  O      11.502835     29.452748      6.080725
  O      11.651102     35.070423      6.013420
  O      14.021832     33.615959      6.033359
  O      13.973870     30.833149      6.081960
  Si     11.625823     38.559524      7.688154
  Si     14.314007     40.049497      7.830476
  O      10.281402     39.241041      8.283028
  O      12.990524     39.214516      8.316145
  O      11.686761     36.950904      7.908203
  O      14.291013     41.557208      8.441139
  O      11.691607     38.902904      6.077824
  O      14.370943     40.009427      6.187777
  Si     16.882182     26.053505      7.858787
  O      15.561895     25.231502      8.366089
  O      18.219211     25.341703      8.448376
  O      16.809772     26.044542      6.215741
  Si     16.906247     29.129972      7.766919
  Si     17.024956     35.379826      7.703595
  Si     19.651045     33.774158      7.828852
  Si     19.555362     30.679538      7.840956
  O      15.505823     29.917767      8.094265
  O      15.645940     34.543702      7.971452
  O      18.288728     34.548871      8.313848
  O      18.161497     29.980048      8.355180
  O      16.808880     27.614773      8.358468
  O      19.647803     32.225277      8.358301
  O      17.107413     28.960497      6.146518
  O      17.313715     35.495057      6.091373
  O      19.614049     33.692137      6.186246
  O      19.482815     30.709423      6.196331
  Si     16.961820     38.444667      7.822462
  O      15.675698     39.300785      8.344748
  O      18.392371     39.015769      8.348914
  O      16.892260     36.880356      8.318829
  O      16.888336     38.407655      6.176436
  O      20.761405     29.740907      8.392857
  O      21.005615     34.469301      8.400839
  H       4.074657     24.986772      8.036591
  H       1.410409     29.602015      8.036749
  H       1.410409     35.007985      8.036749
  H       4.074657     39.623228      8.036591
  H       8.948181     22.173255      8.038302
  H       8.948181     42.436745      8.038302
  H      14.277762     22.173204      8.038282
  H      14.277762     42.436796      8.038282
  H      18.960557     24.876228      8.036406
  H      18.960557     39.733772      8.036406
  H      21.624717     29.491420      8.036583
  H      21.624717     35.118580      8.036583
  H      13.241399     34.108673      5.711753
  H      10.823320     34.682125      5.685572
  H       8.972760     32.874606      5.700210
  H       9.784138     30.414280      5.713570
  H      12.314783     29.863579      5.740011
  H      14.010588     31.746620      5.742280
  H      13.527827     39.740238      5.790214
  H      10.853082     39.228901      5.722561
  H       8.104029     39.598860      5.833843
  H       6.195560     37.672198      5.815214
  H       5.298232     35.079954      5.763459
  H       3.543828     32.953974      5.835178
  H       4.148667     30.289011      5.824192
  H       5.995787     28.247203      5.782202
  H       6.930869     25.691244      5.838625
  H       9.600271     24.931644      5.811678
  H      12.299528     25.511907      5.763404
  H      14.989659     25.055045      5.833766
  H      16.977649     26.913847      5.822124
  H      17.799679     29.531804      5.782223
  H      19.548018     31.604914      5.832446
  H      18.956765     34.281795      5.787279
  H      17.153133     36.380425      5.732694
  H      16.133144     38.899105      5.820820
  P       9.129881     36.933897     11.397863
  O      12.717265     37.337682     13.254305
  O      14.648175     39.475986     12.710493
  O      15.545386     37.499015     11.238999
  O      10.178366     37.846643     12.295457
  O      14.993071     34.684936     11.157885
  O       8.730048     35.821286     12.288169
  O       9.788925     36.688227     10.080758
  O       7.891184     37.941646     11.194743
  N      12.999105     35.367490     12.032932
  N      13.183562     33.342367     10.928752
  N      11.365281     32.039069     10.383690
  C      13.705732     38.908365     11.841996
  C      14.157580     37.515002     11.388504
  C      12.432309     38.589943     12.599462
  C      13.640534     36.622045     12.537358
  C      11.238227     38.500074     11.663461
  C      11.681364     35.135375     12.192478
  C      13.812890     34.489938     11.365744
  C      11.064225     34.035723     11.682537
  C      11.847390     33.119206     10.984764
  H      13.511462     39.557494     10.980334
  H      13.651104     37.248267     10.453581
  H      12.248832     39.300553     13.405031
  H      14.469965     36.298398     13.173462
  H      11.499896     37.961105     10.745290
  H      10.964062     39.523487     11.372145
  H      15.517000     39.205032     12.389559
  H      15.804358     36.588077     11.049797
  H      11.122644     35.891470     12.732359
  H       9.985960     33.978548     11.768229
  H      10.367626     31.946294     10.292399
  H      11.933506     31.448271      9.796321
  H       7.911295     38.294596     10.299581
  H      13.770882     32.749389     10.352979
161
Coordinates from ORCA-job /data/Seafile/cmp/protonated/frames/frame11/dry/cmp_prot11 E -13392.452411563998
  Si      3.528497     33.916685      7.826326
  Si      3.462091     30.817605      7.861328
  O       2.312018     34.859084      8.352796
  O       2.169619     30.028988      8.456825
  O       3.429787     32.371563      8.361130
  O       3.591637     33.855060      6.181658
  O       3.483038     30.871522      6.216951
  Si      6.150206     26.159771      7.857600
  Si      8.811030     24.564280      7.849407
  O       4.768361     25.529484      8.433418
  O       7.466381     25.334953      8.368386
  O       8.776925     23.044095      8.427078
  O       6.191675     26.192037      6.211513
  O       8.771753     24.622676      6.206562
  Si      6.101304     29.233352      7.765027
  Si      6.177424     35.483956      7.761704
  Si      8.909852     33.877154      7.683233
  Si      8.857376     30.803732      7.688479
  O       4.841416     30.076680      8.356585
  O       4.913021     34.624754      8.329868
  O       7.572279     34.694212      8.073314
  O       7.487297     30.040143      8.082700
  O       6.212448     27.719137      8.357007
  O       8.844689     32.332093      8.268958
  O       5.844079     29.132826      6.145682
  O       5.984227     35.651777      6.134901
  O       9.067760     33.773133      6.047890
  O       9.025761     30.909481      6.061476
  Si      6.229664     38.565737      7.834882
  Si      8.943940     40.057327      7.828301
  O       4.966865     39.439099      8.367950
  O       7.590212     39.312929      8.377841
  O       6.215742     37.007536      8.335748
  O       9.103588     41.563064      8.418990
  O       6.336790     38.554569      6.192701
  O       8.901072     40.027245      6.184392
  Si     11.504848     26.068997      7.757417
  Si     14.175067     24.550985      7.828007
  O      10.150859     25.378802      8.342604
  O      12.869853     25.399038      8.342051
  O      13.955040     23.028403      8.353529
  O      11.460467     25.825190      6.134853
  O      14.184675     24.646384      6.185003
  Si     11.505051     29.244290      7.706363
  Si     11.595573     35.366270      7.636350
  Si     14.238980     33.822830      7.643607
  Si     14.178949     30.754755      7.702725
  O      10.160937     29.984786      8.277878
  O      10.277770     34.596379      8.193387
  O      12.970640     34.664571      8.229005
  O      12.841012     30.007136      8.311572
  O      11.496302     27.673037      8.095392
  O      14.250591     32.291876      8.290240
  O      11.500276     29.453382      6.082903
  O      11.651715     35.067923      6.011914
  O      14.021190     33.614637      6.032285
  O      13.971971     30.832069      6.081964
  Si     11.628035     38.559809      7.686684
  Si     14.315884     40.049337      7.830433
  O      10.282051     39.237701      8.283189
  O      12.992034     39.215015      8.315672
  O      11.690537     36.951119      7.903522
  O      14.293280     41.557068      8.440784
  O      11.694005     38.906751      6.077187
  O      14.372219     40.009441      6.187832
  Si     16.881718     26.052928      7.858425
  O      15.561677     25.229995      8.365464
  O      18.220087     25.343632      8.447886
  O      16.808479     26.043838      6.215418
  Si     16.904968     29.129348      7.766230
  Si     17.024980     35.378272      7.703522
  Si     19.651533     33.772357      7.827433
  Si     19.554039     30.677576      7.838634
  O      15.504145     29.915923      8.093622
  O      15.646718     34.540728      7.970316
  O      18.289798     34.547713      8.312650
  O      18.159448     29.980595      8.354281
  O      16.807863     27.614107      8.357762
  O      19.648843     32.223111      8.356564
  O      17.106139     28.959755      6.145892
  O      17.312878     35.493619      6.091279
  O      19.612737     33.690485      6.184892
  O      19.480970     30.709471      6.194175
  Si     16.962782     38.442647      7.821145
  O      15.677262     39.299647      8.343646
  O      18.395085     39.011670      8.344591
  O      16.892343     36.878812      8.318983
  O      16.887943     38.405449      6.175316
  O      20.756285     29.731922      8.386825
  O      21.007144     34.466180      8.398107
  H       4.074657     24.986772      8.036591
  H       1.410409     29.602015      8.036749
  H       1.410409     35.007985      8.036749
  H       4.074657     39.623228      8.036591
  H       8.948181     22.173255      8.038302
  H       8.948181     42.436745      8.038302
  H      14.277762     22.173204      8.038282
  H      14.277762     42.436796      8.038282
  H      18.960557     24.876228      8.036406
  H      18.960557     39.733772      8.036406
  H      21.624717     29.491420      8.036583
  H      21.624717     35.118580      8.036583
  H      13.240701     34.106746      5.710013
  H      10.823573     34.680576      5.684352
  H       8.973900     32.873260      5.701964
  H       9.784370     30.414797      5.715081
  H      12.312478     29.862825      5.741105
  H      14.009867     31.745092      5.741201
  H      13.528392     39.743007      5.789828
  H      10.854936     39.230697      5.721241
  H       8.106758     39.596610      5.833939
  H       6.196464     37.673237      5.814042
  H       5.300361     35.078510      5.762685
  H       3.546935     32.952501      5.835016
  H       4.149593     30.288761      5.824511
  H       5.996859     28.249009      5.782464
  H       6.932862     25.693564      5.839410
  H       9.600091     24.932248      5.812274
  H      12.298863     25.514088      5.764622
  H      14.988235     25.058044      5.834272
  H      16.977704     26.912770      5.821496
  H      17.798131     29.531050      5.781049
  H      19.543230     31.605797      5.831648
  H      18.955326     34.280746      5.786921
  H      17.152404     36.378719      5.731931
  H      16.131977     38.896334      5.820454
  P       9.143138     36.928870     11.399803
  O      12.728652     37.338051     13.257592
  O      14.658359     39.475197     12.714561
  O      15.557213     37.498666     11.244108
  O      10.190319     37.840796     12.299683
  O      15.003583     34.683280     11.164210
  O       8.736786     35.818331     12.290269
  O       9.806111     36.676901     10.086044
  O       7.908684     37.939728     11.189626
  N      13.008084     35.367664     12.034239
  N      13.193370     33.341342     10.932424
  N      11.374110     32.041489     10.381846
  C      13.716516     38.907867     11.845339
  C      14.169094     37.514296     11.392171
  C      12.442146     38.589548     12.601568
  C      13.650555     36.620984     12.539850
  C      11.247420     38.498701     11.666610
  C      11.690108     35.135667     12.192716
  C      13.822481     34.489618     11.368618
  C      11.073172     34.036767     11.681653
  C      11.856769     33.119705     10.984654
  H      13.523450     39.557021     10.983558
  H      13.664807     37.247088     10.456124
  H      12.258334     39.300892     13.406476
  H      14.478901     36.296297     13.176881
  H      11.508429     37.965757     10.745119
  H      10.969547     39.522790     11.380728
  H      15.527179     39.200926     12.396108
  H      15.817521     36.586625     11.061274
  H      11.131943     35.891681     12.733023
  H       9.994880     33.979614     11.765888
  H      10.376276     31.946053     10.295461
  H      11.942452     31.444885      9.800326
  H       7.928979     38.290350     10.293519
  H      13.781086     32.746880     10.358501
161
Coordinates from ORCA-job /data/Seafile/cmp/protonated/frames/frame11/dry/cmp_prot11 E -13392.452433127150
  Si      3.528835     33.917283      7.825867
  Si      3.461904     30.817952      7.861731
  O       2.313290     34.862104      8.350494
  O       2.169280     30.029456      8.456782
  O       3.429581     32.372273      8.360942
  O       3.592538     33.854382      6.181291
  O       3.483826     30.871328      6.217364
  Si      6.149631     26.160563      7.857654
  Si      8.810546     24.564515      7.850182
  O       4.765717     25.533597      8.432309
  O       7.465287     25.334714      8.368526
  O       8.777508     23.044122      8.427134
  O       6.192058     26.192593      6.211643
  O       8.771490     24.623902      6.207344
  Si      6.101468     29.234216      7.766322
  Si      6.177692     35.484646      7.761909
  Si      8.910328     33.878621      7.682453
  Si      8.856894     30.805360      7.689660
  O       4.840878     30.076908      8.357438
  O       4.913719     34.624720      8.329805
  O       7.573725     34.697385      8.073928
  O       7.486553     30.042159      8.084169
  O       6.213680     27.719766      8.357344
  O       8.844321     32.334154      8.268606
  O       5.844701     29.133818      6.146926
  O       5.984195     35.651829      6.135196
  O       9.067088     33.773099      6.047334
  O       9.025756     30.910570      6.062783
  Si      6.230125     38.567036      7.834945
  Si      8.945927     40.057479      7.827918
  O       4.967893     39.441821      8.366339
  O       7.591533     39.312979      8.377467
  O       6.215036     37.008834      8.334686
  O       9.111057     41.563364      8.416476
  O       6.337614     38.555675      6.192410
  O       8.900954     40.028102      6.184070
  Si     11.504110     26.069971      7.759390
  Si     14.173903     24.550917      7.827897
  O      10.149956     25.379408      8.343859
  O      12.869460     25.399716      8.343109
  O      13.951989     23.027880      8.351839
  O      11.459683     25.826474      6.136771
  O      14.183571     24.647440      6.184964
  Si     11.503461     29.245057      7.707816
  Si     11.596914     35.366279      7.633757
  Si     14.239549     33.821519      7.640203
  Si     14.177893     30.753851      7.700932
  O      10.160083     29.986672      8.279727
  O      10.278456     34.597965      8.191746
  O      12.971554     34.663392      8.225303
  O      12.840561     30.006619      8.310785
  O      11.495386     27.673868      8.097806
  O      14.249987     32.290947      8.287502
  O      11.497029     29.453655      6.084377
  O      11.651911     35.066356      6.009480
  O      14.021614     33.614035      6.028996
  O      13.969899     30.830812      6.080358
  Si     11.629471     38.560061      7.685485
  Si     14.316939     40.049415      7.830432
  O      10.282086     39.235088      8.282824
  O      12.992787     39.215611      8.315249
  O      11.693645     36.951318      7.900119
  O      14.295118     41.557162      8.440775
  O      11.695473     38.910739      6.076814
  O      14.372642     40.009829      6.187842
  Si     16.881370     26.052257      7.857995
  O      15.561160     25.229216      8.364785
  O      18.220671     25.344712      8.447592
  O      16.807580     26.042783      6.214958
  Si     16.903901     29.128651      7.765002
  Si     17.025533     35.377264      7.702169
  Si     19.652384     33.770942      7.825614
  Si     19.553155     30.675799      7.836375
  O      15.502736     29.914372      8.092104
  O      15.647742     34.538650      7.967912
  O      18.290844     34.546722      8.310648
  O      18.157839     29.980842      8.352849
  O      16.807161     27.613447      8.356823
  O      19.649453     32.221328      8.354299
  O      17.105582     28.958567      6.144764
  O      17.313280     35.493243      6.089902
  O      19.612749     33.689403      6.183050
  O      19.479794     30.708918      6.191895
  Si     16.963661     38.441450      7.819863
  O      15.677871     39.298156      8.342347
  O      18.396689     39.009527      8.342302
  O      16.893289     36.877707      8.317564
  O      16.887990     38.404519      6.174073
  O      20.752730     29.725255      8.382326
  O      21.008640     34.463647      8.395875
  H       4.074657     24.986772      8.036591
  H       1.410409     29.602015      8.036749
  H       1.410409     35.007985      8.036749
  H       4.074657     39.623228      8.036591
  H       8.948181     22.173255      8.038302
  H       8.948181     42.436745      8.038302
  H      14.277762     22.173204      8.038282
  H      14.277762     42.436796      8.038282
  H      18.960557     24.876228      8.036406
  H      18.960557     39.733772      8.036406
  H      21.624717     29.491420      8.036583
  H      21.624717     35.118580      8.036583
  H      13.240719     34.105495      5.706617
  H      10.822740     34.680818      5.682425
  H       8.972471     32.872664      5.702869
  H       9.782858     30.413489      5.716464
  H      12.309866     29.860954      5.741692
  H      14.009327     31.743444      5.738896
  H      13.528325     39.744575      5.790050
  H      10.855952     39.232886      5.720510
  H       8.106641     39.596233      5.835147
  H       6.197726     37.674464      5.813643
  H       5.300797     35.078139      5.762978
  H       3.548163     32.951573      5.835391
  H       4.150959     30.288739      5.825678
  H       5.996988     28.250058      5.783528
  H       6.933712     25.694335      5.840227
  H       9.600052     24.933364      5.813514
  H      12.297910     25.515429      5.766250
  H      14.987439     25.058844      5.834710
  H      16.977580     26.911437      5.820921
  H      17.797809     29.529392      5.779790
  H      19.541306     31.605574      5.830163
  H      18.954807     34.279821      5.786197
  H      17.153551     36.378474      5.730675
  H      16.131708     38.895514      5.820094
  P       9.157591     36.934165     11.404261
  O      12.742576     37.341623     13.261654
  O      14.673240     39.478564     12.717686
  O      15.569535     37.502860     11.245259
  O      10.204229     37.843502     12.307239
  O      15.016276     34.686991     11.166410
  O       8.746351     35.825252     12.294436
  O       9.824570     36.679505     10.093153
  O       7.927345     37.949695     11.188979
  N      13.021422     35.371611     12.037814
  N      13.205821     33.344877     10.936537
  N      11.384873     32.049371     10.380085
  C      13.729599     38.911978     11.849736
  C      14.181446     37.518654     11.395306
  C      12.455967     38.593512     12.607081
  C      13.664213     36.624719     12.543011
  C      11.259336     38.503725     11.674088
  C      11.703760     35.138858     12.198353
  C      13.835606     34.493224     11.372841
  C      11.086306     34.040709     11.686448
  C      11.868984     33.124496     10.987131
  H      13.536079     39.561586     10.988270
  H      13.676127     37.251183     10.459837
  H      12.274789     39.305339     13.412166
  H      14.492582     36.300639     13.180300
  H      11.518847     37.975218     10.749834
  H      10.980586     39.528685     11.391553
  H      15.540754     39.200001     12.399271
  H      15.829206     36.590352     11.063789
  H      11.146241     35.894773     12.739826
  H      10.008159     33.983379     11.772261
  H      10.386945     31.954173     10.295412
  H      11.952592     31.450384      9.800451
  H       7.946486     38.294521     10.290505
  H      13.792690     32.751265     10.360916
161
Coordinates from ORCA-job /data/Seafile/cmp/protonated/frames/frame11/dry/cmp_prot11 E -13392.452481953203
  Si      3.529343     33.918062      7.825012
  Si      3.461665     30.818499      7.862031
  O       2.314556     34.864848      8.348432
  O       2.168726     30.030495      8.456885
  O       3.429535     32.373240      8.360737
  O       3.593722     33.854199      6.180489
  O       3.484574     30.871604      6.217683
  Si      6.148979     26.161602      7.857314
  Si      8.809866     24.564789      7.850458
  O       4.762850     25.538349      8.430979
  O       7.463854     25.334294      8.368372
  O       8.777844     23.044246      8.427136
  O       6.192425     26.193708      6.211348
  O       8.770908     24.625166      6.207624
  Si      6.101521     29.235251      7.767509
  Si      6.178113     35.485735      7.761464
  Si      8.911004     33.880548      7.681620
  Si      8.856081     30.807252      7.690667
  O       4.840188     30.077187      8.358430
  O       4.914637     34.624988      8.329491
  O       7.575304     34.701064      8.074467
  O       7.485615     30.044394      8.085752
  O       6.215026     27.720600      8.357641
  O       8.843504     32.336627      8.268330
  O       5.845004     29.135023      6.148045
  O       5.984401     35.652501      6.134812
  O       9.067111     33.774300      6.046781
  O       9.024766     30.912272      6.063992
  Si      6.230888     38.568700      7.834233
  Si      8.947855     40.057588      7.826531
  O       4.969173     39.444874      8.364551
  O       7.592442     39.313921      8.376710
  O       6.214452     37.010459      8.333535
  O       9.119634     41.563486      8.413285
  O       6.338497     38.557189      6.191260
  O       8.900522     40.029026      6.182621
  Si     11.503128     26.071184      7.760654
  Si     14.172469     24.550963      7.827180
  O      10.148834     25.380224      8.344742
  O      12.868802     25.400593      8.343581
  O      13.948964     23.027496      8.350082
  O      11.458635     25.827851      6.137933
  O      14.181967     24.648904      6.184320
  Si     11.501633     29.246121      7.708831
  Si     11.598761     35.366237      7.631477
  Si     14.240661     33.820228      7.636507
  Si     14.176994     30.752859      7.698566
  O      10.159043     29.988896      8.281414
  O      10.279454     34.599603      8.190716
  O      12.973120     34.662095      8.221986
  O      12.839828     30.006648      8.309715
  O      11.494074     27.674932      8.099866
  O      14.250296     32.290001      8.284462
  O      11.493287     29.454034      6.085233
  O      11.652885     35.064454      6.007573
  O      14.022840     33.613347      6.025364
  O      13.967927     30.829353      6.078259
  Si     11.630907     38.560234      7.684144
  Si     14.317906     40.049535      7.830062
  O      10.281979     39.232560      8.281645
  O      12.993423     39.216300      8.314873
  O      11.697151     36.951426      7.896560
  O      14.297579     41.557155      8.440873
  O      11.696832     38.914801      6.076331
  O      14.373318     40.010161      6.187465
  Si     16.880815     26.051319      7.857341
  O      15.560397     25.228253      8.363866
  O      18.220827     25.345311      8.447345
  O      16.806519     26.041403      6.214278
  Si     16.902767     29.127569      7.763664
  Si     17.026681     35.376178      7.700281
  Si     19.653572     33.769212      7.823482
  Si     19.552079     30.673785      7.833920
  O      15.501349     29.912669      8.090342
  O      15.649320     34.536549      7.965187
  O      18.292147     34.545448      8.308555
  O      18.156149     29.980755      8.351527
  O      16.806220     27.612485      8.356013
  O      19.650380     32.219304      8.351924
  O      17.105188     28.956776      6.143567
  O      17.314689     35.492979      6.088018
  O      19.613253     33.687689      6.180881
  O      19.477693     30.708007      6.189417
  Si     16.964518     38.440258      7.818452
  O      15.678332     39.296496      8.340998
  O      18.397939     39.007762      8.340646
  O      16.894756     36.876445      8.315712
  O      16.887854     38.403187      6.172665
  O      20.749153     29.718641      8.377826
  O      21.010493     34.460620      8.393602
  H       4.074657     24.986772      8.036591
  H       1.410409     29.602015      8.036749
  H       1.410409     35.007985      8.036749
  H       4.074657     39.623228      8.036591
  H       8.948181     22.173255      8.038302
  H       8.948181     42.436745      8.038302
  H      14.277762     22.173204      8.038282
  H      14.277762     42.436796      8.038282
  H      18.960557     24.876228      8.036406
  H      18.960557     39.733772      8.036406
  H      21.624717     29.491420      8.036583
  H      21.624717     35.118580      8.036583
  H      13.241067     34.103803      5.703339
  H      10.823196     34.679613      5.680876
  H       8.972128     32.873442      5.703232
  H       9.781101     30.413790      5.717746
  H      12.306449     29.859981      5.741663
  H      14.008738     31.741707      5.736279
  H      13.528369     39.745878      5.790125
  H      10.856886     39.235482      5.719690
  H       8.106291     39.595806      5.834936
  H       6.198954     37.676018      5.812321
  H       5.301330     35.078499      5.762423
  H       3.549531     32.951136      5.835121
  H       4.152285     30.289008      5.826796
  H       5.997086     28.251270      5.784468
  H       6.934551     25.695620      5.840518
  H       9.599738     24.934789      5.814341
  H      12.296814     25.516894      5.767140
  H      14.986460     25.059583      5.834521
  H      16.977266     26.909919      5.820180
  H      17.797348     29.527600      5.778375
  H      19.538922     31.604900      5.828155
  H      18.955127     34.278622      5.784908
  H      17.155093     36.378406      5.729065
  H      16.131344     38.894471      5.819441
  P       9.175905     36.940725     11.408945
  O      12.758104     37.341560     13.265080
  O      14.695531     39.474864     12.723505
  O      15.585753     37.499404     11.248963
  O      10.222916     37.847808     12.313439
  O      15.025671     34.684717     11.163961
  O       8.760264     35.834927     12.300656
  O       9.845096     36.682466     10.099736
  O       7.948681     37.960016     11.188781
  N      13.033278     35.372018     12.039042
  N      13.212918     33.345410     10.936391
  N      11.388754     32.053983     10.380029
  C      13.749120     38.911591     11.855794
  C      14.197552     37.518033     11.399075
  C      12.475539     38.595326     12.613813
  C      13.678683     36.623237     12.545589
  C      11.277168     38.510377     11.682004
  C      11.715784     35.140042     12.202859
  C      13.844813     34.493438     11.371417
  C      11.096016     34.043271     11.690906
  C      11.875906     33.126791     10.988616
  H      13.556579     39.563049     10.995275
  H      13.691186     37.252494     10.463689
  H      12.298839     39.307334     13.419771
  H      14.505970     36.297215     13.183229
  H      11.535414     37.986337     10.754967
  H      10.999682     39.536894     11.403515
  H      15.561352     39.190858     12.405085
  H      15.842621     36.586557     11.065436
  H      11.160102     35.896025     12.746144
  H      10.018197     33.986569     11.780805
  H      10.390474     31.960712     10.296735
  H      11.954594     31.452610      9.801125
  H       7.966993     38.298560     10.287712
  H      13.797723     32.751753     10.358658
161
Coordinates from ORCA-job /data/Seafile/cmp/protonated/frames/frame11/dry/cmp_prot11 E -13392.452505650415
  Si      3.529989     33.918999      7.824206
  Si      3.461372     30.819304      7.862347
  O       2.315639     34.867245      8.346617
  O       2.167867     30.032034      8.456989
  O       3.429419     32.374400      8.360702
  O       3.595251     33.854438      6.179709
  O       3.485322     30.872400      6.217998
  Si      6.148261     26.162879      7.856973
  Si      8.808878     24.565075      7.850616
  O       4.759751     25.543448      8.429386
  O       7.461971     25.333576      8.368299
  O       8.777769     23.044316      8.427030
  O       6.192876     26.195311      6.211017
  O       8.770184     24.626551      6.207763
  Si      6.101481     29.236462      7.768885
  Si      6.178625     35.487117      7.761031
  Si      8.911553     33.882435      7.681962
  Si      8.855394     30.809008      7.692661
  O       4.839417     30.077642      8.359652
  O       4.915491     34.625735      8.329383
  O       7.576720     34.704640      8.075644
  O       7.484746     30.046555      8.087994
  O       6.216136     27.721619      8.358274
  O       8.842734     32.338940      8.269505
  O       5.845338     29.136539      6.149250
  O       5.985210     35.653198      6.134281
  O       9.067105     33.775637      6.047287
  O       9.023881     30.913976      6.066143
  Si      6.231917     38.570528      7.832960
  Si      8.949571     40.057752      7.824072
  O       4.970658     39.448234      8.362451
  O       7.593066     39.315870      8.375337
  O       6.214178     37.012292      8.332688
  O       9.128582     41.563538      8.409342
  O       6.339594     38.558341      6.189637
  O       8.900177     40.029640      6.180035
  Si     11.501997     26.072133      7.761963
  Si     14.171038     24.551100      7.826725
  O      10.147460     25.380937      8.345731
  O      12.867880     25.401111      8.344319
  O      13.946219     23.027120      8.348432
  O      11.457529     25.829355      6.139046
  O      14.180131     24.650922      6.183948
  Si     11.500134     29.246988      7.710855
  Si     11.600484     35.366092      7.630457
  Si     14.242006     33.819334      7.634802
  Si     14.176474     30.752032      7.698219
  O      10.158104     29.990590      8.284028
  O      10.280207     34.601437      8.190933
  O      12.974758     34.661201      8.220709
  O      12.838991     30.007118      8.310581
  O      11.492741     27.675718      8.102465
  O      14.251450     32.289386      8.283572
  O      11.490497     29.454349      6.086971
  O      11.653863     35.061760      6.007084
  O      14.024371     33.612357      6.023753
  O      13.966519     30.828001      6.078153
  Si     11.632148     38.560362      7.682828
  Si     14.318810     40.049702      7.829508
  O      10.281656     39.230234      8.279782
  O      12.993878     39.217123      8.314598
  O      11.700477     36.951450      7.892887
  O      14.300627     41.557172      8.440939
  O      11.697990     38.918030      6.075654
  O      14.374444     40.010394      6.186869
  Si     16.880139     26.050324      7.857395
  O      15.559700     25.226946      8.363608
  O      18.220741     25.345284      8.447360
  O      16.805226     26.040464      6.214303
  Si     16.901825     29.126340      7.763880
  Si     17.028249     35.375068      7.699202
  Si     19.654867     33.767382      7.822043
  Si     19.550953     30.671916      7.832333
  O      15.500253     29.911098      8.090421
  O      15.651194     34.534708      7.963749
  O      18.293687     34.544138      8.307579
  O      18.154798     29.980424      8.351660
  O      16.805321     27.611343      8.356608
  O      19.651924     32.217332      8.350519
  O      17.104592     28.955055      6.143852
  O      17.316608     35.492410      6.086926
  O      19.613471     33.685530      6.179392
  O      19.474540     30.707249      6.187857
  Si     16.965204     38.439183      7.817689
  O      15.678695     39.295087      8.340193
  O      18.398894     39.006558      8.339685
  O      16.896440     36.875206      8.314655
  O      16.887538     38.401489      6.171867
  O      20.745939     29.712478      8.373723
  O      21.012690     34.457470      8.391598
  H       4.074657     24.986772      8.036591
  H       1.410409     29.602015      8.036749
  H       1.410409     35.007985      8.036749
  H       4.074657     39.623228      8.036591
  H       8.948181     22.173255      8.038302
  H       8.948181     42.436745      8.038302
  H      14.277762     22.173204      8.038282
  H      14.277762     42.436796      8.038282
  H      18.960557     24.876228      8.036406
  H      18.960557     39.733772      8.036406
  H      21.624717     29.491420      8.036583
  H      21.624717     35.118580      8.036583
  H      13.242078     34.102541      5.702378
  H      10.823584     34.677743      5.680825
  H       8.971532     32.874539      5.704426
  H       9.779913     30.414732      5.720171
  H      12.303829     29.859456      5.742834
  H      14.008670     31.740124      5.735803
  H      13.528862     39.747173      5.789987
  H      10.857810     39.237823      5.718749
  H       8.106396     39.594718      5.833244
  H       6.200004     37.677055      5.810992
  H       5.302398     35.078995      5.761704
  H       3.551414     32.951147      5.834795
  H       4.153412     30.289568      5.827929
  H       5.997652     28.252865      5.785519
  H       6.935657     25.697674      5.840795
  H       9.599398     24.936187      5.815184
  H      12.295792     25.518761      5.768068
  H      14.985188     25.061030      5.834653
  H      16.976868     26.908946      5.820424
  H      17.796165     29.526482      5.778367
  H      19.535489     31.604356      5.826998
  H      18.955734     34.277402      5.784055
  H      17.156392     36.377903      5.728273
  H      16.131028     38.893192      5.819112
  P       9.196404     36.948956     11.414284
  O      12.774672     37.342618     13.269737
  O      14.719991     39.471634     12.729905
  O      15.603580     37.495132     11.254388
  O      10.242626     37.856481     12.318827
  O      15.034906     34.683660     11.161815
  O       8.777514     35.847124     12.308942
  O       9.868264     36.686643     10.107170
  O       7.970541     37.969653     11.188091
  N      13.045973     35.373148     12.042961
  N      13.219586     33.347768     10.936749
  N      11.391955     32.060356     10.382097
  C      13.770937     38.911589     11.862521
  C      14.215298     37.517424     11.404162
  C      12.497226     38.598395     12.621372
  C      13.694240     36.622707     12.550066
  C      11.297900     38.518977     11.689732
  C      11.728467     35.142945     12.209567
  C      13.854520     34.493721     11.372965
  C      11.105870     34.047477     11.698070
  C      11.882394     33.131057     10.992016
  H      13.579409     39.564710     11.002946
  H      13.707633     37.254185     10.468931
  H      12.324675     39.310310     13.428328
  H      14.520669     36.294520     13.187691
  H      11.555730     37.995943     10.761861
  H      11.023211     39.546638     11.412772
  H      15.584351     39.183102     12.411498
  H      15.857237     36.582218     11.066941
  H      11.174784     35.899428     12.754141
  H      10.028266     33.992393     11.791224
  H      10.393379     31.969519     10.299542
  H      11.955783     31.458173      9.802045
  H       7.989008     38.301950     10.284651
  H      13.801915     32.754562     10.356033
161
Coordinates from ORCA-job /data/Seafile/cmp/protonated/frames/frame11/dry/cmp_prot11 E -13392.452525675679
  Si      3.530650     33.920032      7.823062
  Si      3.461056     30.820334      7.862115
  O       2.316570     34.869134      8.344974
  O       2.166906     30.034036      8.456844
  O       3.429439     32.375663      8.360255
  O       3.596316     33.855009      6.178569
  O       3.485503     30.873531      6.217731
  Si      6.147507     26.164344      7.856029
  Si      8.807582     24.565298      7.850093
  O       4.756611     25.548888      8.427274
  O       7.459807     25.332754      8.367605
  O       8.777241     23.044452      8.426599
  O       6.193084     26.196806      6.210047
  O       8.769149     24.627427      6.207193
  Si      6.101417     29.237837      7.769058
  Si      6.179073     35.488684      7.759390
  Si      8.911819     33.884056      7.680731
  Si      8.855106     30.810394      7.693128
  O       4.838816     30.078308      8.359957
  O       4.916308     34.626869      8.328445
  O       7.577879     34.707715      8.075248
  O       7.484192     30.048619      8.088837
  O       6.217165     27.722899      8.358047
  O       8.842568     32.340869      8.269362
  O       5.845258     29.138139      6.149276
  O       5.985745     35.654116      6.132553
  O       9.066271     33.776851      6.046007
  O       9.023182     30.915049      6.066602
  Si      6.233010     38.572433      7.830756
  Si      8.951106     40.058066      7.820044
  O       4.972226     39.451477      8.360066
  O       7.593672     39.318389      8.372507
  O       6.214432     37.014092      8.331083
  O       9.137617     41.563414      8.404578
  O       6.340459     38.559387      6.187236
  O       8.899676     40.030569      6.175931
  Si     11.500758     26.072472      7.761916
  Si     14.169800     24.551203      7.826002
  O      10.145929     25.381499      8.345701
  O      12.866720     25.401182      8.344154
  O      13.944019     23.026882      8.346841
  O      11.456317     25.829956      6.138867
  O      14.178563     24.652514      6.183277
  Si     11.499197     29.247275      7.711263
  Si     11.601807     35.365963      7.627667
  Si     14.243310     33.818739      7.632427
  Si     14.176380     30.751282      7.697327
  O      10.157613     29.991593      8.284849
  O      10.280438     34.603560      8.189219
  O      12.976008     34.660614      8.218329
  O      12.838353     30.007530      8.310464
  O      11.491482     27.675997      8.103388
  O      14.252816     32.289024      8.282205
  O      11.488855     29.453977      6.087019
  O      11.654822     35.058955      6.004820
  O      14.026241     33.610650      6.021471
  O      13.965842     30.826436      6.077390
  Si     11.633257     38.560503      7.679899
  Si     14.319732     40.049874      7.828265
  O      10.281193     39.227875      8.275983
  O      12.994158     39.217863      8.313108
  O      11.703372     36.951409      7.886824
  O      14.304119     41.557055      8.440723
  O      11.699336     38.920972      6.073232
  O      14.376306     40.011155      6.185568
  Si     16.879453     26.049382      7.857323
  O      15.559073     25.225654      8.363245
  O      18.220335     25.344825      8.447283
  O      16.804214     26.039543      6.214187
  Si     16.901298     29.125100      7.763799
  Si     17.029967     35.373947      7.697294
  Si     19.656092     33.765653      7.820584
  Si     19.549988     30.670369      7.830852
  O      15.499584     29.909824      8.089989
  O      15.652956     34.533204      7.961269
  O      18.295043     34.542791      8.306322
  O      18.153821     29.979938      8.351684
  O      16.804532     27.610312      8.357039
  O      19.653698     32.215597      8.349215
  O      17.104513     28.953246      6.143868
  O      17.319302     35.491752      6.085133
  O      19.613935     33.683381      6.177867
  O      19.471627     30.706685      6.186425
  Si     16.965746     38.438288      7.816912
  O      15.678887     39.293724      8.339301
  O      18.399421     39.005851      8.339174
  O      16.897978     36.873890      8.313054
  O      16.887721     38.400430      6.170979
  O      20.743198     29.707302      8.369983
  O      21.014731     34.454530      8.389751
  H       4.074657     24.986772      8.036591
  H       1.410409     29.602015      8.036749
  H       1.410409     35.007985      8.036749
  H       4.074657     39.623228      8.036591
  H       8.948181     22.173255      8.038302
  H       8.948181     42.436745      8.038302
  H      14.277762     22.173204      8.038282
  H      14.277762     42.436796      8.038282
  H      18.960557     24.876228      8.036406
  H      18.960557     39.733772      8.036406
  H      21.624717     29.491420      8.036583
  H      21.624717     35.118580      8.036583
  H      13.242828     34.099588      5.700723
  H      10.824191     34.675294      5.678930
  H       8.970428     32.875586      5.703581
  H       9.779160     30.415451      5.720866
  H      12.302197     29.858749      5.742497
  H      14.008285     31.738370      5.734580
  H      13.530487     39.748429      5.788728
  H      10.859213     39.240776      5.716201
  H       8.106429     39.593956      5.829882
  H       6.200667     37.677830      5.809234
  H       5.302604     35.080173      5.760110
  H       3.552584     32.951508      5.834064
  H       4.153808     30.290472      5.828216
  H       5.997660     28.254443      5.785545
  H       6.936532     25.699612      5.840461
  H       9.598722     24.937023      5.815216
  H      12.294738     25.519540      5.767978
  H      14.984079     25.062244      5.834454
  H      16.976560     26.908053      5.820539
  H      17.795612     29.525305      5.778289
  H      19.532655     31.603999      5.825962
  H      18.956764     34.276097      5.782738
  H      17.158444     36.377369      5.726926
  H      16.131683     38.893009      5.818358
  P       9.217963     36.957687     11.418316
  O      12.793272     37.342624     13.271925
  O      14.746178     39.466943     12.733913
  O      15.622638     37.489354     11.256990
  O      10.263109     37.867070     12.321751
  O      15.044760     34.681063     11.157079
  O       8.796065     35.860047     12.316416
  O       9.892431     36.690311     10.113431
  O       7.992983     37.978467     11.185400
  N      13.059271     35.373642     12.043507
  N      13.225972     33.350045     10.932802
  N      11.394917     32.065398     10.383161
  C      13.794702     38.910644     11.866649
  C      14.234438     37.515755     11.406319
  C      12.520672     38.600690     12.626318
  C      13.710998     36.621197     12.551446
  C      11.320751     38.527472     11.694571
  C      11.741744     35.145799     12.212860
  C      13.864165     34.493748     11.369587
  C      11.115833     34.051652     11.702253
  C      11.888651     33.135055     10.992640
  H      13.604232     39.565780     11.008409
  H      13.725583     37.255561     10.470971
  H      12.351548     39.311689     13.434807
  H      14.537049     36.289966     13.188007
  H      11.578084     38.003502     10.766887
  H      11.049505     39.556090     11.418284
  H      15.609453     39.175490     12.415236
  H      15.873069     36.576454     11.065232
  H      11.190638     35.902671     12.759372
  H      10.038370     33.998801     11.798093
  H      10.396055     31.976702     10.301611
  H      11.956651     31.463373      9.800994
  H       8.012367     38.304594     10.279784
  H      13.805800     32.756497     10.349888
161
Coordinates from ORCA-job /data/Seafile/cmp/protonated/frames/frame11/dry/cmp_prot11 E -13392.452532808651
  Si      3.531242     33.921003      7.822663
  Si      3.460800     30.821399      7.862080
  O       2.316985     34.870123      8.344287
  O       2.165738     30.036334      8.456732
  O       3.429640     32.376797      8.360240
  O       3.597346     33.855890      6.178190
  O       3.485621     30.874733      6.217654
  Si      6.146832     26.165827      7.855282
  Si      8.806203     24.565430      7.849648
  O       4.753701     25.553922      8.425168
  O       7.457637     25.331873      8.367015
  O       8.776210     23.044492      8.426153
  O       6.193288     26.198507      6.209283
  O       8.768190     24.628046      6.206711
  Si      6.101472     29.239234      7.769403
  Si      6.179437     35.490096      7.758395
  Si      8.911889     33.885202      7.680435
  Si      8.855257     30.811419      7.694203
  O       4.838302     30.078938      8.360355
  O       4.916798     34.628287      8.328124
  O       7.578607     34.709859      8.075433
  O       7.483961     30.050425      8.090119
  O       6.217973     27.724160      8.358037
  O       8.843098     32.342250      8.270238
  O       5.845593     29.140041      6.149421
  O       5.986473     35.654576      6.131444
  O       9.065101     33.777535      6.045541
  O       9.022891     30.915801      6.067541
  Si      6.233908     38.574022      7.828697
  Si      8.952362     40.058487      7.815693
  O       4.973511     39.454122      8.358063
  O       7.594218     39.321026      8.369182
  O       6.215098     37.015650      8.330069
  O       9.145672     41.563256      8.399946
  O       6.340926     38.559477      6.185179
  O       8.899257     40.031523      6.171646
  Si     11.499525     26.072368      7.761889
  Si     14.168836     24.551286      7.825738
  O      10.144415     25.381741      8.345698
  O      12.865463     25.400766      8.344079
  O      13.942810     23.026748      8.345953
  O      11.455056     25.830352      6.138739
  O      14.177159     24.653680      6.183045
  Si     11.498777     29.247094      7.711879
  Si     11.602590     35.365756      7.625433
  Si     14.244206     33.818493      7.631242
  Si     14.176511     30.750747      7.697265
  O      10.157581     29.991960      8.285833
  O      10.280121     34.605907      8.188127
  O      12.976714     34.660349      8.216967
  O      12.838013     30.007763      8.310843
  O      11.490336     27.675844      8.104264
  O      14.253961     32.288858      8.281854
  O      11.488105     29.453177      6.087343
  O      11.655326     35.055555      6.003160
  O      14.027438     33.609243      6.020309
  O      13.965691     30.825296      6.077357
  Si     11.634252     38.560573      7.676732
  Si     14.320616     40.050048      7.827227
  O      10.280707     39.225745      8.271537
  O      12.994276     39.218635      8.311469
  O      11.705613     36.951332      7.880642
  O      14.307890     41.557005      8.440551
  O      11.701102     38.922658      6.070274
  O      14.378338     40.012188      6.184484
  Si     16.878843     26.048644      7.857435
  O      15.558543     25.224680      8.363244
  O      18.219658     25.343844      8.447252
  O      16.803489     26.038967      6.214267
  Si     16.901096     29.124109      7.763990
  Si     17.031420     35.372936      7.695814
  Si     19.657027     33.764317      7.819649
  Si     19.549278     30.669317      7.829999
  O      15.499341     29.909037      8.090067
  O      15.654229     34.532275      7.959427
  O      18.296089     34.541627      8.305577
  O      18.153350     29.979326      8.351994
  O      16.804041     27.609522      8.357640
  O      19.655339     32.214330      8.348446
  O      17.104438     28.951937      6.144110
  O      17.321630     35.490891      6.083780
  O      19.614237     33.681798      6.176890
  O      19.469202     30.706285      6.185646
  Si     16.966137     38.437665      7.816805
  O      15.678872     39.292430      8.339083
  O      18.399429     39.005971      8.339631
  O      16.899285     36.872745      8.311873
  O      16.888415     38.399918      6.170742
  O      20.741410     29.703920      8.367411
  O      21.016397     34.452242      8.388436
  H       4.074657     24.986772      8.036591
  H       1.410409     29.602015      8.036749
  H       1.410409     35.007985      8.036749
  H       4.074657     39.623228      8.036591
  H       8.948181     22.173255      8.038302
  H       8.948181     42.436745      8.038302
  H      14.277762     22.173204      8.038282
  H      14.277762     42.436796      8.038282
  H      18.960557     24.876228      8.036406
  H      18.960557     39.733772      8.036406
  H      21.624717     29.491420      8.036583
  H      21.624717     35.118580      8.036583
  H      13.243867     34.098274      5.699980
  H      10.824287     34.672474      5.677705
  H       8.969721     32.876155      5.703386
  H       9.779103     30.416510      5.721869
  H      12.301307     29.858058      5.742608
  H      14.008987     31.737077      5.734139
  H      13.532596     39.749633      5.787329
  H      10.861285     39.242829      5.712906
  H       8.106656     39.593201      5.826172
  H       6.200428     37.677519      5.808250
  H       5.302815     35.080968      5.759343
  H       3.553818     32.952250      5.833917
  H       4.154076     30.291543      5.828512
  H       5.998305     28.256412      5.785609
  H       6.937450     25.701959      5.840205
  H       9.598091     24.937524      5.815262
  H      12.293688     25.520176      5.768027
  H      14.982869     25.063322      5.834476
  H      16.976232     26.907557      5.820865
  H      17.795046     29.524714      5.778543
  H      19.530339     31.603758      5.825479
  H      18.957638     34.275170      5.781726
  H      17.159984     36.376562      5.725974
  H      16.133023     38.893306      5.817868
  P       9.238556     36.964794     11.421384
  O      12.811527     37.343646     13.273035
  O      14.770284     39.462820     12.735434
  O      15.640989     37.483229     11.258170
  O      10.282284     37.877422     12.322511
  O      15.054613     34.678404     11.154015
  O       8.813780     35.871305     12.323167
  O       9.915542     36.691146     10.118928
  O       8.014331     37.984759     11.181221
  N      13.072163     35.373970     12.044756
  N      13.232684     33.351682     10.930658
  N      11.398706     32.069227     10.385757
  C      13.817424     38.909466     11.868018
  C      14.252953     37.513413     11.407194
  C      12.542542     38.602979     12.627868
  C      13.727147     36.620192     12.552336
  C      11.342768     38.533867     11.695672
  C      11.754572     35.148594     12.216073
  C      13.874081     34.492783     11.368657
  C      11.125634     34.055396     11.706720
  C      11.895183     33.138450     10.994347
  H      13.628502     39.565832     11.010448
  H      13.743383     37.255304     10.471685
  H      12.375063     39.313545     13.437078
  H      14.553096     36.286591     13.187847
  H      11.599581     38.007167     10.769252
  H      11.074527     39.562911     11.418637
  H      15.633113     39.169965     12.416956
  H      15.888953     36.570334     11.063300
  H      11.205891     35.905998     12.764108
  H      10.048181     34.004988     11.803867
  H      10.399617     31.982403     10.304753
  H      11.958794     31.468273      9.800819
  H       8.035459     38.305507     10.273860
  H      13.810451     32.757533     10.346277
161
Coordinates from ORCA-job /data/Seafile/cmp/protonated/frames/frame11/dry/cmp_prot11 E -13392.452539794036
  Si      3.531683     33.921868      7.822842
  Si      3.460554     30.822395      7.862100
  O       2.316911     34.870236      8.344514
  O       2.164323     30.038964      8.456594
  O       3.430182     32.377733      8.360435
  O       3.597965     33.856959      6.178379
  O       3.485552     30.875729      6.217630
  Si      6.146249     26.167196      7.854588
  Si      8.804863     24.565439      7.849365
  O       4.751040     25.558537      8.423044
  O       7.455603     25.331027      8.366433
  O       8.774686     23.044399      8.425718
  O       6.193509     26.200051      6.208585
  O       8.767490     24.628418      6.206414
  Si      6.101605     29.240521      7.769602
  Si      6.179657     35.491311      7.757742
  Si      8.911757     33.885831      7.679737
  Si      8.855715     30.812046      7.695072
  O       4.837809     30.079354      8.360532
  O       4.916999     34.629839      8.328073
  O       7.578957     34.711050      8.075238
  O       7.483910     30.052029      8.091257
  O       6.218678     27.725301      8.357900
  O       8.844183     32.343165      8.270829
  O       5.846201     29.141951      6.149434
  O       5.986743     35.654950      6.130779
  O       9.063490     33.777235      6.044636
  O       9.023138     30.915640      6.068173
  Si      6.234522     38.575262      7.827235
  Si      8.953395     40.059081      7.811723
  O       4.974313     39.455855      8.356833
  O       7.594739     39.323581      8.365888
  O       6.216221     37.016839      8.329520
  O       9.152747     41.563224      8.395811
  O       6.340917     38.559053      6.183855
  O       8.898870     40.032680      6.167897
  Si     11.498319     26.072013      7.762106
  Si     14.168075     24.551306      7.825939
  O      10.142981     25.381681      8.345828
  O      12.864163     25.400011      8.344131
  O      13.942592     23.026674      8.345869
  O      11.453792     25.830649      6.138901
  O      14.175946     24.654207      6.183242
  Si     11.498729     29.246603      7.712555
  Si     11.602928     35.365567      7.622789
  Si     14.244665     33.818280      7.630273
  Si     14.176712     30.750261      7.697436
  O      10.157844     29.992041      8.286554
  O      10.279285     34.608372      8.186378
  O      12.976802     34.660103      8.215378
  O      12.837991     30.007683      8.311243
  O      11.489213     27.675453      8.105170
  O      14.254626     32.288708      8.281696
  O      11.488113     29.452008      6.087836
  O      11.655587     35.052363      6.001018
  O      14.028215     33.607591      6.019317
  O      13.965619     30.824215      6.077484
  Si     11.635199     38.560704      7.673464
  Si     14.321454     40.050246      7.826593
  O      10.280247     39.223748      8.266938
  O      12.994225     39.219539      8.309791
  O      11.707330     36.951305      7.874169
  O      14.312000     41.557084      8.440482
  O      11.703390     38.923951      6.067099
  O      14.380131     40.013504      6.183831
  Si     16.878327     26.048076      7.857565
  O      15.557970     25.224233      8.363442
  O      18.218682     25.342307      8.447223
  O      16.803114     26.038597      6.214377
  Si     16.901153     29.123389      7.764067
  Si     17.032399     35.372123      7.694477
  Si     19.657628     33.763474      7.819034
  Si     19.548873     30.668714      7.829579
  O      15.499448     29.908660      8.090186
  O      15.654833     34.531892      7.957693
  O      18.296674     34.540699      8.304927
  O      18.153308     29.978626      8.352177
  O      16.803894     27.608975      8.358018
  O      19.656515     32.213566      8.347911
  O      17.104376     28.951099      6.144208
  O      17.323388     35.490049      6.082584
  O      19.614625     33.680978      6.176269
  O      19.467683     30.705882      6.185286
  Si     16.966434     38.437368      7.817166
  O      15.678571     39.291014      8.339442
  O      18.398925     39.006908      8.340998
  O      16.900304     36.871851      8.310747
  O      16.889727     38.400328      6.170966
  O      20.740610     29.702407      8.366106
  O      21.017516     34.450767      8.387645
  H       4.074657     24.986772      8.036591
  H       1.410409     29.602015      8.036749
  H       1.410409     35.007985      8.036749
  H       4.074657     39.623228      8.036591
  H       8.948181     22.173255      8.038302
  H       8.948181     42.436745      8.038302
  H      14.277762     22.173204      8.038282
  H      14.277762     42.436796      8.038282
  H      18.960557     24.876228      8.036406
  H      18.960557     39.733772      8.036406
  H      21.624717     29.491420      8.036583
  H      21.624717     35.118580      8.036583
  H      13.243597     34.095116      5.699219
  H      10.824166     34.669956      5.675877
  H       8.968471     32.875684      5.702881
  H       9.779242     30.416174      5.722572
  H      12.301126     29.857196      5.743061
  H      14.008917     31.735852      5.733873
  H      13.534773     39.750581      5.786123
  H      10.864091     39.244664      5.709201
  H       8.106935     39.592807      5.822936
  H       6.199863     37.676659      5.808069
  H       5.302316     35.081786      5.759320
  H       3.554269     32.953296      5.834151
  H       4.154261     30.292716      5.828669
  H       5.999092     28.258381      5.785536
  H       6.938098     25.703832      5.839914
  H       9.597647     24.937838      5.815438
  H      12.292604     25.520592      5.768440
  H      14.981740     25.063660      5.834649
  H      16.975946     26.907264      5.821154
  H      17.794773     29.524293      5.778795
  H      19.529153     31.603387      5.825230
  H      18.958388     34.274585      5.780872
  H      17.161505     36.375828      5.725175
  H      16.135192     38.894597      5.817583
  P       9.258415     36.971990     11.424750
  O      12.830441     37.345833     13.272565
  O      14.793394     39.460105     12.734501
  O      15.659183     37.478516     11.256813
  O      10.300681     37.888443     12.322927
  O      15.065527     34.675929     11.151653
  O       8.830579     35.882587     12.330203
  O       9.938185     36.691014     10.125106
  O       8.035348     37.990991     11.176608
  N      13.085444     35.375385     12.044568
  N      13.240285     33.353610     10.928854
  N      11.403487     32.073239     10.388472
  C      13.839524     38.909256     11.867045
  C      14.271391     37.512029     11.406105
  C      12.563752     38.605927     12.626895
  C      13.743666     36.620358     12.551474
  C      11.363994     38.539591     11.694748
  C      11.767910     35.152327     12.217959
  C      13.884625     34.492798     11.366713
  C      11.136058     34.060052     11.709891
  C      11.902552     33.142351     10.995665
  H      13.652195     39.566333     11.009771
  H      13.761347     37.255422     10.470412
  H      12.397073     39.316171     13.436534
  H      14.569697     36.284710     13.185872
  H      11.619216     38.009740     10.769705
  H      11.098540     39.568946     11.416542
  H      15.655996     39.167145     12.415645
  H      15.905138     36.565467     11.060022
  H      11.221733     35.910202     12.767747
  H      10.058635     34.011889     11.808041
  H      10.404195     31.988349     10.307992
  H      11.961858     31.473648      9.800502
  H       8.058613     38.306385     10.267542
  H      13.816301     32.758100     10.344108
161
Coordinates from ORCA-job /data/Seafile/cmp/protonated/frames/frame11/dry/cmp_prot11 E -13392.452547552570
  Si      3.531985     33.922593      7.823448
  Si      3.460361     30.823242      7.862231
  O       2.316473     34.869663      8.345451
  O       2.162758     30.041823      8.456464
  O       3.431078     32.378459      8.360822
  O       3.598414     33.858096      6.178986
  O       3.485502     30.876407      6.217746
  Si      6.145822     26.168363      7.853974
  Si      8.803740     24.565378      7.849130
  O       4.748872     25.562390      8.421095
  O       7.453970     25.330364      8.365882
  O       8.772927     23.044259      8.425276
  O       6.193862     26.201553      6.208000
  O       8.766931     24.628600      6.206208
  Si      6.101770     29.241559      7.769849
  Si      6.179776     35.492240      7.757528
  Si      8.911573     33.886012      7.678845
  Si      8.856180     30.812452      7.695682
  O       4.837305     30.079486      8.360666
  O       4.916939     34.631410      8.328322
  O       7.578960     34.711326      8.074820
  O       7.483888     30.053370      8.092296
  O       6.219288     27.726197      8.357806
  O       8.845531     32.343726      8.271164
  O       5.846962     29.143647      6.149558
  O       5.986590     35.655336      6.130672
  O       9.061973     33.776208      6.043631
  O       9.023235     30.915191      6.068528
  Si      6.234762     38.576047      7.826319
  Si      8.954197     40.059725      7.808479
  O       4.974605     39.456522      8.356382
  O       7.595153     39.325719      8.362913
  O       6.217677     37.017635      8.329438
  O       9.158348     41.563234      8.392553
  O       6.340283     38.558252      6.183135
  O       8.898581     40.034065      6.164966
  Si     11.497242     26.071719      7.762206
  Si     14.167431     24.551300      7.826112
  O      10.141792     25.381534      8.345845
  O      12.862958     25.399289      8.343952
  O      13.943079     23.026720      8.346263
  O      11.452603     25.830812      6.139019
  O      14.174889     24.654127      6.183380
  Si     11.498779     29.246176      7.712620
  Si     11.602985     35.365318      7.619945
  Si     14.244677     33.818104      7.628657
  Si     14.176854     30.749872      7.696506
  O      10.158253     29.992176      8.286689
  O      10.278288     34.610605      8.184344
  O      12.976547     34.659798      8.213320
  O      12.838237     30.007469      8.310597
  O      11.488188     27.675164      8.105531
  O      14.254736     32.288493      8.280481
  O      11.488152     29.450839      6.087859
  O      11.655418     35.049075      5.998633
  O      14.028291     33.606924      6.017566
  O      13.965613     30.823544      6.076483
  Si     11.636103     38.560963      7.670193
  Si     14.322229     40.050424      7.826315
  O      10.279897     39.221935      8.262685
  O      12.994018     39.220552      8.308174
  O      11.708619     36.951377      7.867572
  O      14.316273     41.557229      8.440473
  O      11.705942     38.925464      6.063965
  O      14.381477     40.014878      6.183595
  Si     16.877903     26.047647      7.857208
  O      15.557259     25.224415      8.363356
  O      18.217375     25.340378      8.447023
  O      16.803120     26.038169      6.214034
  Si     16.901349     29.122946      7.763171
  Si     17.032858     35.371621      7.693103
  Si     19.657896     33.763118      7.818442
  Si     19.548762     30.668487      7.829093
  O      15.499739     29.908641      8.089166
  O      15.654777     34.531975      7.955583
  O      18.296778     34.540055      8.304090
  O      18.153458     29.977973      8.351519
  O      16.803966     27.608694      8.357447
  O      19.657003     32.213247      8.347277
  O      17.104590     28.950556      6.143366
  O      17.324543     35.489670      6.081383
  O      19.615160     33.680888      6.175722
  O      19.467368     30.705521      6.184823
  Si     16.966660     38.437310      7.817689
  O      15.678008     39.289432      8.340199
  O      18.398047     39.008352      8.342894
  O      16.900961     36.871240      8.309612
  O      16.891382     38.401394      6.171403
  O      20.740606     29.702569      8.365844
  O      21.017986     34.450107      8.387243
  H       4.074657     24.986772      8.036591
  H       1.410409     29.602015      8.036749
  H       1.410409     35.007985      8.036749
  H       4.074657     39.623228      8.036591
  H       8.948181     22.173255      8.038302
  H       8.948181     42.436745      8.038302
  H      14.277762     22.173204      8.038282
  H      14.277762     42.436796      8.038282
  H      18.960557     24.876228      8.036406
  H      18.960557     39.733772      8.036406
  H      21.624717     29.491420      8.036583
  H      21.624717     35.118580      8.036583
  H      13.243635     34.094395      5.697369
  H      10.823520     34.667554      5.673850
  H       8.967809     32.874379      5.702410
  H       9.779241     30.415698      5.722821
  H      12.300946     29.856441      5.743005
  H      14.009517     31.735128      5.732667
  H      13.536660     39.751217      5.785214
  H      10.867152     39.246561      5.705409
  H       8.107085     39.593250      5.820306
  H       6.198566     37.675551      5.808219
  H       5.301590     35.082322      5.759909
  H       3.554296     32.954524      5.834558
  H       4.154619     30.293867      5.828821
  H       5.999995     28.260171      5.785487
  H       6.938612     25.705429      5.839545
  H       9.597165     24.938143      5.815481
  H      12.291521     25.520747      5.768766
  H      14.980721     25.063145      5.834432
  H      16.975696     26.906865      5.820772
  H      17.795104     29.523809      5.778213
  H      19.529483     31.602945      5.824693
  H      18.959045     34.274363      5.779961
  H      17.162786     36.375584      5.724302
  H      16.137539     38.896203      5.817390
  P       9.276153     36.976454     11.426960
  O      12.847273     37.348740     13.270874
  O      14.812499     39.459021     12.732181
  O      15.675611     37.475806     11.254592
  O      10.316753     37.897001     12.322089
  O      15.076654     34.674609     11.149704
  O       8.845763     35.890617     12.335747
  O       9.958601     36.688311     10.130087
  O       8.053917     37.994059     11.171174
  N      13.098201     35.377004     12.043942
  N      13.249203     33.354946     10.928268
  N      11.410198     32.076478     10.390244
  C      13.858415     38.909639     11.864393
  C      14.287971     37.511386     11.404117
  C      12.581720     38.608789     12.623677
  C      13.758737     36.621283     12.549901
  C      11.382121     38.543258     11.691706
  C      11.780890     35.155208     12.219397
  C      13.895668     34.492989     11.365687
  C      11.147004     34.063542     11.712338
  C      11.911249     33.145321     10.996703
  H      13.672806     39.566667     11.006719
  H      13.777954     37.255164     10.468241
  H      12.414931     39.319356     13.432997
  H      14.584608     36.284633     13.184020
  H      11.635386     38.011002     10.767678
  H      11.118738     39.572839     11.412348
  H      15.675158     39.166910     12.412807
  H      15.920434     36.562625     11.057062
  H      11.236548     35.913214     12.770735
  H      10.069655     34.016643     11.811462
  H      10.410698     31.993348     10.310163
  H      11.967022     31.478504      9.799132
  H       8.079701     38.305558     10.260897
  H      13.823965     32.758314     10.343426
161
Coordinates from ORCA-job /data/Seafile/cmp/protonated/frames/frame11/dry/cmp_prot11 E -13392.452553345443
  Si      3.532202     33.923234      7.824238
  Si      3.460176     30.823947      7.862532
  O       2.315878     34.868821      8.346680
  O       2.160921     30.045040      8.456349
  O       3.432299     32.379064      8.361313
  O       3.598776     33.859153      6.179753
  O       3.485614     30.876679      6.218065
  Si      6.145502     26.169372      7.853569
  Si      8.802827     24.565303      7.849197
  O       4.746991     25.565730      8.419308
  O       7.452659     25.329886      8.365570
  O       8.770994     23.044039      8.424874
  O       6.194503     26.203060      6.207659
  O       8.766689     24.628924      6.206335
  Si      6.101931     29.242378      7.770514
  Si      6.179867     35.493001      7.757642
  Si      8.911399     33.885900      7.677962
  Si      8.856520     30.812735      7.696777
  O       4.836641     30.079292      8.361007
  O       4.916719     34.633003      8.328726
  O       7.578744     34.711067      8.074243
  O       7.483712     30.054594      8.093792
  O       6.219840     27.726863      8.358022
  O       8.846801     32.344182      8.271602
  O       5.848020     29.145130      6.150125
  O       5.986065     35.655962      6.130977
  O       9.060806     33.774372      6.042812
  O       9.023360     30.914348      6.069412
  Si      6.234735     38.576559      7.826038
  Si      8.954860     40.060407      7.806278
  O       4.974437     39.456301      8.356664
  O       7.595423     39.327568      8.360630
  O       6.219417     37.018193      8.329726
  O       9.162871     41.563385      8.390113
  O       6.339239     38.557673      6.183017
  O       8.898577     40.035479      6.163062
  Si     11.496279     26.071692      7.762952
  Si     14.166755     24.551286      7.826542
  O      10.140781     25.381337      8.346278
  O      12.861844     25.398669      8.344170
  O      13.943866     23.026741      8.347002
  O      11.451571     25.831376      6.139758
  O      14.173805     24.653917      6.183770
  Si     11.498798     29.246029      7.713428
  Si     11.603000     35.365081      7.617695
  Si     14.244386     33.817694      7.627269
  Si     14.176929     30.749434      7.695897
  O      10.158582     29.992572      8.287412
  O      10.277218     34.612608      8.182459
  O      12.976092     34.659275      8.211580
  O      12.838664     30.007166      8.310417
  O      11.487236     27.675100      8.106503
  O      14.254602     32.288146      8.279428
  O      11.488204     29.450097      6.088732
  O      11.655300     35.046145      5.996751
  O      14.027976     33.606102      6.016120
  O      13.965347     30.822895      6.075832
  Si     11.636971     38.561429      7.667762
  Si     14.322958     40.050601      7.826639
  O      10.279514     39.220201      8.259625
  O      12.993657     39.221892      8.307281
  O      11.709803     36.951623      7.861632
  O      14.320953     41.557518      8.440594
  O      11.708499     38.927643      6.061810
  O      14.382191     40.015963      6.184013
  Si     16.877510     26.047237      7.856916
  O      15.556328     25.225052      8.363388
  O      18.215803     25.337920      8.446884
  O      16.803194     26.037876      6.213789
  Si     16.901600     29.122656      7.762439
  Si     17.032798     35.371394      7.692272
  Si     19.657886     33.763130      7.818098
  Si     19.548860     30.668480      7.828940
  O      15.500146     29.908699      8.088383
  O      15.654203     34.532323      7.953928
  O      18.296522     34.539671      8.303448
  O      18.153768     29.977391      8.350900
  O      16.804327     27.608446      8.356825
  O      19.656902     32.213264      8.346878
  O      17.104691     28.950364      6.142655
  O      17.324826     35.489634      6.080668
  O      19.615667     33.681226      6.175464
  O      19.467689     30.705075      6.184661
  Si     16.966839     38.437410      7.818531
  O      15.677204     39.287660      8.341511
  O      18.397032     39.010075      8.345100
  O      16.901388     36.870918      8.308920
  O      16.892973     38.402833      6.172224
  O      20.741214     29.703797      8.366485
  O      21.017949     34.450121      8.387190
  H       4.074657     24.986772      8.036591
  H       1.410409     29.602015      8.036749
  H       1.410409     35.007985      8.036749
  H       4.074657     39.623228      8.036591
  H       8.948181     22.173255      8.038302
  H       8.948181     42.436745      8.038302
  H      14.277762     22.173204      8.038282
  H      14.277762     42.436796      8.038282
  H      18.960557     24.876228      8.036406
  H      18.960557     39.733772      8.036406
  H      21.624717     29.491420      8.036583
  H      21.624717     35.118580      8.036583
  H      13.242207     34.091763      5.695838
  H      10.823131     34.665088      5.672281
  H       8.967284     32.872104      5.702503
  H       9.779054     30.414430      5.723706
  H      12.300804     29.856018      5.743806
  H      14.009175     31.734444      5.731934
  H      13.537799     39.751638      5.785129
  H      10.870091     39.248588      5.702474
  H       8.107481     39.594080      5.818454
  H       6.197222     37.674868      5.808448
  H       5.300853     35.082752      5.760828
  H       3.553924     32.955778      5.834976
  H       4.155341     30.294848      5.829194
  H       6.001204     28.261803      5.785777
  H       6.939154     25.706719      5.839343
  H       9.596930     24.938698      5.815828
  H      12.290488     25.521280      5.769551
  H      14.979720     25.062163      5.834250
  H      16.975365     26.906575      5.820430
  H      17.795360     29.523510      5.777665
  H      19.530490     31.602296      5.824241
  H      18.959497     34.274339      5.779331
  H      17.163693     36.375693      5.723787
  H      16.139629     38.897932      5.817665
  P       9.292772     36.980203     11.429460
  O      12.862382     37.353104     13.269830
  O      14.828685     39.461017     12.730853
  O      15.690687     37.476897     11.253402
  O      10.330968     37.905130     12.322227
  O      15.088287     34.676060     11.148579
  O       8.860360     35.897569     12.341244
  O       9.978703     36.685776     10.135613
  O       8.070787     37.995797     11.165808
  N      13.110905     35.380507     12.043648
  N      13.259451     33.357824     10.928807
  N      11.418544     32.081212     10.391642
  C      13.874603     38.912318     11.862793
  C      14.303080     37.513480     11.403086
  C      12.597365     38.612947     12.621525
  C      13.772893     36.624271     12.549049
  C      11.397731     38.547563     11.689913
  C      11.793986     35.158974     12.221527
  C      13.907242     34.495653     11.365109
  C      11.158795     34.067740     11.715134
  C      11.921323     33.149392     10.998095
  H      13.690278     39.568909     11.004457
  H      13.793259     37.257202     10.467071
  H      12.430453     39.323964     13.430417
  H      14.598330     36.287222     13.183524
  H      11.648924     38.013931     10.766327
  H      11.136187     39.577462     11.409667
  H      15.691365     39.170265     12.410333
  H      15.934824     36.563612     11.055506
  H      11.250945     35.916759     12.774425
  H      10.081614     34.021120     11.815676
  H      10.418828     31.999589     10.312529
  H      11.973637     31.484530      9.797612
  H       8.099337     38.304331     10.254614
  H      13.833217     32.760329     10.343891
161
Coordinates from ORCA-job /data/Seafile/cmp/protonated/frames/frame11/dry/cmp_prot11 E -13392.452562735310
  Si      3.532402     33.923911      7.824625
  Si      3.459950     30.824636      7.862543
  O       2.315352     34.868026      8.347749
  O       2.158848     30.048796      8.456082
  O       3.433855     32.379704      8.361466
  O       3.599020     33.860201      6.180089
  O       3.485595     30.876773      6.218129
  Si      6.145207     26.170326      7.852798
  Si      8.801976     24.565238      7.848857
  O       4.745303     25.568916      8.417388
  O       7.451568     25.329646      8.364940
  O       8.768966     23.043903      8.424241
  O       6.195243     26.204490      6.206969
  O       8.766325     24.629138      6.206070
  Si      6.101995     29.243056      7.770741
  Si      6.179969     35.493776      7.757241
  Si      8.911261     33.885725      7.676170
  Si      8.856572     30.813055      7.697068
  O       4.835833     30.078889      8.360952
  O       4.916495     34.634700      8.328669
  O       7.578390     34.710584      8.072727
  O       7.483312     30.055812      8.094632
  O       6.220425     27.727463      8.357877
  O       8.847840     32.344678      8.271069
  O       5.848870     29.146267      6.150319
  O       5.985084     35.657176      6.130845
  O       9.059992     33.772426      6.041245
  O       9.022911     30.913644      6.069543
  Si      6.234613     38.577011      7.825728
  Si      8.955475     40.061086      7.804202
  O       4.974051     39.455449      8.357302
  O       7.595643     39.329241      8.358450
  O       6.221491     37.018688      8.329712
  O       9.166859     41.563500      8.387900
  O       6.337730     38.557785      6.182775
  O       8.898604     40.037168      6.161178
  Si     11.495350     26.071901      7.763005
  Si     14.165950     24.551280      7.826430
  O      10.139857     25.381271      8.346112
  O      12.860733     25.398323      8.343792
  O      13.944525     23.026815      8.347507
  O      11.450630     25.831789      6.139809
  O      14.172743     24.653520      6.183618
  Si     11.498630     29.246194      7.713179
  Si     11.603070     35.364861      7.614955
  Si     14.243940     33.817207      7.624742
  Si     14.176995     30.748960      7.693897
  O      10.158764     29.993242      8.287204
  O      10.276228     34.614390      8.179864
  O      12.975630     34.658613      8.209093
  O      12.839136     30.006898      8.308933
  O      11.486331     27.675295      8.106476
  O      14.254385     32.287712      8.276955
  O      11.487841     29.449741      6.088571
  O      11.655089     35.043175      5.994343
  O      14.027535     33.605926      6.013574
  O      13.965205     30.822356      6.073823
  Si     11.637803     38.562176      7.665030
  Si     14.323752     40.050774      7.826730
  O      10.279057     39.218399      8.256844
  O      12.993153     39.223499      8.306189
  O      11.711047     36.952067      7.854835
  O      14.326240     41.557759      8.440520
  O      11.710722     38.931259      6.059644
  O      14.382812     40.016920      6.184245
  Si     16.877090     26.046731      7.856171
  O      15.555076     25.226066      8.362933
  O      18.213845     25.334974      8.446627
  O      16.803436     26.037294      6.213109
  Si     16.901898     29.122379      7.760960
  Si     17.032478     35.371332      7.691216
  Si     19.657750     33.763301      7.817569
  Si     19.549113     30.668554      7.828552
  O      15.500551     29.908705      8.086450
  O      15.653338     34.532754      7.951656
  O      18.295985     34.539354      8.302473
  O      18.154014     29.976945      8.349658
  O      16.804821     27.608186      8.355479
  O      19.656365     32.213420      8.346317
  O      17.105209     28.950040      6.141252
  O      17.324878     35.490033      6.079736
  O      19.616405     33.681663      6.175032
  O      19.468704     30.704618      6.184227
  Si     16.967028     38.437507      7.819112
  O      15.676182     39.285575      8.342703
  O      18.396005     39.011729      8.347154
  O      16.901690     36.870688      8.308110
  O      16.894455     38.404408      6.172839
  O      20.742036     29.705486      8.367449
  O      21.017491     34.450551      8.387230
  H       4.074657     24.986772      8.036591
  H       1.410409     29.602015      8.036749
  H       1.410409     35.007985      8.036749
  H       4.074657     39.623228      8.036591
  H       8.948181     22.173255      8.038302
  H       8.948181     42.436745      8.038302
  H      14.277762     22.173204      8.038282
  H      14.277762     42.436796      8.038282
  H      18.960557     24.876228      8.036406
  H      18.960557     39.733772      8.036406
  H      21.624717     29.491420      8.036583
  H      21.624717     35.118580      8.036583
  H      13.241712     34.091507      5.693071
  H      10.822536     34.662725      5.670232
  H       8.966972     32.869622      5.702038
  H       9.778424     30.413475      5.723790
  H      12.300336     29.855728      5.743393
  H      14.009507     31.733944      5.729986
  H      13.538706     39.752023      5.784983
  H      10.872450     39.251618      5.699622
  H       8.107710     39.595713      5.816392
  H       6.195471     37.675146      5.807943
  H       5.300028     35.083452      5.761121
  H       3.553277     32.957078      5.834846
  H       4.156143     30.295893      5.829285
  H       6.002163     28.263089      5.785651
  H       6.939663     25.707743      5.838760
  H       9.596454     24.939318      5.815641
  H      12.289448     25.521510      5.769549
  H      14.978829     25.060729      5.833429
  H      16.975099     26.905952      5.819500
  H      17.796178     29.522865      5.776382
  H      19.532409     31.601565      5.823384
  H      18.960142     34.274346      5.778474
  H      17.164574     36.376232      5.722947
  H      16.141285     38.899443      5.817863
  P       9.310017     36.981765     11.431206
  O      12.876867     37.357053     13.269678
  O      14.843936     39.463840     12.731006
  O      15.706155     37.479205     11.254445
  O      10.345131     37.911299     12.322313
  O      15.100819     34.678902     11.146966
  O       8.876242     35.902141     12.345857
  O       9.999874     36.682277     10.140384
  O       8.087297     37.994477     11.159882
  N      13.124506     35.383847     12.044084
  N      13.271356     33.361070     10.929060
  N      11.428689     32.086441     10.391666
  C      13.890063     38.915146     11.862603
  C      14.318414     37.516018     11.403557
  C      12.612512     38.616656     12.620797
  C      13.787273     36.627191     12.549410
  C      11.412867     38.551471     11.689265
  C      11.808067     35.161763     12.224687
  C      13.919991     34.498920     11.364740
  C      11.172088     34.070951     11.718473
  C      11.933154     33.153289     10.999142
  H      13.706708     39.571082     11.003481
  H      13.809063     37.259417     10.467356
  H      12.445749     39.328305     13.429169
  H      14.611848     36.290049     13.184926
  H      11.662663     38.017444     10.765677
  H      11.153060     39.581791     11.408523
  H      15.706628     39.174414     12.409297
  H      15.949968     36.565964     11.056017
  H      11.265892     35.918894     12.779261
  H      10.095135     34.023987     11.820790
  H      10.428713     32.006022     10.314311
  H      11.981789     31.490799      9.794791
  H       8.118863     38.301454     10.248245
  H      13.844101     32.763458     10.343303
161
Coordinates from ORCA-job /data/Seafile/cmp/protonated/frames/frame11/dry/cmp_prot11 E -13392.452573894428
  Si      3.532645     33.924639      7.824718
  Si      3.459695     30.825347      7.862596
  O       2.315027     34.867609      8.348434
  O       2.156470     30.053056      8.455790
  O       3.435559     32.380446      8.361517
  O       3.599271     33.861065      6.180118
  O       3.485731     30.876693      6.218248
  Si      6.144917     26.171289      7.852218
  Si      8.801124     24.565242      7.848647
  O       4.743705     25.571902      8.415591
  O       7.450585     25.329585      8.364577
  O       8.766888     23.043770      8.423566
  O       6.196194     26.206028      6.206482
  O       8.765978     24.629604      6.205925
  Si      6.102001     29.243693      7.771391
  Si      6.180131     35.494604      7.756559
  Si      8.911199     33.885586      7.674482
  Si      8.856452     30.813397      7.698038
  O       4.834821     30.078359      8.361170
  O       4.916317     34.636475      8.328372
  O       7.577972     34.710134      8.070966
  O       7.482720     30.057069      8.096015
  O       6.220942     27.728033      8.358124
  O       8.848596     32.345331      8.270822
  O       5.849824     29.147295      6.150908
  O       5.984026     35.658801      6.130407
  O       9.059646     33.770479      6.039891
  O       9.022206     30.912930      6.070388
  Si      6.234507     38.577525      7.825465
  Si      8.956032     40.061669      7.802491
  O       4.973491     39.454224      8.358182
  O       7.595768     39.330802      8.356643
  O       6.223739     37.019237      8.329501
  O       9.170290     41.563610      8.385949
  O       6.336066     38.558699      6.182472
  O       8.898863     40.038634      6.159494
  Si     11.494468     26.072250      7.763402
  Si     14.165050     24.551308      7.826401
  O      10.138967     25.381210      8.346190
  O      12.859660     25.398065      8.343768
  O      13.944873     23.026815      8.347872
  O      11.449796     25.832464      6.140120
  O      14.171592     24.653422      6.183581
  Si     11.498342     29.246557      7.713687
  Si     11.603248     35.364800      7.612884
  Si     14.243409     33.816567      7.622503
  Si     14.177121     30.748369      7.692551
  O      10.158795     29.993986      8.287823
  O      10.275335     34.616056      8.177556
  O      12.975208     34.657919      8.207170
  O      12.839665     30.006586      8.308237
  O      11.485579     27.675561      8.106964
  O      14.254427     32.287281      8.274940
  O      11.487166     29.449868      6.089137
  O      11.655200     35.040676      5.992510
  O      14.026978     33.605084      6.011557
  O      13.964888     30.821488      6.072534
  Si     11.638502     38.563173      7.663019
  Si     14.324595     40.050920      7.826911
  O      10.278367     39.216594      8.255153
  O      12.992559     39.225395      8.305668
  O      11.712410     36.952733      7.848392
  O      14.332084     41.558018      8.440363
  O      11.712294     38.935914      6.058405
  O      14.383353     40.017435      6.184572
  Si     16.876655     26.046120      7.855742
  O      15.553648     25.227223      8.362697
  O      18.211696     25.331515      8.446557
  O      16.803588     26.036733      6.212749
  Si     16.902268     29.122063      7.760104
  Si     17.031970     35.371304      7.690458
  Si     19.657523     33.763527      7.817225
  Si     19.549467     30.668677      7.828498
  O      15.500999     29.908496      8.085163
  O      15.652340     34.533137      7.949719
  O      18.295275     34.539027      8.301654
  O      18.154304     29.976669      8.348878
  O      16.805620     27.607794      8.354576
  O      19.655672     32.213676      8.346091
  O      17.105711     28.949731      6.140435
  O      17.324607     35.490507      6.079048
  O      19.617114     33.681927      6.174761
  O      19.469822     30.704155      6.184120
  Si     16.967213     38.437500      7.819683
  O      15.675088     39.283333      8.343994
  O      18.395215     39.013045      8.348832
  O      16.901980     36.870469      8.307675
  O      16.895472     38.405802      6.173478
  O      20.742974     29.707200      8.368714
  O      21.016727     34.451349      8.387435
  H       4.074657     24.986772      8.036591
  H       1.410409     29.602015      8.036749
  H       1.410409     35.007985      8.036749
  H       4.074657     39.623228      8.036591
  H       8.948181     22.173255      8.038302
  H       8.948181     42.436745      8.038302
  H      14.277762     22.173204      8.038282
  H      14.277762     42.436796      8.038282
  H      18.960557     24.876228      8.036406
  H      18.960557     39.733772      8.036406
  H      21.624717     29.491420      8.036583
  H      21.624717     35.118580      8.036583
  H      13.240042     34.089062      5.691145
  H      10.822646     34.659965      5.668751
  H       8.966982     32.867067      5.702001
  H       9.777649     30.412605      5.724698
  H      12.299552     29.855696      5.743537
  H      14.008739     31.733093      5.728705
  H      13.539174     39.752711      5.785215
  H      10.873919     39.255210      5.697802
  H       8.108134     39.597296      5.814373
  H       6.193645     37.676414      5.806954
  H       5.299522     35.084311      5.760826
  H       3.552586     32.958182      5.834473
  H       4.157166     30.296718      5.829607
  H       6.003325     28.264322      5.785842
  H       6.940446     25.708908      5.838447
  H       9.596026     24.940192      5.815658
  H      12.288438     25.522057      5.769627
  H      14.977836     25.059687      5.832796
  H      16.974860     26.905351      5.818948
  H      17.796750     29.522356      5.775461
  H      19.534166     31.600823      5.822782
  H      18.960798     34.274260      5.777812
  H      17.165180     36.376806      5.722222
  H      16.142283     38.900705      5.818342
  P       9.327700     36.982369     11.433028
  O      12.890089     37.361251     13.271423
  O      14.857836     39.468218     12.733931
  O      15.720923     37.483675     11.258287
  O      10.358669     37.916978     12.323396
  O      15.113899     34.683977     11.146110
  O       8.893264     35.905479     12.350339
  O      10.022298     36.679504     10.145342
  O       8.103070     37.990975     11.154178
  N      13.138449     35.387905     12.045973
  N      13.284554     33.365660     10.929586
  N      11.440649     32.092095     10.392158
  C      13.904251     38.919278     11.865111
  C      14.332998     37.520202     11.406340
  C      12.626625     38.620917     12.622932
  C      13.801130     36.631097     12.551729
  C      11.427070     38.556548     11.691115
  C      11.822556     35.164469     12.229322
  C      13.933408     34.503722     11.365194
  C      11.186448     34.073711     11.723306
  C      11.946448     33.157545     11.000997
  H      13.721431     39.574837     11.005484
  H      13.824096     37.263504     10.469937
  H      12.460348     39.332912     13.431117
  H      14.624786     36.294115     13.188471
  H      11.676607     38.022821     10.767288
  H      11.168713     39.587292     11.410331
  H      15.720536     39.179715     12.411359
  H      15.964582     36.570668     11.058776
  H      11.280763     35.920647     12.785493
  H      10.109744     34.025847     11.827541
  H      10.440423     32.011757     10.317715
  H      11.991890     31.496902      9.793182
  H       8.137832     38.297696     10.242586
  H      13.856449     32.768483     10.342601
161
Coordinates from ORCA-job /data/Seafile/cmp/protonated/frames/frame11/dry/cmp_prot11 E -13392.452585905312
  Si      3.532900     33.925415      7.824193
  Si      3.459356     30.826108      7.862181
  O       2.314967     34.867601      8.348595
  O       2.153994     30.057596      8.455329
  O       3.437318     32.381264      8.361070
  O       3.599217     33.861864      6.179527
  O       3.485477     30.876610      6.217885
  Si      6.144581     26.172192      7.851297
  Si      8.800218     24.565268      7.847963
  O       4.742322     25.574597      8.413840
  O       7.449729     25.329748      8.363912
  O       8.764910     23.043754      8.422699
  O       6.196867     26.207188      6.205629
  O       8.765402     24.629817      6.205266
  Si      6.101881     29.244296      7.771291
  Si      6.180314     35.495473      7.755024
  Si      8.911172     33.885570      7.672081
  Si      8.856190     30.813738      7.698052
  O       4.833747     30.077812      8.360801
  O       4.916263     34.638191      8.327393
  O       7.577541     34.709803      8.068367
  O       7.482026     30.058306      8.096455
  O       6.221376     27.728654      8.357826
  O       8.849094     32.346010      8.269652
  O       5.850347     29.148083      6.150757
  O       5.982851     35.660804      6.129093
  O       9.059456     33.769136      6.037787
  O       9.021179     30.912406      6.070277
  Si      6.234545     38.578154      7.824979
  Si      8.956517     40.062126      7.800548
  O       4.972895     39.452773      8.359188
  O       7.595963     39.332129      8.354867
  O       6.226044     37.019797      8.328637
  O       9.173153     41.563605      8.384047
  O       6.334311     38.560503      6.181845
  O       8.898974     40.040039      6.157434
  Si     11.493641     26.072485      7.762892
  Si     14.164178     24.551326      7.825945
  O      10.138122     25.381193      8.345562
  O      12.858623     25.397879      8.343191
  O      13.944868     23.026822      8.347885
  O      11.449031     25.832700      6.139517
  O      14.170690     24.653157      6.183126
  Si     11.497964     29.246871      7.713132
  Si     11.603425     35.364955      7.610411
  Si     14.242864     33.816094      7.619733
  Si     14.177360     30.747778      7.690565
  O      10.158697     29.994517      8.287523
  O      10.274540     34.617620      8.174706
  O      12.974808     34.657428      8.204921
  O      12.840123     30.006211      8.306706
  O      11.485010     27.675731      8.106395
  O      14.254650     32.286967      8.272323
  O      11.486236     29.450098      6.088557
  O      11.655327     35.038612      5.990199
  O      14.026492     33.604530      6.009096
  O      13.964999     30.820546      6.070606
  Si     11.638992     38.564330      7.660674
  Si     14.325470     40.051051      7.826509
  O      10.277511     39.214868      8.253576
  O      12.991915     39.227295      8.304721
  O      11.713740     36.953552      7.841485
  O      14.338003     41.558159      8.439894
  O      11.712991     38.941348      6.056992
  O      14.384257     40.017842      6.184283
  Si     16.876242     26.045438      7.855239
  O      15.552135     25.228472      8.362240
  O      18.209427     25.327826      8.446540
  O      16.803900     26.035968      6.212282
  Si     16.902722     29.121716      7.759132
  Si     17.031479     35.371213      7.689459
  Si     19.657301     33.763725      7.816875
  Si     19.549912     30.668824      7.828461
  O      15.501396     29.908121      8.083512
  O      15.651362     34.533438      7.947510
  O      18.294444     34.538566      8.300688
  O      18.154530     29.976598      8.348043
  O      16.806604     27.607369      8.353562
  O      19.654983     32.213951      8.345943
  O      17.106550     28.949253      6.139520
  O      17.324511     35.490900      6.078116
  O      19.618019     33.682006      6.174420
  O      19.471300     30.703736      6.184021
  Si     16.967414     38.437356      7.819843
  O      15.673992     39.281053      8.344736
  O      18.394691     39.013866      8.349885
  O      16.902306     36.870164      8.307136
  O      16.896232     38.406950      6.173696
  O      20.743844     29.708700      8.370023
  O      21.015706     34.452423      8.387759
  H       4.074657     24.986772      8.036591
  H       1.410409     29.602015      8.036749
  H       1.410409     35.007985      8.036749
  H       4.074657     39.623228      8.036591
  H       8.948181     22.173255      8.038302
  H       8.948181     42.436745      8.038302
  H      14.277762     22.173204      8.038282
  H      14.277762     42.436796      8.038282
  H      18.960557     24.876228      8.036406
  H      18.960557     39.733772      8.036406
  H      21.624717     29.491420      8.036583
  H      21.624717     35.118580      8.036583
  H      13.239813     34.089197      5.688738
  H      10.822653     34.657892      5.666773
  H       8.966585     32.865231      5.701059
  H       9.776703     30.412122      5.724631
  H      12.298716     29.855245      5.742373
  H      14.009169     31.732121      5.726671
  H      13.539822     39.753698      5.784919
  H      10.874291     39.259396      5.696054
  H       8.108303     39.598904      5.812042
  H       6.191677     37.678677      5.805429
  H       5.299048     35.085544      5.759422
  H       3.551884     32.959152      5.833591
  H       4.157825     30.297534      5.829460
  H       6.003964     28.265271      5.785344
  H       6.941093     25.709822      5.837834
  H       9.595373     24.940842      5.815146
  H      12.287464     25.522056      5.768791
  H      14.977103     25.058687      5.831948
  H      16.974792     26.904581      5.818321
  H      17.797586     29.521730      5.774381
  H      19.536181     31.600158      5.822219
  H      18.961709     34.274070      5.777090
  H      17.165689     36.377216      5.721164
  H      16.142755     38.901479      5.818591
  P       9.346429     36.982073     11.434470
  O      12.904126     37.364266     13.273808
  O      14.872847     39.471843     12.737477
  O      15.736340     37.487504     11.262677
  O      10.373099     37.921545     12.324653
  O      15.127646     34.688802     11.144589
  O       8.911799     35.907592     12.354221
  O      10.045581     36.677162     10.149620
  O       8.119191     37.985972     11.149106
  N      13.153315     35.391134     12.048148
  N      13.298314     33.370371     10.928649
  N      11.453211     32.097710     10.391975
  C      13.919225     38.922744     11.868556
  C      14.348264     37.523826     11.409601
  C      12.641710     38.624365     12.626510
  C      13.815826     36.634191     12.554415
  C      11.442082     38.561777     11.694296
  C      11.837954     35.166383     12.234192
  C      13.947485     34.508151     11.365017
  C      11.201666     34.075691     11.728441
  C      11.960437     33.161526     11.002373
  H      13.736439     39.578340     11.008965
  H      13.839597     37.267436     10.473011
  H      12.476496     39.336292     13.434997
  H      14.638828     36.297161     13.191948
  H      11.692256     38.028922     10.770050
  H      11.184724     39.592969     11.414266
  H      15.735461     39.183401     12.414569
  H      15.979875     36.574757     11.061854
  H      11.296628     35.921621     12.791979
  H      10.125205     34.027158     11.834531
  H      10.452771     32.016682     10.321419
  H      12.002678     31.502422      9.791548
  H       8.156670     38.293381     10.237897
  H      13.869220     32.773899     10.340030
161
Coordinates from ORCA-job /data/Seafile/cmp/protonated/frames/frame11/dry/cmp_prot11 E -13392.452599224680
  Si      3.533200     33.926218      7.823744
  Si      3.458986     30.826945      7.862016
  O       2.315095     34.868094      8.348438
  O       2.151396     30.062169      8.454990
  O       3.438843     32.382165      8.360837
  O       3.599222     33.862482      6.179048
  O       3.485353     30.876609      6.217738
  Si      6.144223     26.173091      7.850866
  Si      8.799251     24.565350      7.847659
  O       4.741009     25.576953      8.412493
  O       7.448857     25.329935      8.363769
  O       8.763066     23.043695      8.421984
  O       6.197428     26.208337      6.205250
  O       8.764801     24.630271      6.204947
  Si      6.101749     29.244999      7.771776
  Si      6.180524     35.496342      7.753739
  Si      8.911230     33.885750      7.670704
  Si      8.856004     30.814116      7.699059
  O       4.832604     30.077362      8.360932
  O       4.916281     34.639784      8.326681
  O       7.577193     34.709774      8.066519
  O       7.481364     30.059572      8.097691
  O       6.221650     27.729314      8.358076
  O       8.849496     32.346791      8.269468
  O       5.850946     29.149092      6.151105
  O       5.982070     35.662626      6.127934
  O       9.059438     33.768428      6.036578
  O       9.020298     30.911984      6.071132
  Si      6.234752     38.578904      7.824653
  Si      8.956986     40.062388      7.798969
  O       4.972300     39.451516      8.360211
  O       7.596174     39.333288      8.353567
  O       6.228088     37.020450      8.327859
  O       9.175612     41.563592      8.382368
  O       6.332970     38.562466      6.181340
  O       8.899211     40.040815      6.155680
  Si     11.492843     26.072550      7.763017
  Si     14.163357     24.551341      7.825893
  O      10.137263     25.381064      8.345499
  O      12.857644     25.397530      8.343286
  O      13.944567     23.026714      8.347889
  O      11.448230     25.833081      6.139497
  O      14.169790     24.653133      6.183099
  Si     11.497565     29.247003      7.713716
  Si     11.603637     35.365369      7.609014
  Si     14.242311     33.815697      7.618007
  Si     14.177634     30.747148      7.689852
  O      10.158541     29.994730      8.288445
  O      10.273843     34.619297      8.172887
  O      12.974487     34.657169      8.203871
  O      12.840539     30.005737      8.306519
  O      11.484627     27.675675      8.106795
  O      14.255201     32.286741      8.270990
  O      11.485073     29.450292      6.089044
  O      11.655745     35.037108      5.988907
  O      14.025719     33.603253      6.007831
  O      13.964896     30.819349      6.069991
  Si     11.639355     38.565500      7.659263
  Si     14.326383     40.051144      7.826262
  O      10.276549     39.213328      8.252957
  O      12.991430     39.229119      8.304414
  O      11.715143     36.954462      7.835755
  O      14.343747     41.558329      8.439444
  O      11.713087     38.946482      6.056461
  O      14.385305     40.017896      6.184072
  Si     16.875855     26.044719      7.855240
  O      15.550758     25.229528      8.362250
  O      18.207303     25.324099      8.446766
  O      16.804093     26.035285      6.212276
  Si     16.903195     29.121319      7.758950
  Si     17.031114     35.370872      7.688706
  Si     19.657143     33.763762      7.816774
  Si     19.550350     30.668905      7.828708
  O      15.501738     29.907530      8.082959
  O      15.650549     34.533546      7.945929
  O      18.293672     34.537847      8.300013
  O      18.154762     29.976644      8.347810
  O      16.807781     27.606870      8.353267
  O      19.654647     32.214108      8.346099
  O      17.107162     28.948750      6.139337
  O      17.324532     35.490834      6.077399
  O      19.618769     33.681812      6.174257
  O      19.472566     30.703383      6.184230
  Si     16.967653     38.436984      7.819978
  O      15.673196     39.278955      8.345392
  O      18.394603     39.014081      8.350319
  O      16.902801     36.869653      8.306896
  O      16.896552     38.407562      6.173856
  O      20.744505     29.709574      8.371187
  O      21.014679     34.453561      8.388180
  H       4.074657     24.986772      8.036591
  H       1.410409     29.602015      8.036749
  H       1.410409     35.007985      8.036749
  H       4.074657     39.623228      8.036591
  H       8.948181     22.173255      8.038302
  H       8.948181     42.436745      8.038302
  H      14.277762     22.173204      8.038282
  H      14.277762     42.436796      8.038282
  H      18.960557     24.876228      8.036406
  H      18.960557     39.733772      8.036406
  H      21.624717     29.491420      8.036583
  H      21.624717     35.118580      8.036583
  H      13.238157     34.087012      5.687988
  H      10.823338     34.655545      5.665829
  H       8.966549     32.864143      5.700781
  H       9.776114     30.412062      5.725593
  H      12.297559     29.854721      5.742173
  H      14.008233     31.730846      5.725794
  H      13.540388     39.754980      5.784848
  H      10.874001     39.263235      5.695288
  H       8.108552     39.599694      5.810255
  H       6.189903     37.680987      5.804332
  H       5.298943     35.086754      5.758018
  H       3.551581     32.959821      5.833069
  H       4.158574     30.298249      5.829739
  H       6.004779     28.266478      5.785333
  H       6.941871     25.711025      5.837786
  H       9.594823     24.941621      5.815169
  H      12.286492     25.522357      5.768504
  H      14.976275     25.058378      5.831782
  H      16.974773     26.903952      5.818341
  H      17.798049     29.521203      5.773937
  H      19.537583     31.599682      5.822142
  H      18.962518     34.273794      5.776696
  H      17.166052     36.377149      5.720349
  H      16.142743     38.901826      5.819011
  P       9.364914     36.981017     11.436345
  O      12.917244     37.366033     13.277437
  O      14.887361     39.473828     12.742172
  O      15.750148     37.489778     11.267395
  O      10.386854     37.925247     12.326842
  O      15.140421     34.692466     11.144480
  O       8.929755     35.908656     12.358125
  O      10.069016     36.674682     10.154495
  O       8.135098     37.980076     11.144775
  N      13.167204     35.392971     12.051823
  N      13.311088     33.374009     10.928638
  N      11.465136     32.101422     10.393691
  C      13.933453     38.925108     11.873242
  C      14.362066     37.526259     11.413750
  C      12.655977     38.626833     12.631470
  C      13.829403     36.636244     12.558207
  C      11.456394     38.566500     11.698769
  C      11.852388     35.166881     12.240392
  C      13.960604     34.511159     11.366277
  C      11.215945     34.076009     11.735256
  C      11.973529     33.163961     11.005364
  H      13.750634     39.581298     11.014101
  H      13.853170     37.270525     10.477112
  H      12.491916     39.338346     13.440572
  H      14.652322     36.299287     13.195901
  H      11.707760     38.034653     10.774143
  H      11.199463     39.598080     11.420057
  H      15.749840     39.184419     12.419765
  H      15.993479     36.577316     11.065209
  H      11.311572     35.921234     12.799757
  H      10.139664     34.027058     11.842943
  H      10.464561     32.018738     10.327463
  H      12.013377     31.505683      9.792629
  H       8.175167     38.288732     10.234217
  H      13.881139     32.778226     10.338531
161
Coordinates from ORCA-job /data/Seafile/cmp/protonated/frames/frame11/dry/cmp_prot11 E -13392.452598683984
  Si      3.533448     33.926978      7.823154
  Si      3.458538     30.827783      7.861659
  O       2.315361     34.868874      8.348031
  O       2.148948     30.066406      8.454662
  O       3.440087     32.383031      8.360461
  O       3.598927     33.863060      6.178458
  O       3.484903     30.876699      6.217357
  Si      6.143822     26.173851      7.850329
  Si      8.798299     24.565416      7.847258
  O       4.739815     25.579020      8.411360
  O       7.448004     25.330098      8.363517
  O       8.761533     23.043672      8.421343
  O       6.197505     26.208977      6.204730
  O       8.764129     24.630521      6.204500
  Si      6.101540     29.245709      7.771690
  Si      6.180667     35.497116      7.752278
  Si      8.911279     33.886049      7.669154
  Si      8.855870     30.814469      7.699266
  O       4.831530     30.077008      8.360695
  O       4.916389     34.641050      8.325842
  O       7.577006     34.710017      8.064694
  O       7.480762     30.060797      8.098194
  O       6.221841     27.729987      8.357856
  O       8.849841     32.347497      8.268763
  O       5.851175     29.150110      6.150881
  O       5.981428     35.664111      6.126588
  O       9.059177     33.768215      6.035013
  O       9.019699     30.911533      6.071173
  Si      6.235103     38.579703      7.824341
  Si      8.957474     40.062554      7.797288
  O       4.971850     39.450603      8.361140
  O       7.596561     39.334189      8.352369
  O       6.229707     37.021039      8.326840
  O       9.177993     41.563556      8.380647
  O       6.332025     38.564370      6.180848
  O       8.899223     40.041384      6.153887
  Si     11.492087     26.072419      7.762851
  Si     14.162653     24.551305      7.825819
  O      10.136427     25.380937      8.345245
  O      12.856719     25.397099      8.343250
  O      13.944085     23.026577      8.347813
  O      11.447404     25.833199      6.139234
  O      14.169143     24.652877      6.183036
  Si     11.497171     29.246894      7.713787
  Si     11.603809     35.365877      7.607281
  Si     14.241873     33.815517      7.616469
  Si     14.177863     30.746588      7.689095
  O      10.158280     29.994615      8.288770
  O      10.273138     34.621080      8.170895
  O      12.974180     34.657122      8.202759
  O      12.840739     30.005254      8.306074
  O      11.484329     27.675465      8.106890
  O      14.255757     32.286565      8.269795
  O      11.484062     29.450113      6.088966
  O      11.656056     35.035790      5.987290
  O      14.025087     33.602432      6.006611
  O      13.965094     30.818283      6.069289
  Si     11.639656     38.566518      7.657510
  Si     14.327237     40.051233      7.825715
  O      10.275679     39.211914      8.252040
  O      12.991092     39.230589      8.303662
  O      11.716514     36.955281      7.830219
  O      14.348650     41.558435      8.438913
  O      11.712960     38.950922      6.055487
  O      14.386559     40.018083      6.183488
  Si     16.875527     26.044024      7.855264
  O      15.549582     25.230356      8.362241
  O      18.205437     25.320737      8.447036
  O      16.804373     26.034547      6.212246
  Si     16.903566     29.120915      7.758720
  Si     17.030977     35.370320      7.687889
  Si     19.657135     33.763617      7.816710
  Si     19.550699     30.668843      7.828827
  O      15.501861     29.906835      8.082490
  O      15.650007     34.533474      7.944566
  O      18.293065     34.536901      8.299392
  O      18.154852     29.976734      8.347540
  O      16.808889     27.606401      8.353001
  O      19.654702     32.214053      8.346172
  O      17.107621     28.948209      6.139097
  O      17.324847     35.490301      6.076620
  O      19.619581     33.681511      6.174082
  O      19.473743     30.703024      6.184328
  Si     16.967940     38.436491      7.819824
  O      15.672684     39.277164      8.345477
  O      18.394779     39.013872      8.350247
  O      16.903432     36.869007      8.306490
  O      16.896898     38.407800      6.173678
  O      20.744783     29.709678      8.371909
  O      21.013820     34.454541      8.388595
  H       4.074657     24.986772      8.036591
  H       1.410409     29.602015      8.036749
  H       1.410409     35.007985      8.036749
  H       4.074657     39.623228      8.036591
  H       8.948181     22.173255      8.038302
  H       8.948181     42.436745      8.038302
  H      14.277762     22.173204      8.038282
  H      14.277762     42.436796      8.038282
  H      18.960557     24.876228      8.036406
  H      18.960557     39.733772      8.036406
  H      21.624717     29.491420      8.036583
  H      21.624717     35.118580      8.036583
  H      13.237883     34.087218      5.687108
  H      10.823519     34.654323      5.664492
  H       8.965819     32.863747      5.699814
  H       9.775645     30.411666      5.725785
  H      12.296807     29.853452      5.741522
  H      14.008547     31.729630      5.724708
  H      13.541282     39.756260      5.784264
  H      10.873555     39.266643      5.694151
  H       8.108550     39.599981      5.808794
  H       6.188479     37.683070      5.803619
  H       5.298643     35.087984      5.756486
  H       3.551424     32.960350      5.832597
  H       4.158917     30.298964      5.829768
  H       6.005079     28.267620      5.784853
  H       6.942308     25.711904      5.837614
  H       9.594233     24.942195      5.815103
  H      12.285558     25.522370      5.768107
  H      14.975653     25.058142      5.831794
  H      16.974768     26.903335      5.818434
  H      17.798350     29.520687      5.773498
  H      19.538560     31.599301      5.822143
  H      18.963358     34.273435      5.776388
  H      17.166366     36.376566      5.719507
  H      16.142779     38.901824      5.819098
  P       9.383881     36.981714     11.439095
  O      12.932106     37.367541     13.280178
  O      14.904433     39.474340     12.745009
  O      15.764301     37.490387     11.269095
  O      10.401768     37.930012     12.329727
  O      15.152875     34.694664     11.143658
  O       8.947281     35.911593     12.362781
  O      10.092580     36.673084     10.160326
  O       8.152482     37.976876     11.141414
  N      13.181069     35.394573     12.054469
  N      13.322666     33.377455     10.927642
  N      11.475538     32.105472     10.395134
  C      13.949348     38.926884     11.876694
  C      14.376383     37.527900     11.416064
  C      12.672004     38.629377     12.635746
  C      13.843784     36.637802     12.560459
  C      11.471910     38.571926     11.703269
  C      11.866783     35.167886     12.245666
  C      13.973177     34.513490     11.366397
  C      11.229541     34.077054     11.741426
  C      11.985400     33.166730     11.007789
  H      13.766348     39.584046     11.018420
  H      13.866645     37.273242     10.479577
  H      12.509632     39.340105     13.445881
  H      14.667194     36.300486     13.197389
  H      11.723664     38.041370     10.777976
  H      11.215170     39.604060     11.426736
  H      15.766413     39.182974     12.423031
  H      16.006969     36.577944     11.065903
  H      11.327076     35.921641     12.806794
  H      10.153470     34.028211     11.850898
  H      10.474881     32.021165     10.333209
  H      12.022683     31.509174      9.793685
  H       8.194400     38.285809     10.231144
  H      13.891643     32.781935     10.336248
161
Coordinates from ORCA-job /data/Seafile/cmp/protonated/frames/frame11/dry/cmp_prot11 E -13392.452590619474
  Si      3.533869     33.928159      7.822905
  Si      3.457864     30.829142      7.861716
  O       2.315694     34.870140      8.347630
  O       2.145110     30.072797      8.454351
  O       3.441712     32.384394      8.360553
  O       3.598918     33.863934      6.178241
  O       3.484694     30.877039      6.217368
  Si      6.143225     26.175062      7.850024
  Si      8.796858     24.565552      7.847165
  O       4.737797     25.582295      8.409785
  O       7.446527     25.330090      8.363619
  O       8.759306     23.043555      8.420594
  O       6.197752     26.210327      6.204462
  O       8.763143     24.631276      6.204355
  Si      6.101258     29.246910      7.772567
  Si      6.180876     35.498286      7.751116
  Si      8.911379     33.886543      7.668092
  Si      8.855763     30.815108      7.700818
  O       4.829837     30.076553      8.361202
  O       4.916531     34.642919      8.325489
  O       7.576868     34.710595      8.063318
  O       7.479904     30.062737      8.100206
  O       6.222131     27.730992      8.358251
  O       8.850562     32.348627      8.269072
  O       5.851791     29.152100      6.151497
  O       5.980852     35.665835      6.125584
  O       9.058610     33.767778      6.033850
  O       9.018975     30.910935      6.072476
  Si      6.235628     38.580945      7.824105
  Si      8.958340     40.062804      7.794919
  O       4.971286     39.449775      8.362331
  O       7.597113     39.335781      8.350690
  O       6.231816     37.022041      8.326013
  O       9.182258     41.563592      8.377798
  O       6.331041     38.566304      6.180405
  O       8.899393     40.041863      6.151499
  Si     11.490858     26.072275      7.763389
  Si     14.161515     24.551246      7.826001
  O      10.135074     25.380784      8.345575
  O      12.855274     25.396364      8.343707
  O      13.943325     23.026321      8.347782
  O      11.445945     25.833697      6.139649
  O      14.167911     24.652725      6.183220
  Si     11.496551     29.246733      7.714908
  Si     11.604109     35.366541      7.605285
  Si     14.241280     33.815186      7.614561
  Si     14.178103     30.745709      7.688335
  O      10.157930     29.994469      8.290426
  O      10.272052     34.624037      8.168876
  O      12.973857     34.656947      8.201601
  O      12.841019     30.004655      8.306132
  O      11.483816     27.675202      8.108048
  O      14.256670     32.286160      8.268486
  O      11.482356     29.449743      6.089898
  O      11.656447     35.033211      5.985601
  O      14.023821     33.600922      6.005096
  O      13.964881     30.816714      6.068644
  Si     11.640297     38.567884      7.655336
  Si     14.328532     40.051331      7.825404
  O      10.274477     39.209676      8.250746
  O      12.990769     39.232680      8.303096
  O      11.718707     36.956391      7.822287
  O      14.355855     41.558692      8.438295
  O      11.713370     38.956924      6.054386
  O      14.388228     40.018259      6.183093
  Si     16.874988     26.042914      7.855298
  O      15.547928     25.231299      8.362359
  O      18.202690     25.315748      8.447372
  O      16.804612     26.033472      6.212192
  Si     16.904022     29.120191      7.758261
  Si     17.030996     35.369315      7.686644
  Si     19.657258     33.763187      7.816531
  Si     19.551079     30.668552      7.828716
  O      15.501954     29.905696      8.081898
  O      15.649394     34.533218      7.942484
  O      18.292350     34.535241      8.298502
  O      18.154893     29.976726      8.346985
  O      16.810409     27.605626      8.352617
  O      19.655221     32.213696      8.346061
  O      17.108069     28.947271      6.138619
  O      17.325679     35.489402      6.075484
  O      19.620662     33.680936      6.173753
  O      19.475088     30.702529      6.184211
  Si     16.968399     38.435627      7.819766
  O      15.672199     39.274619      8.345851
  O      18.395151     39.013440      8.350096
  O      16.904484     36.867850      8.305879
  O      16.897350     38.407807      6.173568
  O      20.744841     29.709177      8.372420
  O      21.012840     34.455652      8.389038
  H       4.074657     24.986772      8.036591
  H       1.410409     29.602015      8.036749
  H       1.410409     35.007985      8.036749
  H       4.074657     39.623228      8.036591
  H       8.948181     22.173255      8.038302
  H       8.948181     42.436745      8.038302
  H      14.277762     22.173204      8.038282
  H      14.277762     42.436796      8.038282
  H      18.960557     24.876228      8.036406
  H      18.960557     39.733772      8.036406
  H      21.624717     29.491420      8.036583
  H      21.624717     35.118580      8.036583
  H      13.235699     34.085081      5.686445
  H      10.823868     34.651389      5.663414
  H       8.965191     32.863022      5.699468
  H       9.775215     30.411348      5.727305
  H      12.295183     29.852108      5.741666
  H      14.007474     31.727916      5.723594
  H      13.542499     39.757947      5.783828
  H      10.873681     39.271380      5.692656
  H       8.108709     39.599837      5.807114
  H       6.186604     37.685035      5.803405
  H       5.298407     35.089412      5.755345
  H       3.551631     32.961107      5.832645
  H       4.159894     30.300138      5.830558
  H       6.005971     28.269854      5.785034
  H       6.943127     25.713683      5.837861
  H       9.593433     24.943363      5.815618
  H      12.284006     25.522814      5.768365
  H      14.974483     25.057982      5.832094
  H      16.974600     26.902481      5.818655
  H      17.798678     29.519742      5.772831
  H      19.539698     31.598868      5.822088
  H      18.964538     34.272912      5.775932
  H      17.167134     36.375692      5.718488
  H      16.143015     38.901793      5.819348
  P       9.414130     36.982303     11.442703
  O      12.955121     37.368756     13.283625
  O      14.931301     39.472908     12.748654
  O      15.785520     37.489480     11.269753
  O      10.424992     37.936927     12.333933
  O      15.171567     34.696138     11.141818
  O       8.974483     35.915162     12.368508
  O      10.130863     36.669740     10.169296
  O       8.180979     37.971784     11.134794
  N      13.202154     35.395462     12.058262
  N      13.340104     33.380353     10.927307
  N      11.491077     32.109101     10.398883
  C      13.974162     38.928155     11.881131
  C      14.397957     37.528826     11.418529
  C      12.696954     38.632255     12.641259
  C      13.865776     36.638824     12.563128
  C      11.496120     38.579300     11.709418
  C      11.888889     35.167611     12.254238
  C      13.992260     34.514997     11.366884
  C      11.250262     34.076666     11.751839
  C      12.003244     33.168698     11.012684
  H      13.791302     39.586983     11.024071
  H      13.886544     37.275814     10.482466
  H      12.537053     39.341769     13.452948
  H      14.690171     36.301304     13.198771
  H      11.747512     38.051214     10.782701
  H      11.239850     39.612551     11.436926
  H      15.792364     39.178619     12.426869
  H      16.026899     36.577028     11.065117
  H      11.351031     35.920378     12.818299
  H      10.174550     34.027916     11.864559
  H      10.490294     32.022712     10.342971
  H      12.036522     31.512683      9.796068
  H       8.226337     38.281128     10.224999
  H      13.907341     32.785093     10.333989
161
Coordinates from ORCA-job /data/Seafile/cmp/protonated/frames/frame11/dry/cmp_prot11 E -13392.452595529332
  Si      3.534195     33.929187      7.822898
  Si      3.457175     30.830376      7.861973
  O       2.315991     34.871388      8.347305
  O       2.141437     30.078698      8.454132
  O       3.443021     32.385604      8.360888
  O       3.598934     33.864696      6.178274
  O       3.484645     30.877371      6.217579
  Si      6.142657     26.176093      7.849815
  Si      8.795614     24.565687      7.847203
  O       4.735897     25.585252      8.408446
  O       7.445121     25.329941      8.363763
  O       8.757470     23.043443      8.420007
  O       6.197844     26.211513      6.204291
  O       8.762304     24.632058      6.204359
  Si      6.100938     29.248007      7.773590
  Si      6.180972     35.499243      7.750475
  Si      8.911413     33.886978      7.667680
  Si      8.855613     30.815720      7.702484
  O       4.828181     30.076073      8.361902
  O       4.916626     34.644420      8.325516
  O       7.576822     34.711280      8.062744
  O       7.479045     30.064525      8.102371
  O       6.222368     27.731836      8.358648
  O       8.851169     32.349624      8.269761
  O       5.852366     29.154122      6.152273
  O       5.980512     35.666902      6.125096
  O       9.057982     33.767155      6.033320
  O       9.018502     30.910302      6.073957
  Si      6.236070     38.582027      7.823979
  Si      8.959188     40.063055      7.792720
  O       4.970905     39.449361      8.363308
  O       7.597681     39.337206      8.349124
  O       6.233320     37.022903      8.325467
  O       9.186510     41.563662      8.374965
  O       6.330380     38.567553      6.180114
  O       8.899596     40.042190      6.149405
  Si     11.489708     26.072285      7.764138
  Si     14.160398     24.551163      7.826236
  O      10.133807     25.380761      8.346064
  O      12.853905     25.395703      8.344239
  O      13.942532     23.026051      8.347755
  O      11.444553     25.834459      6.140308
  O      14.166696     24.652599      6.183437
  Si     11.495951     29.246684      7.716279
  Si     11.604392     35.366985      7.603880
  Si     14.240818     33.814879      7.613361
  Si     14.178233     30.744932      7.687906
  O      10.157480     29.994355      8.292241
  O      10.270858     34.626996      8.167639
  O      12.973619     34.656690      8.200998
  O      12.841130     30.004296      8.306490
  O      11.483318     27.675110      8.109520
  O      14.257510     32.285648      8.267717
  O      11.480960     29.449451      6.091139
  O      11.656555     35.030211      5.984610
  O      14.022657     33.599878      6.004098
  O      13.964674     30.815532      6.068313
  Si     11.641004     38.568972      7.653320
  Si     14.329640     40.051450      7.825229
  O      10.273455     39.207497      8.249388
  O      12.990560     39.234484      8.302578
  O      11.720827     36.957275      7.815200
  O      14.361978     41.558977      8.437762
  O      11.714081     38.961833      6.053290
  O      14.389485     40.018528      6.182830
  Si     16.874470     26.041843      7.855294
  O      15.546446     25.231967      8.362450
  O      18.200175     25.311153      8.447647
  O      16.804768     26.032544      6.212107
  Si     16.904287     29.119468      7.757853
  Si     17.031126     35.368302      7.685756
  Si     19.657480     33.762660      7.816432
  Si     19.551301     30.668103      7.828474
  O      15.501854     29.904518      8.081592
  O      15.649002     34.532869      7.941049
  O      18.291865     34.533594      8.297902
  O      18.154808     29.976622      8.346451
  O      16.811695     27.604837      8.352277
  O      19.656047     32.213149      8.345875
  O      17.108133     28.946456      6.138175
  O      17.326445     35.488355      6.074685
  O      19.621596     33.680348      6.173541
  O      19.475980     30.702036      6.183985
  Si     16.968834     38.434800      7.819707
  O      15.671948     39.272543      8.346064
  O      18.395573     39.012945      8.349824
  O      16.905503     36.866773      8.305346
  O      16.897823     38.407475      6.173454
  O      20.744571     29.708075      8.372465
  O      21.012170     34.456457      8.389414
  H       4.074657     24.986772      8.036591
  H       1.410409     29.602015      8.036749
  H       1.410409     35.007985      8.036749
  H       4.074657     39.623228      8.036591
  H       8.948181     22.173255      8.038302
  H       8.948181     42.436745      8.038302
  H      14.277762     22.173204      8.038282
  H      14.277762     42.436796      8.038282
  H      18.960557     24.876228      8.036406
  H      18.960557     39.733772      8.036406
  H      21.624717     29.491420      8.036583
  H      21.624717     35.118580      8.036583
  H      13.234016     34.083915      5.686134
  H      10.823593     34.648766      5.663048
  H       8.964369     32.862165      5.699642
  H       9.774841     30.410622      5.729079
  H      12.293974     29.850933      5.742397
  H      14.007108     31.726620      5.722937
  H      13.543497     39.759240      5.783434
  H      10.874217     39.275088      5.691021
  H       8.109006     39.599357      5.805754
  H       6.185179     37.686201      5.803558
  H       5.298188     35.090359      5.754830
  H       3.551953     32.961746      5.832938
  H       4.161020     30.301283      5.831550
  H       6.006722     28.272091      5.785400
  H       6.943664     25.715198      5.838095
  H       9.592773     24.944500      5.816223
  H      12.282564     25.523572      5.768916
  H      14.973348     25.057782      5.832404
  H      16.974320     26.901792      5.818890
  H      17.798659     29.518898      5.772252
  H      19.540290     31.598472      5.822023
  H      18.965530     34.272348      5.775648
  H      17.167711     36.374651      5.717812
  H      16.143384     38.901454      5.819437
  P       9.444405     36.984445     11.447479
  O      12.978182     37.370280     13.286406
  O      14.959022     39.471008     12.751080
  O      15.805720     37.488338     11.267774
  O      10.448098     37.945180     12.339459
  O      15.189253     34.697198     11.139299
  O       9.000509     35.920633     12.375234
  O      10.169930     36.666623     10.180184
  O       8.210626     37.969050     11.127978
  N      13.222415     35.396757     12.061147
  N      13.356371     33.382897     10.927533
  N      11.505200     32.112755     10.403380
  C      13.998887     38.929701     11.884923
  C      14.418598     37.529989     11.419622
  C      12.722207     38.635839     12.646737
  C      13.887365     36.640029     12.564615
  C      11.519933     38.588258     11.716449
  C      11.910256     35.167960     12.262342
  C      14.010320     34.516520     11.366810
  C      11.270036     34.076854     11.762190
  C      12.019870     33.170764     11.017961
  H      13.815963     39.590246     11.029179
  H      13.904782     37.278871     10.484327
  H      12.565508     39.343853     13.460349
  H      14.712938     36.302221     13.198684
  H      11.769552     38.063752     10.787422
  H      11.264285     39.623056     11.449349
  H      15.818667     39.173803     12.428142
  H      16.045265     36.575632     11.061959
  H      11.374434     35.919969     12.829214
  H      10.194784     34.028113     11.878575
  H      10.504312     32.024908     10.353070
  H      12.048684     31.516605      9.798601
  H       8.259692     38.277920     10.218340
  H      13.921696     32.787632     10.332415
161
Coordinates from ORCA-job /data/Seafile/cmp/protonated/frames/frame11/dry/cmp_prot11 E -13392.452604394504
  Si      3.534308     33.929909      7.823256
  Si      3.456492     30.831386      7.862683
  O       2.316222     34.872609      8.347137
  O       2.137918     30.083976      8.454246
  O       3.443867     32.386544      8.361698
  O       3.598725     33.865125      6.178681
  O       3.484830     30.877555      6.218230
  Si      6.142214     26.176694      7.850177
  Si      8.794780     24.565830      7.847610
  O       4.734629     25.586873      8.408106
  O       7.444120     25.329750      8.364344
  O       8.756324     23.043320      8.419785
  O       6.197606     26.212317      6.204681
  O       8.761667     24.632871      6.204745
  Si      6.100560     29.248825      7.775107
  Si      6.180843     35.499732      7.750454
  Si      8.911371     33.887263      7.668424
  Si      8.855404     30.816153      7.704534
  O       4.826598     30.075509      8.363105
  O       4.916624     34.645234      8.326043
  O       7.576785     34.711929      8.063264
  O       7.478255     30.065847      8.105011
  O       6.222319     27.732329      8.359406
  O       8.851517     32.350319      8.271176
  O       5.852871     29.156009      6.153537
  O       5.980455     35.666922      6.125187
  O       9.057625     33.766476      6.033899
  O       9.018199     30.909595      6.075909
  Si      6.236286     38.582705      7.823970
  Si      8.959717     40.063184      7.791150
  O       4.970567     39.449128      8.364221
  O       7.598089     39.337984      8.347926
  O       6.233785     37.023389      8.325160
  O       9.189448     41.563683      8.372941
  O       6.330043     38.567945      6.179960
  O       8.899794     40.042268      6.148055
  Si     11.488840     26.072418      7.765195
  Si     14.159472     24.551012      7.826658
  O      10.132869     25.380857      8.346878
  O      12.852812     25.395113      8.344966
  O      13.941830     23.025744      8.347901
  O      11.443395     25.835407      6.141314
  O      14.165686     24.652385      6.183804
  Si     11.495445     29.246734      7.718037
  Si     11.604559     35.367222      7.603682
  Si     14.240422     33.814687      7.613196
  Si     14.178298     30.744334      7.687985
  O      10.156957     29.994099      8.294461
  O      10.269533     34.629798      8.167857
  O      12.973511     34.656484      8.201450
  O      12.841104     30.004219      8.307339
  O      11.483095     27.675170      8.111399
  O      14.258320     32.285061      8.267793
  O      11.479842     29.449330      6.092828
  O      11.656267     35.026903      5.984935
  O      14.021365     33.599151      6.003962
  O      13.964431     30.814804      6.068489
  Si     11.641570     38.569718      7.651977
  Si     14.330306     40.051564      7.825423
  O      10.272584     39.205710      8.248611
  O      12.990493     39.235656      8.302463
  O      11.722748     36.957909      7.809680
  O      14.366015     41.559274      8.437559
  O      11.714638     38.965438      6.052699
  O      14.390030     40.018829      6.182904
  Si     16.874071     26.040864      7.855371
  O      15.545280     25.232355      8.362646
  O      18.197954     25.306924      8.448000
  O      16.804942     26.031813      6.212096
  Si     16.904403     29.118819      7.757556
  Si     17.031328     35.367340      7.685234
  Si     19.657737     33.762138      7.816511
  Si     19.551454     30.667583      7.828174
  O      15.501577     29.903314      8.081738
  O      15.648795     34.532516      7.940413
  O      18.291496     34.531956      8.297657
  O      18.154663     29.976493      8.345935
  O      16.812845     27.604106      8.352057
  O      19.657232     32.212495      8.345673
  O      17.107782     28.945834      6.137809
  O      17.327187     35.487256      6.074250
  O      19.622388     33.679832      6.173528
  O      19.476625     30.701619      6.183719
  Si     16.969147     38.434060      7.819599
  O      15.672082     39.271363      8.346038
  O      18.396150     39.012163      8.349135
  O      16.906377     36.865835      8.304892
  O      16.897962     38.406681      6.173271
  O      20.744095     29.706526      8.372266
  O      21.011582     34.457283      8.389956
  H       4.074657     24.986772      8.036591
  H       1.410409     29.602015      8.036749
  H       1.410409     35.007985      8.036749
  H       4.074657     39.623228      8.036591
  H       8.948181     22.173255      8.038302
  H       8.948181     42.436745      8.038302
  H      14.277762     22.173204      8.038282
  H      14.277762     42.436796      8.038282
  H      18.960557     24.876228      8.036406
  H      18.960557     39.733772      8.036406
  H      21.624717     29.491420      8.036583
  H      21.624717     35.118580      8.036583
  H      13.231868     34.082511      5.686727
  H      10.822846     34.645859      5.664122
  H       8.963904     32.861384      5.700588
  H       9.774702     30.409861      5.731388
  H      12.292957     29.850430      5.743884
  H      14.006418     31.725885      5.723012
  H      13.543968     39.760148      5.783298
  H      10.874683     39.277754      5.689937
  H       8.109167     39.598841      5.805108
  H       6.184147     37.686346      5.804147
  H       5.297948     35.090536      5.754988
  H       3.552231     32.962001      5.833688
  H       4.162344     30.302183      5.833062
  H       6.007308     28.274156      5.786315
  H       6.943696     25.716240      5.838677
  H       9.592268     24.945678      5.817122
  H      12.281390     25.524483      5.769893
  H      14.972425     25.057497      5.832892
  H      16.973849     26.901384      5.819296
  H      17.798377     29.518127      5.771828
  H      19.540695     31.598218      5.822068
  H      18.966360     34.271899      5.775633
  H      17.168155     36.373632      5.717638
  H      16.143580     38.900862      5.819425
  P       9.474735     36.986331     11.453043
  O      12.999975     37.370758     13.288911
  O      14.986725     39.467019     12.752486
  O      15.822855     37.485770     11.262261
  O      10.470287     37.953060     12.346670
  O      15.205142     34.696744     11.136358
  O       9.025482     35.925671     12.382023
  O      10.210406     36.662561     10.192816
  O       8.241147     37.966381     11.120558
  N      13.241053     35.396778     12.063892
  N      13.371212     33.383183     10.929400
  N      11.518061     32.113742     10.410029
  C      14.022219     38.930335     11.888484
  C      14.436388     37.530191     11.419377
  C      12.746677     38.639046     12.652929
  C      13.907328     36.640202     12.565245
  C      11.542102     38.598368     11.725324
  C      11.930184     35.166796     12.270896
  C      14.026781     34.516402     11.367097
  C      11.288466     34.075103     11.773731
  C      12.035094     33.170553     11.024890
  H      13.838863     39.592892     11.034284
  H      13.918754     37.281290     10.485554
  H      12.594291     39.345091     13.469054
  H      14.734632     36.302536     13.197256
  H      11.788630     38.079914     10.792424
  H      11.286649     39.635331     11.466462
  H      15.844258     39.166569     12.426851
  H      16.059940     36.572547     11.055732
  H      11.396368     35.918204     12.840314
  H      10.213737     34.026160     11.894086
  H      10.517084     32.024708     10.364873
  H      12.059561     31.518552      9.802579
  H       8.294317     38.274682     10.211074
  H      13.934588     32.787877     10.332480
161
Coordinates from ORCA-job /data/Seafile/cmp/protonated/frames/frame11/dry/cmp_prot11 E -13392.452617573590
  Si      3.534196     33.930347      7.823829
  Si      3.455756     30.832212      7.863748
  O       2.316463     34.873923      8.346962
  O       2.134332     30.089017      8.454636
  O       3.444288     32.387261      8.362902
  O       3.598251     33.865182      6.179299
  O       3.485200     30.877561      6.219237
  Si      6.141868     26.176862      7.850970
  Si      8.794351     24.566006      7.848259
  O       4.733983     25.587201      8.408739
  O       7.443490     25.329513      8.365231
  O       8.755933     23.043233      8.419842
  O       6.197011     26.212692      6.205496
  O       8.761172     24.633717      6.205393
  Si      6.100086     29.249359      7.776937
  Si      6.180395     35.499796      7.750689
  Si      8.911077     33.887300      7.669775
  Si      8.855078     30.816385      7.706735
  O       4.825014     30.074826      8.364633
  O       4.916519     34.645414      8.326838
  O       7.576700     34.712591      8.064417
  O       7.477470     30.066698      8.107964
  O       6.221953     27.732477      8.360316
  O       8.851486     32.350719      8.272888
  O       5.853300     29.157736      6.155115
  O       5.980469     35.665897      6.125514
  O       9.057273     33.765334      6.035089
  O       9.017985     30.908595      6.078099
  Si      6.236215     38.583006      7.823766
  Si      8.959959     40.063261      7.789758
  O       4.970377     39.449180      8.364889
  O       7.598409     39.338157      8.346550
  O       6.233195     37.023524      8.324739
  O       9.191245     41.563589      8.371428
  O       6.329841     38.567574      6.179632
  O       8.900211     40.042274      6.146996
  Si     11.488216     26.072801      7.766393
  Si     14.158632     24.550828      7.827101
  O      10.132205     25.381196      8.347834
  O      12.851923     25.394673      8.345714
  O      13.941051     23.025425      8.348019
  O      11.442462     25.836646      6.142497
  O      14.164764     24.652194      6.184154
  Si     11.495058     29.247027      7.719982
  Si     11.604514     35.367066      7.604222
  Si     14.240029     33.814561      7.613569
  Si     14.178362     30.743902      7.688231
  O      10.156354     29.993820      8.296827
  O      10.267737     34.632633      8.168969
  O      12.973468     34.656220      8.202506
  O      12.840980     30.004576      8.308424
  O      11.483166     27.675519      8.113482
  O      14.259173     32.284371      8.268264
  O      11.479158     29.449509      6.094774
  O      11.655373     35.022490      5.986196
  O      14.019862     33.598670      6.004226
  O      13.964278     30.814496      6.068823
  Si     11.642031     38.570171      7.650822
  Si     14.330482     40.051668      7.825876
  O      10.271726     39.203953      8.248113
  O      12.990514     39.236147      8.302551
  O      11.724456     36.958263      7.804307
  O      14.367878     41.559528      8.437707
  O      11.715101     38.968633      6.052332
  O      14.389783     40.019369      6.183234
  Si     16.873753     26.039895      7.855396
  O      15.544333     25.232450      8.362802
  O      18.195804     25.302726      8.448390
  O      16.805192     26.031223      6.212040
  Si     16.904386     29.118186      7.757162
  Si     17.031553     35.366440      7.684691
  Si     19.658023     33.761611      7.816521
  Si     19.551523     30.666957      7.827585
  O      15.501118     29.901987      8.082062
  O      15.648711     34.532125      7.940035
  O      18.291185     34.530306      8.297426
  O      18.154432     29.976329      8.345226
  O      16.813874     27.603366      8.351752
  O      19.658829     32.211708      8.345229
  O      17.107039     28.945375      6.137320
  O      17.327946     35.486225      6.073817
  O      19.623143     33.679298      6.173493
  O      19.476959     30.701269      6.183187
  Si     16.969289     38.433391      7.819236
  O      15.672597     39.271130      8.345609
  O      18.396892     39.010977      8.347772
  O      16.906987     36.864996      8.304181
  O      16.897686     38.405485      6.172819
  O      20.743254     29.704294      8.371555
  O      21.011021     34.458124      8.390553
  H       4.074657     24.986772      8.036591
  H       1.410409     29.602015      8.036749
  H       1.410409     35.007985      8.036749
  H       4.074657     39.623228      8.036591
  H       8.948181     22.173255      8.038302
  H       8.948181     42.436745      8.038302
  H      14.277762     22.173204      8.038282
  H      14.277762     42.436796      8.038282
  H      18.960557     24.876228      8.036406
  H      18.960557     39.733772      8.036406
  H      21.624717     29.491420      8.036583
  H      21.624717     35.118580      8.036583
  H      13.229306     34.081032      5.687758
  H      10.821321     34.641903      5.666400
  H       8.963281     32.860205      5.701995
  H       9.774696     30.408756      5.734070
  H      12.292431     29.850466      5.745949
  H      14.005951     31.725708      5.723529
  H      13.543776     39.761190      5.783249
  H      10.875160     39.280416      5.689210
  H       8.109655     39.598297      5.804503
  H       6.183400     37.685652      5.804700
  H       5.297543     35.089855      5.755510
  H       3.552535     32.961837      5.834717
  H       4.163884     30.302883      5.834994
  H       6.007716     28.276021      5.787586
  H       6.943126     25.716673      5.839444
  H       9.591828     24.946839      5.818101
  H      12.280463     25.525672      5.771094
  H      14.971575     25.057213      5.833325
  H      16.973384     26.901157      5.819717
  H      17.797753     29.517479      5.771311
  H      19.540771     31.598091      5.821996
  H      18.967238     34.271491      5.775551
  H      17.168451     36.372728      5.717602
  H      16.143493     38.900008      5.819113
  P       9.509294     36.988313     11.459193
  O      13.022642     37.370003     13.291627
  O      15.017197     39.460959     12.754231
  O      15.839003     37.482593     11.253405
  O      10.493528     37.962094     12.356364
  O      15.221475     34.696061     11.131816
  O       9.052709     35.930868     12.388392
  O      10.259079     36.657768     10.208540
  O       8.276610     37.962935     11.109543
  N      13.260549     35.395965     12.066399
  N      13.387039     33.382241     10.931769
  N      11.532016     32.112940     10.418031
  C      14.046564     38.930649     11.893267
  C      14.453460     37.530269     11.418373
  C      12.772997     38.642284     12.661578
  C      13.928044     36.639627     12.565219
  C      11.564951     38.611571     11.737990
  C      11.951284     35.164232     12.280246
  C      14.043955     34.515700     11.366763
  C      11.308233     34.071536     11.786728
  C      12.051399     33.168787     11.032872
  H      13.862256     39.595873     11.041153
  H      13.930215     37.284491     10.486826
  H      12.626690     39.345260     13.481437
  H      14.757638     36.302388     13.194598
  H      11.806957     38.102560     10.799177
  H      11.309799     39.651643     11.491365
  H      15.871714     39.157272     12.423536
  H      16.072821     36.568580     11.046285
  H      11.419558     35.914785     12.852565
  H      10.234179     34.021897     11.911696
  H      10.530962     32.022769     10.378451
  H      12.071025     31.519877      9.806329
  H       8.335603     38.270747     10.200369
  H      13.948232     32.787235     10.332490
161
Coordinates from ORCA-job /data/Seafile/cmp/protonated/frames/frame11/dry/cmp_prot11 E -13392.452633372906
  Si      3.534107     33.931050      7.824506
  Si      3.454723     30.833437      7.865004
  O       2.316781     34.875662      8.346726
  O       2.129099     30.096574      8.454838
  O       3.445113     32.388343      8.364414
  O       3.597763     33.865375      6.180015
  O       3.485782     30.877593      6.220445
  Si      6.141332     26.177265      7.851840
  Si      8.793607     24.566267      7.848897
  O       4.732919     25.588047      8.409291
  O       7.442472     25.329220      8.366218
  O       8.755171     23.043160      8.419709
  O       6.196384     26.213529      6.206410
  O       8.760340     24.634869      6.206038
  Si      6.099460     29.250189      7.779445
  Si      6.179804     35.500090      7.750799
  Si      8.910587     33.887315      7.671308
  Si      8.854584     30.816750      7.709944
  O       4.822695     30.073834      8.366590
  O       4.916349     34.645994      8.327793
  O       7.576483     34.713513      8.065671
  O       7.476309     30.068004      8.112201
  O       6.221492     27.732784      8.361496
  O       8.851478     32.351378      8.275165
  O       5.854094     29.160189      6.157263
  O       5.980350     35.664854      6.125744
  O       9.056734     33.763538      6.036517
  O       9.017271     30.907298      6.081250
  Si      6.236108     38.583579      7.823303
  Si      8.960409     40.063497      7.787340
  O       4.970157     39.449279      8.365714
  O       7.598908     39.338743      8.344089
  O       6.232764     37.023898      8.324097
  O       9.194227     41.563448      8.368838
  O       6.329177     38.567341      6.179003
  O       8.901161     40.042445      6.144948
  Si     11.487236     26.073391      7.767686
  Si     14.157340     24.550618      7.827404
  O      10.131149     25.381718      8.348823
  O      12.850558     25.394107      8.346390
  O      13.939947     23.025041      8.347979
  O      11.441094     25.838347      6.143737
  O      14.163284     24.652036      6.184342
  Si     11.494497     29.247537      7.722375
  Si     11.604362     35.366780      7.604718
  Si     14.239383     33.814343      7.613372
  Si     14.178561     30.743244      7.687947
  O      10.155633     29.993605      8.299982
  O      10.264964     34.636831      8.170132
  O      12.973298     34.655686      8.203544
  O      12.840976     30.005070      8.309414
  O      11.483171     27.676033      8.115932
  O      14.260439     32.283438      8.268164
  O      11.477920     29.449978      6.097171
  O      11.654055     35.015836      5.987743
  O      14.017767     33.597855      6.004014
  O      13.963998     30.813940      6.068688
  Si     11.642702     38.570923      7.649059
  Si     14.330802     40.051801      7.826489
  O      10.270229     39.201016      8.247277
  O      12.990397     39.237050      8.302804
  O      11.726445     36.958824      7.795550
  O      14.371049     41.559882      8.437854
  O      11.715827     38.974259      6.051890
  O      14.389599     40.020107      6.183745
  Si     16.873246     26.038447      7.855134
  O      15.542817     25.232742      8.362728
  O      18.192461     25.296405      8.448693
  O      16.805549     26.030259      6.211696
  Si     16.904478     29.117234      7.756253
  Si     17.031761     35.365262      7.683648
  Si     19.658355     33.760944      7.816275
  Si     19.551656     30.666146      7.826589
  O      15.500629     29.900125      8.081888
  O      15.648415     34.531655      7.938828
  O      18.290637     34.528058      8.296783
  O      18.154156     29.976071      8.343963
  O      16.815375     27.602261      8.350949
  O      19.660848     32.210695      8.344418
  O      17.106327     28.944598      6.136312
  O      17.329015     35.485078      6.072951
  O      19.624233     33.678579      6.173203
  O      19.477464     30.700797      6.182254
  Si     16.969449     38.432479      7.818849
  O      15.673094     39.270548      8.345270
  O      18.397756     39.009556      8.346116
  O      16.907775     36.863804      8.303100
  O      16.897270     38.404089      6.172329
  O      20.742151     29.701436      8.370538
  O      21.010129     34.459305      8.391243
  H       4.074657     24.986772      8.036591
  H       1.410409     29.602015      8.036749
  H       1.410409     35.007985      8.036749
  H       4.074657     39.623228      8.036591
  H       8.948181     22.173255      8.038302
  H       8.948181     42.436745      8.038302
  H      14.277762     22.173204      8.038282
  H      14.277762     42.436796      8.038282
  H      18.960557     24.876228      8.036406
  H      18.960557     39.733772      8.036406
  H      21.624717     29.491420      8.036583
  H      21.624717     35.118580      8.036583
  H      13.225443     34.078501      5.688768
  H      10.819196     34.635677      5.669422
  H       8.962568     32.858220      5.703992
  H       9.774405     30.407633      5.737757
  H      12.291277     29.850807      5.748283
  H      14.004839     31.725415      5.723760
  H      13.543573     39.762851      5.783269
  H      10.875858     39.285121      5.688237
  H       8.110886     39.597725      5.802727
  H       6.181921     37.685158      5.804984
  H       5.297010     35.089139      5.755961
  H       3.552919     32.961791      5.835887
  H       4.166165     30.303985      5.837483
  H       6.008524     28.278691      5.789254
  H       6.942529     25.717575      5.840305
  H       9.591017     24.948455      5.819122
  H      12.279044     25.527249      5.772291
  H      14.970273     25.056643      5.833494
  H      16.972730     26.900650      5.819925
  H      17.797162     29.516475      5.770222
  H      19.541171     31.597867      5.821593
  H      18.968636     34.271027      5.775095
  H      17.168986     36.371736      5.717250
  H      16.143336     38.899055      5.818794
  P       9.559716     36.989803     11.465550
  O      13.053967     37.367465     13.296781
  O      15.059341     39.451806     12.760095
  O      15.862246     37.478380     11.244177
  O      10.525895     37.973830     12.369287
  O      15.244789     34.695766     11.124855
  O       9.091603     35.936567     12.393818
  O      10.331652     36.651001     10.229861
  O       8.328679     37.956055     11.089962
  N      13.288510     35.394033     12.070646
  N      13.410042     33.381077     10.934102
  N      11.552503     32.111522     10.428612
  C      14.080780     38.930542     11.902665
  C      14.478003     37.530228     11.419280
  C      12.809778     38.645499     12.675825
  C      13.957286     36.637941     12.566696
  C      11.597545     38.629428     11.757033
  C      11.981590     35.159460     12.294036
  C      14.068630     34.514707     11.366116
  C      11.336947     34.065397     11.805300
  C      12.075220     33.165905     11.043597
  H      13.895373     39.599942     11.053772
  H      13.947274     37.289341     10.490673
  H      12.671740     39.343718     13.501156
  H      14.789741     36.301139     13.192710
  H      11.834564     38.133814     10.810336
  H      11.343361     39.673706     11.527633
  H      15.909891     39.144366     12.422480
  H      16.091635     36.563513     11.035462
  H      11.452783     35.908306     12.870995
  H      10.263872     34.014544     11.936699
  H      10.551388     32.019480     10.397533
  H      12.087588     31.521777      9.810340
  H       8.398113     38.264869     10.182086
  H      13.968051     32.787030     10.330933
161
Coordinates from ORCA-job /data/Seafile/cmp/protonated/frames/frame11/dry/cmp_prot11 E -13392.452654114135
  Si      3.533869     33.931768      7.825681
  Si      3.453353     30.834936      7.866801
  O       2.317078     34.877722      8.346604
  O       2.122114     30.106534      8.454947
  O       3.445943     32.389596      8.366771
  O       3.597387     33.865374      6.181194
  O       3.486923     30.877672      6.222243
  Si      6.140686     26.177559      7.853150
  Si      8.792873     24.566662      7.849497
  O       4.732174     25.587998      8.410740
  O       7.441398     25.328851      8.367437
  O       8.754804     23.043201      8.419516
  O       6.195513     26.214716      6.207787
  O       8.759107     24.636313      6.206694
  Si      6.098572     29.251068      7.782987
  Si      6.178691     35.500372      7.751344
  Si      8.909497     33.887119      7.673828
  Si      8.853717     30.817144      7.714436
  O       4.819613     30.072451      8.369313
  O       4.915933     34.646539      8.329458
  O       7.575917     34.714720      8.067865
  O       7.474756     30.069265      8.118097
  O       6.220566     27.732952      8.363113
  O       8.851145     32.352056      8.278515
  O       5.855136     29.163141      6.160361
  O       5.980003     35.662953      6.126383
  O       9.055985     33.760584      6.039116
  O       9.015673     30.905756      6.085699
  Si      6.235652     38.584084      7.822320
  Si      8.960817     40.063863      7.783806
  O       4.970216     39.450040      8.366140
  O       7.599475     39.339472      8.339962
  O       6.231462     37.024341      8.323516
  O       9.197407     41.563056      8.365446
  O       6.328009     38.566208      6.177877
  O       8.903398     40.042681      6.141854
  Si     11.486069     26.074476      7.768651
  Si     14.155603     24.550439      7.827257
  O      10.129893     25.382778      8.349550
  O      12.848831     25.393684      8.346556
  O      13.938457     23.024675      8.347493
  O      11.439508     25.840528      6.144655
  O      14.161207     24.652218      6.184034
  Si     11.493832     29.248647      7.724825
  Si     11.603801     35.365788      7.606027
  Si     14.238425     33.814099      7.612963
  Si     14.178950     30.742556      7.686843
  O      10.154809     29.993610      8.303737
  O      10.260460     34.642720      8.172437
  O      12.973010     34.654709      8.205235
  O      12.841011     30.006200      8.310006
  O      11.483277     27.677060      8.118127
  O      14.262133     32.282156      8.267556
  O      11.476416     29.451492      6.099743
  O      11.651613     35.004809      5.990779
  O      14.014776     33.596932      6.003647
  O      13.963684     30.813797      6.067798
  Si     11.643514     38.571679      7.646652
  Si     14.330721     40.051930      7.827503
  O      10.267933     39.196427      8.246335
  O      12.990158     39.237579      8.303474
  O      11.727922     36.959294      7.782304
  O      14.372858     41.560271      8.438432
  O      11.716722     38.982968      6.051595
  O      14.388759     40.021263      6.184760
  Si     16.872562     26.036496      7.854329
  O      15.540846     25.232971      8.362181
  O      18.187751     25.287698      8.448708
  O      16.805994     26.029097      6.210858
  Si     16.904614     29.115930      7.754541
  Si     17.031919     35.364020      7.682092
  Si     19.658687     33.760206      7.815655
  Si     19.551709     30.665139      7.824836
  O      15.499997     29.897613      8.080865
  O      15.647943     34.531163      7.936672
  O      18.289861     34.525342      8.295757
  O      18.153739     29.975665      8.341884
  O      16.817176     27.600739      8.349385
  O      19.663631     32.209402      8.343005
  O      17.105604     28.943521      6.134520
  O      17.330554     35.484265      6.071715
  O      19.625451     33.677618      6.172632
  O      19.477447     30.700493      6.180591
  Si     16.969352     38.431458      7.818317
  O      15.673905     39.270737      8.344843
  O      18.398737     39.007697      8.343643
  O      16.908261     36.862448      8.301474
  O      16.896080     38.402138      6.171680
  O      20.740429     29.697474      8.368555
  O      21.008940     34.460790      8.391995
  H       4.074657     24.986772      8.036591
  H       1.410409     29.602015      8.036749
  H       1.410409     35.007985      8.036749
  H       4.074657     39.623228      8.036591
  H       8.948181     22.173255      8.038302
  H       8.948181     42.436745      8.038302
  H      14.277762     22.173204      8.038282
  H      14.277762     42.436796      8.038282
  H      18.960557     24.876228      8.036406
  H      18.960557     39.733772      8.036406
  H      21.624717     29.491420      8.036583
  H      21.624717     35.118580      8.036583
  H      13.219432     34.074496      5.690401
  H      10.815442     34.625389      5.674701
  H       8.961473     32.854921      5.707507
  H       9.773490     30.406639      5.742696
  H      12.289816     29.852467      5.750877
  H      14.003248     31.725970      5.724070
  H      13.542629     39.765523      5.783546
  H      10.876550     39.292484      5.687443
  H       8.113732     39.597456      5.798998
  H       6.179759     37.683824      5.804795
  H       5.296139     35.087543      5.757026
  H       3.553531     32.961542      5.837524
  H       4.169574     30.305540      5.840933
  H       6.009614     28.281915      5.791749
  H       6.941265     25.718418      5.841329
  H       9.589658     24.950343      5.819841
  H      12.277397     25.529255      5.773165
  H      14.968579     25.055731      5.832922
  H      16.971759     26.900055      5.819713
  H      17.796498     29.515242      5.768326
  H      19.541372     31.597869      5.820653
  H      18.970602     34.270625      5.774091
  H      17.169649     36.371130      5.716743
  H      16.142719     38.897922      5.818249
  P       9.632787     36.986237     11.469853
  O      13.095229     37.357464     13.306015
  O      15.116785     39.432792     12.774790
  O      15.893997     37.468544     11.235321
  O      10.569702     37.984918     12.385632
  O      15.277269     34.692142     11.115105
  O       9.146069     35.938220     12.394158
  O      10.439894     36.637532     10.258187
  O       8.405533     37.939774     11.054158
  N      13.327524     35.385995     12.077876
  N      13.443234     33.374814     10.937459
  N      11.582903     32.103627     10.443671
  C      14.127860     38.925390     11.920831
  C      14.511660     37.525916     11.424290
  C      12.859983     38.643981     12.699477
  C      13.997154     36.630094     12.571272
  C      11.643077     38.649933     11.785864
  C      12.023840     35.147082     12.313614
  C      14.103315     34.509109     11.365672
  C      11.377852     34.050710     11.831367
  C      12.109752     33.156442     11.058586
  H      13.941780     39.601472     11.076967
  H      13.970324     37.293011     10.499828
  H      12.733090     39.334792     13.532797
  H      14.832919     36.293976     13.193478
  H      11.875442     38.174220     10.828506
  H      11.391360     39.699997     11.581492
  H      15.961951     39.121968     12.426588
  H      16.116944     36.552566     11.023877
  H      11.498681     35.892986     12.897182
  H      10.306152     33.997612     11.971172
  H      10.581759     32.009442     10.423959
  H      12.111773     31.520203      9.814197
  H       8.494715     38.254219     10.150285
  H      13.996826     32.783087     10.328006
161
Coordinates from ORCA-job /data/Seafile/cmp/protonated/frames/frame11/dry/cmp_prot11 E -13392.452658553519
  Si      3.532506     33.929035      7.825837
  Si      3.454459     30.832212      7.867574
  O       2.316433     34.875277      8.347269
  O       2.128422     30.095666      8.456948
  O       3.442597     32.386890      8.367316
  O       3.596205     33.862444      6.181160
  O       3.487332     30.876263      6.223153
  Si      6.142004     26.174275      7.855062
  Si      8.796386     24.566597      7.849781
  O       4.738454     25.577089      8.416962
  O       7.445360     25.329292      8.367999
  O       8.760733     23.043684      8.421246
  O       6.194294     26.211564      6.209617
  O       8.760786     24.634804      6.207131
  Si      6.098813     29.248135      7.782185
  Si      6.177059     35.497759      7.751081
  Si      8.907999     33.885695      7.674519
  Si      8.853289     30.815578      7.711801
  O       4.822612     30.073035      8.368991
  O       4.915296     34.642421      8.328841
  O       7.575104     34.713662      8.068193
  O       7.476289     30.064331      8.115147
  O       6.218766     27.730323      8.363002
  O       8.848532     32.349799      8.277206
  O       5.853745     29.158478      6.160030
  O       5.979341     35.658341      6.125717
  O       9.057156     33.759389      6.040438
  O       9.015406     30.906073      6.083534
  Si      6.233738     38.580944      7.819617
  Si      8.958107     40.063449      7.785784
  O       4.971895     39.451851      8.362237
  O       7.598321     39.334880      8.338747
  O       6.225532     37.021947      8.321959
  O       9.185455     41.561808      8.371879
  O       6.328123     38.561957      6.175553
  O       8.903978     40.044364      6.143682
  Si     11.488866     26.075509      7.766800
  Si     14.157795     24.550741      7.826489
  O      10.133005     25.383882      8.348309
  O      12.851824     25.395685      8.344920
  O      13.939834     23.025342      8.347139
  O      11.442917     25.839886      6.143009
  O      14.163493     24.653101      6.183209
  Si     11.495175     29.249965      7.721873
  Si     11.602311     35.363164      7.608173
  Si     14.238899     33.814740      7.614591
  Si     14.179007     30.744520      7.686799
  O      10.155572     29.994454      8.300081
  O      10.260008     34.638707      8.175486
  O      12.973289     34.654920      8.205940
  O      12.840636     30.008692      8.308921
  O      11.484940     27.678416      8.114694
  O      14.260748     32.283022      8.268348
  O      11.479719     29.453731      6.097265
  O      11.649150     35.002887      5.993236
  O      14.016215     33.598354      6.004917
  O      13.964524     30.816717      6.067539
  Si     11.641789     38.569307      7.646794
  Si     14.326663     40.051909      7.826483
  O      10.269348     39.199314      8.247041
  O      12.990417     39.231583      8.302020
  O      11.723712     36.957086      7.787301
  O      14.352506     41.559235      8.440024
  O      11.713784     38.978271      6.051140
  O      14.384250     40.022734      6.184097
  Si     16.873663     26.038441      7.854306
  O      15.543855     25.231248      8.361887
  O      18.191803     25.295082      8.448720
  O      16.806139     26.031081      6.211089
  Si     16.903995     29.117291      7.754760
  Si     17.031304     35.366653      7.682164
  Si     19.657957     33.761688      7.815067
  Si     19.551076     30.666103      7.824266
  O      15.499890     29.899458      8.080904
  O      15.648417     34.532197      7.937474
  O      18.290291     34.528895      8.295907
  O      18.153758     29.975905      8.342016
  O      16.814609     27.602189      8.349672
  O      19.662844     32.210562      8.342294
  O      17.105121     28.945138      6.134841
  O      17.329704     35.487559      6.071905
  O      19.623607     33.678810      6.172470
  O      19.474542     30.701919      6.180016
  Si     16.967517     38.433624      7.816405
  O      15.674957     39.278118      8.341581
  O      18.397724     39.007751      8.341631
  O      16.904650     36.865193      8.300075
  O      16.893490     38.402329      6.169828
  O      20.740093     29.698471      8.367068
  O      21.009636     34.459866      8.391433
  H       4.074657     24.986772      8.036591
  H       1.410409     29.602015      8.036749
  H       1.410409     35.007985      8.036749
  H       4.074657     39.623228      8.036591
  H       8.948181     22.173255      8.038302
  H       8.948181     42.436745      8.038302
  H      14.277762     22.173204      8.038282
  H      14.277762     42.436796      8.038282
  H      18.960557     24.876228      8.036406
  H      18.960557     39.733772      8.036406
  H      21.624717     29.491420      8.036583
  H      21.624717     35.118580      8.036583
  H      13.220114     34.073795      5.690869
  H      10.812831     34.623327      5.677295
  H       8.962626     32.854027      5.707911
  H       9.773632     30.407901      5.740075
  H      12.292627     29.857266      5.749838
  H      14.003555     31.729736      5.725633
  H      13.538489     39.765968      5.782502
  H      10.872966     39.290038      5.689718
  H       8.114305     39.601897      5.797405
  H       6.181273     37.679778      5.801377
  H       5.294487     35.083409      5.757267
  H       3.552059     32.958703      5.837252
  H       4.167929     30.302568      5.840509
  H       6.007593     28.276738      5.792359
  H       6.938034     25.713646      5.841436
  H       9.590581     24.947958      5.818166
  H      12.280913     25.528521      5.771829
  H      14.970923     25.055851      5.831512
  H      16.972307     26.901585      5.819223
  H      17.796077     29.517034      5.768852
  H      19.539658     31.599155      5.819968
  H      18.969497     34.272261      5.773439
  H      17.168465     36.374604      5.717130
  H      16.140790     38.898852      5.815902
  P       9.608849     36.973718     11.470425
  O      13.071291     37.348816     13.305150
  O      15.093827     39.424729     12.777298
  O      15.872719     37.461946     11.234547
  O      10.549029     37.972474     12.383256
  O      15.262112     34.684986     11.118756
  O       9.126023     35.927857     12.398247
  O      10.412320     36.622989     10.256236
  O       8.380774     37.926808     11.053991
  N      13.309693     35.377277     12.077543
  N      13.432118     33.362805     10.942896
  N      11.575877     32.086873     10.446043
  C      14.105680     38.917195     11.921711
  C      14.490310     37.518233     11.425161
  C      12.837851     38.634991     12.699427
  C      13.976765     36.621975     12.572132
  C      11.620986     38.639949     11.784596
  C      12.004003     35.139765     12.305302
  C      14.088384     34.500458     11.368885
  C      11.361183     34.041879     11.821858
  C      12.098181     33.144339     11.057321
  H      13.920303     39.592191     11.076909
  H      13.947033     37.285111     10.502075
  H      12.710586     39.327468     13.531355
  H      14.810904     36.287568     13.197272
  H      11.855825     38.163805     10.827754
  H      11.369448     39.689578     11.577983
  H      15.939368     39.119470     12.425030
  H      16.095585     36.545202     11.026452
  H      11.475400     35.886886     12.884157
  H      10.288696     33.988273     11.955501
  H      10.574439     31.996516     10.417602
  H      12.105676     31.506703      9.813880
  H       8.473654     38.241350     10.150300
  H      13.988000     32.772220     10.334449
161
Coordinates from ORCA-job /data/Seafile/cmp/protonated/frames/frame11/dry/cmp_prot11 E -13392.452838295818
  Si      3.534447     33.933656      7.825634
  Si      3.452104     30.837391      7.866308
  O       2.316886     34.878229      8.346797
  O       2.114239     30.119915      8.451993
  O       3.449049     32.391876      8.367329
  O       3.599298     33.866489      6.180856
  O       3.488500     30.878753      6.222081
  Si      6.139421     26.179825      7.852108
  Si      8.790431     24.567260      7.847405
  O       4.730157     25.591348      8.408909
  O       7.438701     25.328851      8.365844
  O       8.752744     23.043790      8.417168
  O       6.196859     26.219350      6.206911
  O       8.756285     24.637496      6.204761
  Si      6.098051     29.253131      7.785385
  Si      6.177410     35.503843      7.749094
  Si      8.906976     33.887921      7.671812
  Si      8.852274     30.819115      7.719710
  O       4.815890     30.071287      8.369787
  O       4.915067     34.651130      8.329044
  O       7.573640     34.716755      8.064973
  O       7.472591     30.072191      8.123757
  O       6.220193     27.734503      8.363413
  O       8.851360     32.354879      8.280111
  O       5.857475     29.166160      6.162331
  O       5.976550     35.665947      6.124020
  O       9.054359     33.755975      6.038575
  O       9.010102     30.906256      6.090367
  Si      6.235564     38.586568      7.818170
  Si      8.962657     40.065471      7.773888
  O       4.971972     39.453246      8.362952
  O       7.600743     39.344830      8.328099
  O       6.233424     37.027621      8.321688
  O       9.207150     41.562227      8.355759
  O       6.323211     38.567176      6.173740
  O       8.910059     40.045507      6.131249
  Si     11.483338     26.076291      7.765869
  Si     14.152316     24.551296      7.824324
  O      10.126825     25.384687      8.346727
  O      12.845405     25.394111      8.343346
  O      13.936711     23.025132      8.344487
  O      11.437095     25.841839      6.141555
  O      14.156606     24.655156      6.181169
  Si     11.492388     29.251237      7.723715
  Si     11.602598     35.363757      7.603235
  Si     14.236506     33.813241      7.606460
  Si     14.180150     30.741381      7.680445
  O      10.155006     29.996660      8.305290
  O      10.252581     34.652913      8.169583
  O      12.971310     34.651972      8.202577
  O      12.842120     30.007380      8.305759
  O      11.481373     27.678718      8.114807
  O      14.264208     32.281123      8.260592
  O      11.472433     29.456106      6.098909
  O      11.650196     34.985066      5.990707
  O      14.011500     33.593968      5.998744
  O      13.962772     30.812984      6.061778
  Si     11.645013     38.573719      7.638109
  Si     14.331273     40.051899      7.826189
  O      10.263061     39.185529      8.240765
  O      12.988444     39.239201      8.301551
  O      11.724771     36.960688      7.750572
  O      14.376149     41.560147      8.437977
  O      11.718525     39.006786      6.048165
  O      14.390553     40.022953      6.184300
  Si     16.870931     26.033780      7.851499
  O      15.536701     25.234766      8.359531
  O      18.179866     25.274907      8.446433
  O      16.805876     26.027167      6.208366
  Si     16.905763     29.113873      7.750599
  Si     17.030996     35.363984      7.678055
  Si     19.658175     33.760268      7.812987
  Si     19.551468     30.665014      7.821956
  O      15.500564     29.894939      8.074113
  O      15.645814     34.531613      7.927445
  O      18.288081     34.523999      8.292138
  O      18.153406     29.975240      8.338382
  O      16.819460     27.598510      8.345543
  O      19.664190     32.209152      8.340369
  O      17.108431     28.940713      6.130920
  O      17.332601     35.486615      6.068313
  O      19.626121     33.676861      6.170312
  O      19.475528     30.701198      6.177640
  Si     16.968744     38.430845      7.818096
  O      15.672543     39.269201      8.345735
  O      18.397553     39.008480      8.343478
  O      16.907354     36.861488      8.298515
  O      16.894730     38.403188      6.171520
  O      20.738987     29.696037      8.365361
  O      21.007302     34.461641      8.390966
  H       4.074657     24.986772      8.036591
  H       1.410409     29.602015      8.036749
  H       1.410409     35.007985      8.036749
  H       4.074657     39.623228      8.036591
  H       8.948181     22.173255      8.038302
  H       8.948181     42.436745      8.038302
  H      14.277762     22.173204      8.038282
  H      14.277762     42.436796      8.038282
  H      18.960557     24.876228      8.036406
  H      18.960557     39.733772      8.036406
  H      21.624717     29.491420      8.036583
  H      21.624717     35.118580      8.036583
  H      13.210063     34.065231      5.689511
  H      10.812434     34.606816      5.676962
  H       8.959424     32.848500      5.711179
  H       9.768651     30.409044      5.746259
  H      12.285598     29.855867      5.748125
  H      14.000692     31.726703      5.720845
  H      13.542278     39.774067      5.782659
  H      10.876205     39.311214      5.684240
  H       8.122549     39.600558      5.784047
  H       6.173417     37.686132      5.798775
  H       5.293801     35.088577      5.755612
  H       3.554181     32.962980      5.836624
  H       4.173999     30.309164      5.841952
  H       6.012905     28.285438      5.792852
  H       6.941292     25.721115      5.840377
  H       9.586353     24.951451      5.816952
  H      12.274717     25.530519      5.769598
  H      14.964961     25.055006      5.828464
  H      16.970875     26.898057      5.816759
  H      17.797818     29.513889      5.764090
  H      19.541242     31.598363      5.817532
  H      18.973477     34.271269      5.770335
  H      17.171009     36.373203      5.713172
  H      16.142217     38.899977      5.817819
  P       9.752889     36.958553     11.460152
  O      13.170623     37.334640     13.327036
  O      15.207487     39.401551     12.819809
  O      15.974096     37.449378     11.256883
  O      10.650442     37.981967     12.386536
  O      15.351906     34.685111     11.109988
  O       9.247276     35.920322     12.383368
  O      10.604577     36.603373     10.279292
  O       8.526045     37.887027     10.990054
  N      13.410657     35.366694     12.098390
  N      13.519116     33.365695     10.938536
  N      11.655845     32.090973     10.458706
  C      14.217325     38.908090     11.958479
  C      14.592859     37.511019     11.450697
  C      12.946442     38.626500     12.732258
  C      14.078286     36.610567     12.593559
  C      11.734570     38.648470     11.809707
  C      12.109195     35.123878     12.342636
  C      14.180667     34.497806     11.370901
  C      11.462824     34.025840     11.864113
  C      12.187855     33.141449     11.074542
  H      14.037894     39.592854     11.120248
  H      14.043832     37.288030     10.528463
  H      12.822596     39.313292     13.569498
  H      14.912666     36.275310     13.218084
  H      11.980453     38.177655     10.852562
  H      11.490608     39.701270     11.612754
  H      16.051854     39.093885     12.466905
  H      16.191287     36.533045     11.040715
  H      11.587910     35.864732     12.935090
  H      10.392214     33.970614     12.010176
  H      10.654486     31.996041     10.452904
  H      12.173898     31.516792      9.811615
  H       8.657987     38.224968     10.100439
  H      14.066395     32.780673     10.317176
161
Coordinates from ORCA-job /data/Seafile/cmp/protonated/frames/frame11/dry/cmp_prot11 E -13392.453058702242
  Si      3.534557     33.934952      7.827451
  Si      3.450988     30.839247      7.866958
  O       2.316547     34.879135      8.348014
  O       2.106618     30.131915      8.449901
  O       3.451531     32.393386      8.369301
  O       3.600041     33.867753      6.182582
  O       3.489969     30.879539      6.222905
  Si      6.138285     26.181249      7.851565
  Si      8.788576     24.567506      7.845896
  O       4.728062     25.594314      8.407924
  O       7.436554     25.328491      8.364700
  O       8.751401     23.044130      8.415722
  O       6.196568     26.222296      6.206479
  O       8.753912     24.637824      6.203313
  Si      6.097883     29.254893      7.788426
  Si      6.176363     35.505648      7.750961
  Si      8.905291     33.888975      7.675891
  Si      8.851367     30.820778      7.725650
  O       4.812483     30.069530      8.371425
  O       4.914016     34.653896      8.331705
  O       7.572188     34.718907      8.068842
  O       7.470879     30.074851      8.130548
  O       6.220109     27.735418      8.363828
  O       8.851568     32.356768      8.284779
  O       5.860352     29.170263      6.164777
  O       5.976087     35.665426      6.125641
  O       9.053263     33.754526      6.043278
  O       9.005859     30.907584      6.095846
  Si      6.235623     38.588274      7.817383
  Si      8.964012     40.066707      7.767891
  O       4.972761     39.455696      8.362297
  O       7.601810     39.348625      8.320883
  O       6.233772     37.029807      8.322717
  O       9.215938     41.562264      8.347913
  O       6.319920     38.566850      6.172787
  O       8.915351     40.045809      6.125103
  Si     11.481145     26.077324      7.763494
  Si     14.149810     24.551294      7.821774
  O      10.124492     25.385940      8.344530
  O      12.842627     25.393699      8.340342
  O      13.935349     23.025196      8.342691
  O      11.434574     25.843116      6.139019
  O      14.153275     24.655202      6.178559
  Si     11.491136     29.252581      7.722922
  Si     11.601587     35.363054      7.607934
  Si     14.234706     33.813126      7.604610
  Si     14.181042     30.740199      7.674623
  O      10.155116     29.997871      8.307832
  O      10.245557     34.662513      8.174217
  O      12.970387     34.650048      8.205649
  O      12.843344     30.007021      8.301430
  O      11.480157     27.679524      8.112812
  O      14.266397     32.279413      8.256188
  O      11.467868     29.458964      6.098295
  O      11.647845     34.971494      5.997426
  O      14.007518     33.594460      5.997612
  O      13.961864     30.813127      6.056378
  Si     11.646182     38.574998      7.635745
  Si     14.331641     40.051986      7.827607
  O      10.258322     39.177164      8.239646
  O      12.987312     39.240904      8.303097
  O      11.722149     36.962045      7.733235
  O      14.379346     41.560681      8.438839
  O      11.720649     39.021408      6.049211
  O      14.391627     40.023975      6.186137
  Si     16.869853     26.031238      7.848226
  O      15.533341     25.236353      8.356495
  O      18.173237     25.263871      8.444379
  O      16.806754     26.024608      6.205195
  Si     16.906596     29.112051      7.745701
  Si     17.030424     35.363044      7.676055
  Si     19.658180     33.759987      7.811184
  Si     19.551475     30.664396      7.818881
  O      15.500643     29.892020      8.067925
  O      15.644463     34.531469      7.923590
  O      18.286923     34.521825      8.289908
  O      18.152930     29.974761      8.334192
  O      16.821923     27.596576      8.340855
  O      19.665459     32.208294      8.337659
  O      17.110129     28.938531      6.126197
  O      17.333122     35.486201      6.066470
  O      19.627353     33.676908      6.168612
  O      19.475677     30.701246      6.174521
  Si     16.968644     38.430194      7.818924
  O      15.671785     39.267553      8.347633
  O      18.397211     39.008764      8.343687
  O      16.907932     36.860270      8.296775
  O      16.894060     38.403865      6.172304
  O      20.737187     29.693127      8.362262
  O      21.006034     34.462570      8.390733
  H       4.074657     24.986772      8.036591
  H       1.410409     29.602015      8.036749
  H       1.410409     35.007985      8.036749
  H       4.074657     39.623228      8.036591
  H       8.948181     22.173255      8.038302
  H       8.948181     42.436745      8.038302
  H      14.277762     22.173204      8.038282
  H      14.277762     42.436796      8.038282
  H      18.960557     24.876228      8.036406
  H      18.960557     39.733772      8.036406
  H      21.624717     29.491420      8.036583
  H      21.624717     35.118580      8.036583
  H      13.201721     34.062117      5.692409
  H      10.808216     34.595818      5.685369
  H       8.957693     32.846232      5.717787
  H       9.764561     30.411469      5.750364
  H      12.280704     29.857941      5.745781
  H      13.998465     31.728006      5.717632
  H      13.542355     39.779185      5.783936
  H      10.877578     39.320850      5.683294
  H       8.129610     39.599848      5.775910
  H       6.169116     37.686333      5.797629
  H       5.293738     35.087312      5.757685
  H       3.555068     32.964429      5.837926
  H       4.178286     30.312415      5.844118
  H       6.015707     28.289967      5.794232
  H       6.940437     25.723359      5.839703
  H       9.583538     24.952418      5.815066
  H      12.271898     25.531220      5.766813
  H      14.962223     25.052846      5.824839
  H      16.970781     26.895650      5.813425
  H      17.799044     29.512109      5.759117
  H      19.542261     31.598396      5.814565
  H      18.975077     34.271435      5.768179
  H      17.171032     36.372538      5.711132
  H      16.142066     38.901154      5.818501
  P       9.865162     36.943607     11.447563
  O      13.239172     37.313726     13.342476
  O      15.292830     39.369981     12.851674
  O      16.038451     37.430756     11.262845
  O      10.725048     37.980293     12.393284
  O      15.410205     34.676967     11.097244
  O       9.330893     35.910816     12.359734
  O      10.761700     36.582497     10.300574
  O       8.649667     37.859687     10.928359
  N      13.478837     35.348697     12.111402
  N      13.577773     33.355292     10.937797
  N      11.710729     32.076968     10.477754
  C      14.295973     38.893212     11.988516
  C      14.659072     37.498167     11.466180
  C      13.025248     38.613500     12.763069
  C      14.146981     36.592303     12.605525
  C      11.813915     38.658365     11.839156
  C      12.181359     35.100463     12.370232
  C      14.242001     34.485889     11.369983
  C      11.533340     34.000685     11.898258
  C      12.249308     33.125079     11.092127
  H      14.120006     39.587739     11.157491
  H      14.101261     37.285826     10.546731
  H      12.909369     39.291968     13.608282
  H      14.982830     36.256639     13.228017
  H      12.064576     38.207467     10.874113
  H      11.571682     39.715601     11.666695
  H      16.133526     39.060480     12.491508
  H      16.248847     36.513272     11.043659
  H      11.665487     35.837668     12.971198
  H      10.464435     33.942809     12.053903
  H      10.709714     31.979090     10.489061
  H      12.218179     31.510161      9.816257
  H       8.817078     38.217894     10.053183
  H      14.117990     32.774924     10.306081
161
Coordinates from ORCA-job /data/Seafile/cmp/protonated/frames/frame11/dry/cmp_prot11 E -13392.453298581650
  Si      3.534382     33.935288      7.829370
  Si      3.450738     30.839909      7.868162
  O       2.315966     34.879106      8.349460
  O       2.103187     30.137055      8.449127
  O       3.452539     32.393822      8.371299
  O       3.600429     33.868050      6.184455
  O       3.491476     30.879871      6.224221
  Si      6.137812     26.181653      7.852380
  Si      8.787961     24.567634      7.845739
  O       4.727786     25.594137      8.408781
  O       7.435874     25.328301      8.364830
  O       8.751574     23.044285      8.415465
  O       6.196280     26.223933      6.207340
  O       8.752859     24.637968      6.203191
  Si      6.098190     29.255672      7.791571
  Si      6.175537     35.506272      7.753432
  Si      8.904261     33.890049      7.682268
  Si      8.850972     30.822004      7.731480
  O       4.811006     30.068559      8.373486
  O       4.912969     34.655119      8.334328
  O       7.570914     34.720300      8.074072
  O       7.470309     30.075835      8.136316
  O       6.219814     27.735549      8.365219
  O       8.851303     32.357873      8.290590
  O       5.862800     29.172556      6.167501
  O       5.976600     35.663466      6.127651
  O       9.053582     33.754746      6.050054
  O       9.003318     30.909502      6.101394
  Si      6.235453     38.588761      7.816300
  Si      8.964255     40.067194      7.765184
  O       4.973559     39.457728      8.360918
  O       7.601979     39.350228      8.316036
  O       6.232601     37.031021      8.323631
  O       9.219445     41.562076      8.344408
  O       6.317768     38.565387      6.171603
  O       8.919402     40.045848      6.122191
  Si     11.480192     26.077994      7.762885
  Si     14.148664     24.551364      7.820772
  O      10.123528     25.386678      8.344006
  O      12.841426     25.393577      8.339210
  O      13.934925     23.025290      8.341963
  O      11.433403     25.844017      6.138299
  O      14.151456     24.655471      6.177541
  Si     11.490482     29.253486      7.723683
  Si     11.600906     35.362642      7.615532
  Si     14.233386     33.813208      7.605756
  Si     14.181654     30.739680      7.672168
  O      10.155531     29.998739      8.311126
  O      10.241202     34.668405      8.182056
  O      12.970394     34.649245      8.210996
  O      12.844424     30.006518      8.299902
  O      11.479601     27.680013      8.112385
  O      14.267946     32.278314      8.255198
  O      11.464775     29.461179      6.099233
  O      11.645919     34.963053      6.006240
  O      14.003744     33.595201      5.999356
  O      13.960953     30.813918      6.054277
  Si     11.646710     38.575551      7.635634
  Si     14.331314     40.052088      7.828951
  O      10.255464     39.172708      8.240661
  O      12.986815     39.241035      8.304683
  O      11.719247     36.962967      7.725994
  O      14.377387     41.561005      8.440156
  O      11.721192     39.029490      6.051054
  O      14.391904     40.024625      6.187736
  Si     16.869379     26.030008      7.846678
  O      15.531784     25.237208      8.355156
  O      18.169966     25.258318      8.443235
  O      16.807158     26.023337      6.203714
  Si     16.907182     29.111124      7.743289
  Si     17.029874     35.362750      7.675309
  Si     19.658028     33.760145      7.810267
  Si     19.551397     30.664321      7.817285
  O      15.500857     29.890434      8.064703
  O      15.643722     34.531495      7.922426
  O      18.286334     34.521185      8.288902
  O      18.152761     29.974593      8.332189
  O      16.823343     27.595619      8.338576
  O      19.665883     32.208102      8.336188
  O      17.111280     28.937350      6.123902
  O      17.332869     35.485927      6.065714
  O      19.627640     33.677373      6.167762
  O      19.475315     30.701601      6.172894
  Si     16.968374     38.430190      7.819345
  O      15.671515     39.267576      8.348868
  O      18.396835     39.009091      8.343805
  O      16.907874     36.860003      8.295689
  O      16.893106     38.404727      6.172707
  O      20.736215     29.691828      8.360326
  O      21.005386     34.463064      8.390583
  H       4.074657     24.986772      8.036591
  H       1.410409     29.602015      8.036749
  H       1.410409     35.007985      8.036749
  H       4.074657     39.623228      8.036591
  H       8.948181     22.173255      8.038302
  H       8.948181     42.436745      8.038302
  H      14.277762     22.173204      8.038282
  H      14.277762     42.436796      8.038282
  H      18.960557     24.876228      8.036406
  H      18.960557     39.733772      8.036406
  H      21.624717     29.491420      8.036583
  H      21.624717     35.118580      8.036583
  H      13.194711     34.060302      5.697637
  H      10.804967     34.589508      5.695184
  H       8.957631     32.846165      5.725263
  H       9.761843     30.414028      5.754642
  H      12.277250     29.859767      5.745532
  H      13.996435     31.729626      5.717278
  H      13.541904     39.782448      5.785321
  H      10.877229     39.325036      5.683967
  H       8.134737     39.599437      5.771360
  H       6.166639     37.684902      5.796712
  H       5.294417     35.084868      5.760131
  H       3.555768     32.964806      5.839591
  H       4.181308     30.314050      5.846216
  H       6.018074     28.292525      5.796344
  H       6.939583     25.724431      5.840206
  H       9.582244     24.952719      5.814589
  H      12.270603     25.531939      5.765963
  H      14.960643     25.051991      5.823219
  H      16.970877     26.894366      5.811805
  H      17.799661     29.511454      5.756644
  H      19.541995     31.598783      5.813064
  H      18.975355     34.271894      5.767292
  H      17.170178     36.372040      5.710128
  H      16.141127     38.902133      5.819077
  P       9.938108     36.924061     11.438301
  O      13.279671     37.296302     13.355687
  O      15.344301     39.345069     12.874526
  O      16.076246     37.414168     11.269041
  O      10.772964     37.967603     12.398297
  O      15.448180     34.666417     11.097699
  O       9.383794     35.894696     12.341797
  O      10.864047     36.559451     10.315023
  O       8.732582     37.833668     10.886777
  N      13.521626     35.331891     12.125079
  N      13.617179     33.342152     10.944914
  N      11.749585     32.058934     10.497393
  C      14.343322     38.878774     12.010310
  C      14.698210     37.484883     11.479457
  C      13.072455     38.600670     12.785193
  C      14.188462     36.576549     12.617577
  C      11.861468     38.659667     11.860611
  C      12.226627     35.079475     12.391838
  C      14.281797     34.472649     11.376690
  C      11.579010     33.977493     11.924496
  C      12.290811     33.107002     11.109795
  H      14.170020     39.579089     11.183608
  H      14.134096     37.278509     10.562478
  H      12.961463     39.274183     13.635020
  H      15.025446     36.242294     13.239472
  H      12.116932     38.227677     10.888441
  H      11.615483     39.719002     11.708639
  H      16.182690     39.034016     12.510261
  H      16.282684     36.495895     11.048985
  H      11.712950     35.815222     12.996125
  H      10.511023     33.917309     12.084533
  H      10.748927     31.958884     10.517967
  H      12.251159     31.497002      9.827346
  H       8.926466     38.208243     10.024086
  H      14.153876     32.764886     10.307454
161
Coordinates from ORCA-job /data/Seafile/cmp/protonated/frames/frame11/dry/cmp_prot11 E -13392.453512026337
  Si      3.534185     33.935389      7.830046
  Si      3.450849     30.840132      7.868443
  O       2.315495     34.878619      8.350446
  O       2.102211     30.138713      8.448642
  O       3.453089     32.393929      8.371957
  O       3.600085     33.868199      6.185092
  O       3.492132     30.880046      6.224550
  Si      6.137568     26.181801      7.852565
  Si      8.787706     24.567645      7.845404
  O       4.727883     25.593749      8.409314
  O       7.435604     25.328199      8.364511
  O       8.752060     23.044432      8.415410
  O       6.195829     26.224518      6.207521
  O       8.752282     24.637577      6.202864
  Si      6.098641     29.256133      7.792595
  Si      6.174989     35.506679      7.753885
  Si      8.903708     33.891274      7.686182
  Si      8.850890     30.823112      7.734025
  O       4.810673     30.068240      8.374020
  O       4.912252     34.655914      8.335004
  O       7.569968     34.721389      8.076790
  O       7.470317     30.076377      8.138689
  O       6.219752     27.735649      8.365440
  O       8.850999     32.358765      8.293543
  O       5.864237     29.173674      6.168325
  O       5.976873     35.661833      6.127739
  O       9.054324     33.755922      6.054162
  O       9.001986     30.911364      6.103735
  Si      6.235297     38.589052      7.814080
  Si      8.964173     40.067401      7.762939
  O       4.974420     39.459378      8.359018
  O       7.601773     39.351213      8.311534
  O       6.231425     37.031876      8.322721
  O       9.221538     41.561762      8.342122
  O       6.316102     38.564358      6.169335
  O       8.922062     40.046508      6.119777
  Si     11.479662     26.078336      7.761981
  Si     14.148129     24.551448      7.820038
  O      10.123036     25.387163      8.343296
  O      12.840790     25.393622      8.338159
  O      13.934892     23.025458      8.341550
  O      11.432789     25.844169      6.137390
  O      14.150644     24.655389      6.176794
  Si     11.490131     29.254001      7.723105
  Si     11.600717     35.362569      7.621374
  Si     14.232624     33.813304      7.606924
  Si     14.182096     30.739459      7.670031
  O      10.155972     29.999526      8.312015
  O      10.238545     34.672270      8.187887
  O      12.970831     34.649046      8.214998
  O      12.845250     30.005852      8.298047
  O      11.479069     27.680323      8.111216
  O      14.268991     32.277487      8.254523
  O      11.463071     29.462297      6.098748
  O      11.644974     34.958009      6.012776
  O      14.001374     33.596206      6.000834
  O      13.960591     30.814863      6.052357
  Si     11.647244     38.576047      7.634388
  Si     14.331089     40.052295      7.829339
  O      10.254040     39.170305      8.240552
  O      12.986652     39.240765      8.304549
  O      11.716953     36.963860      7.721548
  O      14.374447     41.561125      8.441137
  O      11.721497     39.034675      6.051065
  O      14.392534     40.025541      6.188264
  Si     16.869148     26.029443      7.845671
  O      15.531026     25.237703      8.354271
  O      18.168480     25.255950      8.442512
  O      16.807467     26.022473      6.202742
  Si     16.907626     29.110610      7.741494
  Si     17.029546     35.362655      7.674895
  Si     19.657929     33.760366      7.809726
  Si     19.551261     30.664433      7.816232
  O      15.501093     29.889661      8.062041
  O      15.643452     34.531475      7.922059
  O      18.286175     34.521224      8.288406
  O      18.152656     29.974500      8.330893
  O      16.823997     27.595212      8.337082
  O      19.665865     32.208113      8.335256
  O      17.112455     28.936466      6.122264
  O      17.332617     35.485603      6.065254
  O      19.627650     33.677986      6.167254
  O      19.475076     30.702050      6.171809
  Si     16.968206     38.430422      7.819291
  O      15.671332     39.267831      8.349346
  O      18.396341     39.009629      8.344153
  O      16.907697     36.860095      8.294620
  O      16.892747     38.405868      6.172657
  O      20.735625     29.691336      8.358925
  O      21.005318     34.462990      8.390334
  H       4.074657     24.986772      8.036591
  H       1.410409     29.602015      8.036749
  H       1.410409     35.007985      8.036749
  H       4.074657     39.623228      8.036591
  H       8.948181     22.173255      8.038302
  H       8.948181     42.436745      8.038302
  H      14.277762     22.173204      8.038282
  H      14.277762     42.436796      8.038282
  H      18.960557     24.876228      8.036406
  H      18.960557     39.733772      8.036406
  H      21.624717     29.491420      8.036583
  H      21.624717     35.118580      8.036583
  H      13.190327     34.059978      5.701599
  H      10.803087     34.586267      5.702087
  H       8.958106     32.847278      5.729492
  H       9.760094     30.415934      5.756037
  H      12.275348     29.860577      5.744331
  H      13.995353     31.731130      5.716618
  H      13.542139     39.784914      5.785577
  H      10.876793     39.327790      5.683510
  H       8.138006     39.599890      5.767852
  H       6.165170     37.683649      5.794849
  H       5.294410     35.083098      5.760869
  H       3.555500     32.964974      5.840134
  H       4.182667     30.314908      5.846759
  H       6.019208     28.293692      5.796965
  H       6.938667     25.724524      5.840131
  H       9.581504     24.952349      5.813936
  H      12.269957     25.531901      5.765135
  H      14.959964     25.051251      5.822110
  H      16.971250     26.893354      5.810570
  H      17.800556     29.510923      5.755013
  H      19.541782     31.599257      5.812072
  H      18.975124     34.272327      5.766888
  H      17.169532     36.371545      5.709429
  H      16.140684     38.903323      5.819200
  P       9.985908     36.907037     11.428387
  O      13.306499     37.283258     13.363649
  O      15.377732     39.326784     12.888089
  O      16.102161     37.400465     11.273304
  O      10.805591     37.953219     12.398352
  O      15.474684     34.656172     11.100318
  O       9.417167     35.880440     12.325743
  O      10.930451     36.539491     10.321096
  O       8.788760     37.813856     10.855117
  N      13.550715     35.318224     12.134890
  N      13.644579     33.330660     10.950775
  N      11.777140     32.043736     10.511248
  C      14.374785     38.866460     12.022905
  C      14.724904     37.472984     11.487864
  C      13.103281     38.589871     12.797244
  C      14.216383     36.563995     12.625820
  C      11.892593     38.656536     11.871889
  C      12.257139     35.063279     12.405977
  C      14.309309     34.461031     11.382615
  C      11.610089     33.959681     11.941574
  C      12.319718     33.092113     11.122129
  H      14.203771     39.569804     11.198353
  H      14.157117     37.269459     10.572524
  H      12.994568     39.261007     13.649230
  H      15.053927     36.231338     13.247964
  H      12.152149     38.239248     10.894469
  H      11.641882     39.716619     11.734364
  H      16.214962     39.014591     12.522096
  H      16.306629     36.481610     11.053613
  H      11.744482     35.798741     13.011292
  H      10.542597     33.897860     12.103488
  H      10.776695     31.942592     10.536923
  H      12.275077     31.485257      9.835543
  H       9.002255     38.198882     10.001541
  H      14.179293     32.755543     10.309748
161
Coordinates from ORCA-job /data/Seafile/cmp/protonated/frames/frame11/dry/cmp_prot11 E -13392.453713307565
  Si      3.533997     33.935395      7.830059
  Si      3.451092     30.840157      7.868313
  O       2.315164     34.878082      8.351017
  O       2.102298     30.138827      8.448306
  O       3.453403     32.393902      8.371927
  O       3.599408     33.868262      6.185085
  O       3.492336     30.880093      6.224429
  Si      6.137483     26.181803      7.852476
  Si      8.787663     24.567597      7.845095
  O       4.728055     25.593430      8.409522
  O       7.435566     25.328121      8.364104
  O       8.752541     23.044525      8.415433
  O       6.195394     26.224518      6.207414
  O       8.752021     24.637019      6.202554
  Si      6.099053     29.256352      7.792638
  Si      6.174661     35.506870      7.753383
  Si      8.903371     33.892215      7.688597
  Si      8.850978     30.823876      7.734861
  O       4.810818     30.068177      8.373891
  O       4.911717     34.656478      8.334701
  O       7.569219     34.721994      8.078068
  O       7.470550     30.076603      8.139356
  O       6.219769     27.735678      8.365214
  O       8.850702     32.359256      8.294891
  O       5.865073     29.174147      6.168286
  O       5.977103     35.660499      6.126975
  O       9.055024     33.757141      6.056611
  O       9.001459     30.912684      6.104405
  Si      6.235167     38.589176      7.811794
  Si      8.963923     40.067517      7.761245
  O       4.975113     39.460418      8.357400
  O       7.601520     39.351765      8.307760
  O       6.230605     37.032374      8.321105
  O       9.222577     41.561519      8.340725
  O       6.314835     38.563694      6.167051
  O       8.923860     40.047349      6.117975
  Si     11.479438     26.078443      7.761149
  Si     14.147973     24.551492      7.819547
  O      10.122874     25.387413      8.342671
  O      12.840513     25.393642      8.337351
  O      13.935062     23.025616      8.341327
  O      11.432532     25.844031      6.136605
  O      14.150455     24.655004      6.176289
  Si     11.490071     29.254221      7.722150
  Si     11.600600     35.362814      7.626245
  Si     14.231964     33.813496      7.608396
  Si     14.182438     30.739470      7.668437
  O      10.156363     29.999933      8.311794
  O      10.236765     34.674700      8.192294
  O      12.971254     34.649364      8.218438
  O      12.845960     30.005184      8.296463
  O      11.478768     27.680469      8.109999
  O      14.269701     32.276886      8.254313
  O      11.462413     29.462702      6.097845
  O      11.644536     34.955331      6.017950
  O      13.999665     33.597400      6.002421
  O      13.960570     30.815912      6.050894
  Si     11.647804     38.576719      7.632958
  Si     14.331153     40.052574      7.829572
  O      10.253454     39.169258      8.240291
  O      12.986739     39.240586      8.303981
  O      11.714998     36.964885      7.718905
  O      14.372096     41.561247      8.441923
  O      11.721840     39.038128      6.050458
  O      14.393448     40.026517      6.188549
  Si     16.869077     26.029270      7.845017
  O      15.530730     25.238025      8.353704
  O      18.167943     25.255236      8.442073
  O      16.807763     26.021916      6.202100
  Si     16.907993     29.110403      7.740182
  Si     17.029200     35.362560      7.674950
  Si     19.657793     33.760611      7.809533
  Si     19.551177     30.664658      7.815589
  O      15.501350     29.889412      8.060012
  O      15.643233     34.531446      7.922548
  O      18.286133     34.521481      8.288356
  O      18.152634     29.974494      8.330069
  O      16.824301     27.595145      8.336080
  O      19.665675     32.208239      8.334777
  O      17.113450     28.935968      6.121095
  O      17.332001     35.485089      6.065203
  O      19.627472     33.678667      6.167071
  O      19.475180     30.702509      6.171149
  Si     16.968179     38.430659      7.819215
  O      15.671282     39.268010      8.349790
  O      18.395978     39.010129      8.344578
  O      16.907527     36.860278      8.293959
  O      16.892800     38.406954      6.172617
  O      20.735334     29.691335      8.358013
  O      21.005417     34.462802      8.390140
  H       4.074657     24.986772      8.036591
  H       1.410409     29.602015      8.036749
  H       1.410409     35.007985      8.036749
  H       4.074657     39.623228      8.036591
  H       8.948181     22.173255      8.038302
  H       8.948181     42.436745      8.038302
  H      14.277762     22.173204      8.038282
  H      14.277762     42.436796      8.038282
  H      18.960557     24.876228      8.036406
  H      18.960557     39.733772      8.036406
  H      21.624717     29.491420      8.036583
  H      21.624717     35.118580      8.036583
  H      13.187392     34.060515      5.704899
  H      10.802209     34.584609      5.707320
  H       8.958874     32.848507      5.731841
  H       9.759190     30.417145      5.756100
  H      12.274473     29.860992      5.743039
  H      13.994673     31.732544      5.716048
  H      13.542951     39.786841      5.785455
  H      10.876734     39.330041      5.682742
  H       8.140206     39.600562      5.765347
  H       6.164191     37.682733      5.792989
  H       5.294277     35.081774      5.760714
  H       3.554867     32.965041      5.840098
  H       4.183146     30.315338      5.846572
  H       6.019742     28.294153      5.796870
  H       6.937971     25.724296      5.839838
  H       9.581100     24.951789      5.813336
  H      12.269693     25.531608      5.764472
  H      14.959774     25.050600      5.821359
  H      16.971681     26.892608      5.809618
  H      17.801413     29.510638      5.753921
  H      19.541707     31.599749      5.811488
  H      18.974608     34.272727      5.766841
  H      17.168730     36.370872      5.709115
  H      16.140620     38.904354      5.819280
  P      10.017755     36.891437     11.416968
  O      13.323041     37.272233     13.368808
  O      15.398207     39.312182     12.896064
  O      16.119555     37.387074     11.278073
  O      10.826437     37.938763     12.394769
  O      15.491966     34.644320     11.106125
  O       9.437514     35.866809     12.309015
  O      10.976262     36.521761     10.322072
  O       8.828146     37.797410     10.827398
  N      13.568987     35.305877     12.142960
  N      13.661688     33.319131     10.957330
  N      11.793910     32.030520     10.522414
  C      14.394828     38.854525     12.030012
  C      14.742592     37.460788     11.494067
  C      13.122293     38.579527     12.803101
  C      14.233956     36.552519     12.632416
  C      11.912622     38.649329     11.876091
  C      12.275893     35.050322     12.415612
  C      14.326849     34.449158     11.389430
  C      11.629037     33.945846     11.953066
  C      12.337591     33.079151     11.131964
  H      14.225785     39.558765     11.205795
  H      14.173306     37.258032     10.579466
  H      13.013691     39.250020     13.655580
  H      15.071429     36.221239     13.255492
  H      12.175847     38.241323     10.895785
  H      11.658148     39.709493     11.746759
  H      16.235046     38.998971     12.530036
  H      16.323193     36.467645     11.059885
  H      11.763731     35.786619     13.020228
  H      10.561642     33.883523     12.114773
  H      10.793576     31.929204     10.550974
  H      12.289510     31.473427      9.843844
  H       9.056805     38.189496      9.980773
  H      14.195443     32.744789     10.314859
161
Coordinates from ORCA-job /data/Seafile/cmp/protonated/frames/frame11/dry/cmp_prot11 E -13392.453941483976
  Si      3.533758     33.935289      7.830367
  Si      3.451325     30.840090      7.868424
  O       2.314788     34.877532      8.351707
  O       2.102320     30.138918      8.448099
  O       3.453612     32.393763      8.372175
  O       3.598844     33.868210      6.185379
  O       3.492657     30.880066      6.224549
  Si      6.137431     26.181774      7.852493
  Si      8.787654     24.567544      7.844852
  O       4.728224     25.593097      8.409773
  O       7.435559     25.328010      8.363810
  O       8.753004     23.044596      8.415476
  O       6.195037     26.224578      6.207421
  O       8.751779     24.636534      6.202313
  Si      6.099464     29.256497      7.792975
  Si      6.174278     35.506891      7.753459
  Si      8.902986     33.892928      7.691361
  Si      8.851098     30.824507      7.736005
  O       4.810943     30.068029      8.374049
  O       4.911101     34.656864      8.334855
  O       7.568417     34.722357      8.079808
  O       7.470799     30.076695      8.140327
  O       6.219788     27.735620      8.365209
  O       8.850391     32.359553      8.296543
  O       5.865940     29.174610      6.168545
  O       5.977356     35.659096      6.126820
  O       9.055673     33.758163      6.059401
  O       9.001045     30.913928      6.105423
  Si      6.235018     38.589164      7.810174
  Si      8.963734     40.067627      7.760130
  O       4.975684     39.461329      8.356188
  O       7.601336     39.352205      8.304638
  O       6.229755     37.032699      8.320113
  O       9.223494     41.561401      8.339621
  O       6.313769     38.562847      6.165445
  O       8.925858     40.047763      6.116771
  Si     11.479261     26.078529      7.760393
  Si     14.147859     24.551534      7.819105
  O      10.122765     25.387622      8.342119
  O      12.840283     25.393650      8.336616
  O      13.935233     23.025757      8.341126
  O      11.432323     25.843892      6.135892
  O      14.150347     24.654662      6.175829
  Si     11.490063     29.254433      7.721418
  Si     11.600317     35.363121      7.631837
  Si     14.231197     33.813806      7.610768
  Si     14.182740     30.739634      7.667345
  O      10.156789     30.000221      8.311846
  O      10.234815     34.676934      8.197078
  O      12.971547     34.649817      8.222675
  O      12.846689     30.004436      8.295229
  O      11.478537     27.680584      8.108914
  O      14.270246     32.276315      8.254856
  O      11.461915     29.463287      6.097201
  O      11.644071     34.952626      6.023854
  O      13.997913     33.598795      6.004868
  O      13.960548     30.817363      6.049952
  Si     11.648394     38.577454      7.631961
  Si     14.331303     40.052833      7.830177
  O      10.252980     39.168304      8.240655
  O      12.986870     39.240509      8.303877
  O      11.712697     36.966000      7.716788
  O      14.370082     41.561436      8.442823
  O      11.722287     39.041555      6.050305
  O      14.394361     40.027354      6.189197
  Si     16.869022     26.029155      7.844454
  O      15.530474     25.238335      8.353205
  O      18.167429     25.254541      8.441694
  O      16.808038     26.021546      6.201552
  Si     16.908322     29.110284      7.739143
  Si     17.028770     35.362430      7.675662
  Si     19.657619     33.760856      7.809651
  Si     19.551104     30.664889      7.815172
  O      15.501591     29.889260      8.058392
  O      15.642968     34.531439      7.923987
  O      18.286113     34.521723      8.288814
  O      18.152633     29.974497      8.329505
  O      16.824576     27.595111      8.335249
  O      19.665538     32.208355      8.334589
  O      17.114289     28.935662      6.120172
  O      17.331062     35.484390      6.065746
  O      19.627073     33.679306      6.167208
  O      19.475215     30.703019      6.170727
  Si     16.968177     38.430831      7.819503
  O      15.671320     39.268201      8.350622
  O      18.395726     39.010581      8.345094
  O      16.907391     36.860471      8.293849
  O      16.892753     38.407750      6.172959
  O      20.735088     29.691311      8.357260
  O      21.005537     34.462655      8.390079
  H       4.074657     24.986772      8.036591
  H       1.410409     29.602015      8.036749
  H       1.410409     35.007985      8.036749
  H       4.074657     39.623228      8.036591
  H       8.948181     22.173255      8.038302
  H       8.948181     42.436745      8.038302
  H      14.277762     22.173204      8.038282
  H      14.277762     42.436796      8.038282
  H      18.960557     24.876228      8.036406
  H      18.960557     39.733772      8.036406
  H      21.624717     29.491420      8.036583
  H      21.624717     35.118580      8.036583
  H      13.184390     34.061207      5.709032
  H      10.801370     34.582704      5.713266
  H       8.959638     32.849538      5.734496
  H       9.758439     30.418315      5.756555
  H      12.273764     29.861710      5.742126
  H      13.993939     31.734450      5.716166
  H      13.543781     39.788739      5.785649
  H      10.876929     39.332461      5.682356
  H       8.142765     39.600636      5.763420
  H       6.163394     37.681685      5.791801
  H       5.294239     35.080386      5.761061
  H       3.554373     32.965000      5.840351
  H       4.183751     30.315689      5.846666
  H       6.020348     28.294622      5.797036
  H       6.937380     25.724176      5.839645
  H       9.580717     24.951297      5.812815
  H      12.269469     25.531326      5.763853
  H      14.959654     25.050039      5.820674
  H      16.972074     26.892089      5.808823
  H      17.802101     29.510542      5.753048
  H      19.541499     31.600307      5.811169
  H      18.973803     34.273052      5.767168
  H      17.167614     36.369964      5.709319
  H      16.140508     38.905116      5.819725
  P      10.049165     36.875077     11.402724
  O      13.338974     37.259236     13.374602
  O      15.417474     39.296331     12.905152
  O      16.136763     37.372631     11.284386
  O      10.846037     37.922654     12.389758
  O      15.509198     34.631733     11.111984
  O       9.455469     35.852298     12.287795
  O      11.022676     36.502962     10.321525
  O       8.868873     37.781622     10.796115
  N      13.587161     35.291814     12.151571
  N      13.678883     33.306704     10.963145
  N      11.810748     32.017024     10.531405
  C      14.414011     38.840975     12.038011
  C      14.760003     37.447111     11.501264
  C      13.140402     38.567086     12.809519
  C      14.251198     36.539280     12.639763
  C      11.932282     38.639901     11.880122
  C      12.294587     35.035385     12.425667
  C      14.344381     34.436153     11.396284
  C      11.648064     33.930235     11.964396
  C      12.355526     33.065202     11.140786
  H      14.246861     39.545970     11.213978
  H      14.189637     37.244998     10.587178
  H      13.031398     39.236922     13.662450
  H      15.088482     36.209385     13.263891
  H      12.199832     38.240729     10.897417
  H      11.674730     39.700202     11.758551
  H      16.254074     38.982376     12.539183
  H      16.339807     36.452719     11.067544
  H      11.782886     35.772030     13.030114
  H      10.580759     33.867284     12.125855
  H      10.810509     31.915520     10.562741
  H      12.304004     31.462120      9.849375
  H       9.113053     38.180998      9.957087
  H      14.211652     32.733850     10.318565
161
Coordinates from ORCA-job /data/Seafile/cmp/protonated/frames/frame11/dry/cmp_prot11 E -13392.454180771201
  Si      3.533487     33.935112      7.830807
  Si      3.451567     30.839960      7.868631
  O       2.314396     34.876990      8.352421
  O       2.102394     30.138876      8.447974
  O       3.453759     32.393548      8.372536
  O       3.598331     33.868083      6.185806
  O       3.492969     30.880018      6.224764
  Si      6.137420     26.181708      7.852519
  Si      8.787693     24.567497      7.844593
  O       4.728454     25.592690      8.410025
  O       7.435622     25.327911      8.363542
  O       8.753490     23.044676      8.415500
  O       6.194730     26.224600      6.207435
  O       8.751554     24.636062      6.202051
  Si      6.099873     29.256570      7.793352
  Si      6.173834     35.506845      7.753855
  Si      8.902557     33.893552      7.694337
  Si      8.851231     30.825067      7.737166
  O       4.811100     30.067837      8.374294
  O       4.910412     34.657162      8.335242
  O       7.567510     34.722556      8.081752
  O       7.471083     30.076667      8.141255
  O       6.219825     27.735502      8.365250
  O       8.850030     32.359718      8.298287
  O       5.866721     29.174990      6.168857
  O       5.977579     35.657767      6.126992
  O       9.056287     33.759265      6.062380
  O       9.000662     30.915195      6.106476
  Si      6.234851     38.589102      7.808905
  Si      8.963586     40.067652      7.759543
  O       4.976155     39.462155      8.355161
  O       7.601167     39.352477      8.302052
  O       6.228834     37.032968      8.319473
  O       9.224145     41.561313      8.338878
  O       6.312851     38.562000      6.164191
  O       8.927984     40.047911      6.116080
  Si     11.479159     26.078601      7.759568
  Si     14.147790     24.551572      7.818606
  O      10.122732     25.387825      8.341522
  O      12.840134     25.393682      8.335845
  O      13.935375     23.025901      8.340872
  O      11.432174     25.843676      6.135114
  O      14.150320     24.654300      6.175311
  Si     11.490117     29.254653      7.720643
  Si     11.599920     35.363549      7.638001
  Si     14.230329     33.814211      7.613437
  Si     14.183059     30.739890      7.666273
  O      10.157256     30.000431      8.311895
  O      10.232812     34.678936      8.202091
  O      12.971794     34.650347      8.227351
  O      12.847465     30.003707      8.294013
  O      11.478422     27.680692      8.107703
  O      14.270774     32.275777      8.255572
  O      11.461498     29.463998      6.096529
  O      11.643588     34.950199      6.030256
  O      13.995960     33.600346      6.007624
  O      13.960494     30.819059      6.049056
  Si     11.649050     38.578278      7.631104
  Si     14.331607     40.053113      7.830819
  O      10.252705     39.167461      8.241492
  O      12.987125     39.240531      8.303887
  O      11.710219     36.967244      7.715134
  O      14.368330     41.561662      8.443689
  O      11.722654     39.044948      6.050289
  O      14.395415     40.028149      6.189870
  Si     16.868996     26.029077      7.843852
  O      15.530265     25.238650      8.352652
  O      18.166970     25.253955      8.441310
  O      16.808330     26.021209      6.200958
  Si     16.908677     29.110207      7.738061
  Si     17.028281     35.362282      7.676551
  Si     19.657408     33.761103      7.809835
  Si     19.551074     30.665144      7.814783
  O      15.501866     29.889171      8.056693
  O      15.642645     34.531454      7.925693
  O      18.286075     34.521966      8.289375
  O      18.152649     29.974541      8.328915
  O      16.824843     27.595115      8.334355
  O      19.665385     32.208485      8.334479
  O      17.115209     28.935385      6.119208
  O      17.329983     35.483622      6.066440
  O      19.626586     33.679917      6.167402
  O      19.475366     30.703574      6.170331
  Si     16.968231     38.430936      7.819841
  O      15.671473     39.268409      8.351528
  O      18.395594     39.010913      8.345532
  O      16.907245     36.860651      8.293953
  O      16.892720     38.408401      6.173357
  O      20.734884     29.691332      8.356590
  O      21.005605     34.462567      8.390038
  H       4.074657     24.986772      8.036591
  H       1.410409     29.602015      8.036749
  H       1.410409     35.007985      8.036749
  H       4.074657     39.623228      8.036591
  H       8.948181     22.173255      8.038302
  H       8.948181     42.436745      8.038302
  H      14.277762     22.173204      8.038282
  H      14.277762     42.436796      8.038282
  H      18.960557     24.876228      8.036406
  H      18.960557     39.733772      8.036406
  H      21.624717     29.491420      8.036583
  H      21.624717     35.118580      8.036583
  H      13.181150     34.062083      5.713592
  H      10.800541     34.581051      5.719685
  H       8.960401     32.850684      5.737259
  H       9.757774     30.419610      5.757025
  H      12.273091     29.862681      5.741217
  H      13.993085     31.736658      5.716438
  H      13.544749     39.790652      5.785851
  H      10.877026     39.334822      5.682120
  H       8.145490     39.600418      5.761971
  H       6.162686     37.680671      5.790934
  H       5.294258     35.079060      5.761621
  H       3.554001     32.964890      5.840736
  H       4.184331     30.316024      5.846829
  H       6.020898     28.295020      5.797238
  H       6.936877     25.724063      5.839472
  H       9.580353     24.950802      5.812263
  H      12.269303     25.530986      5.763151
  H      14.959601     25.049534      5.819969
  H      16.972485     26.891616      5.808005
  H      17.802877     29.510473      5.752147
  H      19.541342     31.600939      5.810924
  H      18.972873     34.273341      5.767594
  H      17.166374     36.368963      5.709622
  H      16.140422     38.905747      5.820225
  P      10.078322     36.854954     11.387081
  O      13.351152     37.242954     13.381750
  O      15.433037     39.277293     12.916147
  O      16.151350     37.354465     11.293732
  O      10.862737     37.902340     12.384161
  O      15.523044     34.615530     11.120022
  O       9.470563     35.833642     12.264046
  O      11.067206     36.480637     10.320233
  O       8.908345     37.762953     10.763558
  N      13.601695     35.274486     12.161594
  N      13.692380     33.291105     10.970248
  N      11.823618     32.000942     10.540862
  C      14.430026     38.823908     12.047509
  C      14.774631     37.429814     11.510468
  C      13.154964     38.551154     12.816863
  C      14.264851     36.522573     12.648893
  C      11.949067     38.626534     11.884275
  C      12.309397     35.017584     12.436405
  C      14.358345     34.419772     11.404789
  C      11.663088     33.912030     11.976058
  C      12.369586     33.048475     11.150252
  H      14.265077     39.529415     11.223404
  H      14.203855     37.228267     10.596501
  H      13.044979     39.220542     13.670002
  H      15.101531     36.193867     13.274502
  H      12.221783     38.236000     10.899569
  H      11.688249     39.686820     11.770082
  H      16.269618     38.962502     12.550821
  H      16.353884     36.434084     11.078299
  H      11.798094     35.754748     13.040441
  H      10.595755     33.848895     12.136714
  H      10.823453     31.899508     10.574703
  H      12.314631     31.447783      9.855834
  H       9.168354     38.170520      9.933017
  H      14.224246     32.719722     10.323668
161
Coordinates from ORCA-job /data/Seafile/cmp/protonated/frames/frame11/dry/cmp_prot11 E -13392.454451666708
  Si      3.533206     33.934893      7.831317
  Si      3.451810     30.839791      7.868882
  O       2.313989     34.876430      8.353168
  O       2.102538     30.138708      8.447909
  O       3.453862     32.393287      8.372953
  O       3.597883     33.867906      6.186307
  O       3.493273     30.879963      6.225020
  Si      6.137418     26.181651      7.852539
  Si      8.787707     24.567441      7.844289
  O       4.728715     25.592258      8.410265
  O       7.435699     25.327831      8.363280
  O       8.753939     23.044758      8.415504
  O       6.194463     26.224655      6.207443
  O       8.751278     24.635574      6.201741
  Si      6.100272     29.256618      7.793741
  Si      6.173367     35.506746      7.754452
  Si      8.902170     33.894163      7.697588
  Si      8.851362     30.825626      7.738348
  O       4.811279     30.067644      8.374582
  O       4.909691     34.657393      8.335776
  O       7.566525     34.722630      8.083843
  O       7.471382     30.076574      8.142119
  O       6.219875     27.735375      8.365334
  O       8.849658     32.359816      8.300182
  O       5.867411     29.175313      6.169194
  O       5.977761     35.656537      6.127370
  O       9.057099     33.760517      6.065635
  O       9.000302     30.916599      6.107573
  Si      6.234690     38.588981      7.807861
  Si      8.963464     40.067607      7.759296
  O       4.976567     39.462893      8.354268
  O       7.601011     39.352611      8.299852
  O       6.227871     37.033188      8.319066
  O       9.224628     41.561235      8.338389
  O       6.312044     38.561148      6.163158
  O       8.930117     40.047912      6.115708
  Si     11.479060     26.078606      7.758618
  Si     14.147737     24.551624      7.818070
  O      10.122704     25.387993      8.340846
  O      12.840001     25.393729      8.335031
  O      13.935486     23.026051      8.340583
  O      11.432029     25.843280      6.134223
  O      14.150357     24.653971      6.174760
  Si     11.490139     29.254835      7.719759
  Si     11.599528     35.364122      7.644981
  Si     14.229428     33.814673      7.616799
  Si     14.183333     30.740224      7.665440
  O      10.157719     30.000575      8.311916
  O      10.230802     34.680790      8.207525
  O      12.972074     34.650962      8.232786
  O      12.848199     30.002846      8.292855
  O      11.478304     27.680736      8.106289
  O      14.271204     32.275214      8.256802
  O      11.461102     29.464857      6.095773
  O      11.643293     34.947986      6.037433
  O      13.993923     33.602061      6.011074
  O      13.960418     30.821073      6.048423
  Si     11.649765     38.579223      7.630171
  Si     14.332049     40.053408      7.831352
  O      10.252653     39.166795      8.242508
  O      12.987437     39.240709      8.303786
  O      11.707674     36.968669      7.713989
  O      14.366848     41.561888      8.444457
  O      11.722941     39.048290      6.050179
  O      14.396597     40.028866      6.190429
  Si     16.868970     26.029026      7.843291
  O      15.530061     25.238970      8.352113
  O      18.166550     25.253440      8.440954
  O      16.808597     26.020937      6.200404
  Si     16.909010     29.110166      7.737116
  Si     17.027759     35.362114      7.677855
  Si     19.657181     33.761344      7.810225
  Si     19.551047     30.665412      7.814549
  O      15.502120     29.889117      8.055132
  O      15.642347     34.531469      7.928053
  O      18.286078     34.522237      8.290272
  O      18.152652     29.974610      8.328473
  O      16.825083     27.595132      8.333555
  O      19.665223     32.208616      8.334588
  O      17.116128     28.935140      6.118380
  O      17.328722     35.482694      6.067502
  O      19.625944     33.680485      6.167799
  O      19.475502     30.704178      6.170094
  Si     16.968337     38.430973      7.820203
  O      15.671700     39.268609      8.352424
  O      18.395539     39.011172      8.345939
  O      16.907115     36.860865      8.294362
  O      16.892681     38.408832      6.173787
  O      20.734733     29.691405      8.356062
  O      21.005687     34.462507      8.390067
  H       4.074657     24.986772      8.036591
  H       1.410409     29.602015      8.036749
  H       1.410409     35.007985      8.036749
  H       4.074657     39.623228      8.036591
  H       8.948181     22.173255      8.038302
  H       8.948181     42.436745      8.038302
  H      14.277762     22.173204      8.038282
  H      14.277762     42.436796      8.038282
  H      18.960557     24.876228      8.036406
  H      18.960557     39.733772      8.036406
  H      21.624717     29.491420      8.036583
  H      21.624717     35.118580      8.036583
  H      13.177823     34.063198      5.718950
  H      10.799923     34.579631      5.726780
  H       8.961365     32.852017      5.740202
  H       9.757135     30.421056      5.757519
  H      12.272451     29.863858      5.740302
  H      13.992162     31.739256      5.717145
  H      13.545799     39.792567      5.785978
  H      10.876970     39.337067      5.681844
  H       8.148196     39.600077      5.760840
  H       6.162029     37.679649      5.790272
  H       5.294315     35.077791      5.762297
  H       3.553699     32.964719      5.841202
  H       4.184883     30.316318      5.847033
  H       6.021392     28.295367      5.797460
  H       6.936427     25.723987      5.839311
  H       9.579958     24.950245      5.811662
  H      12.269147     25.530487      5.762329
  H      14.959610     25.049116      5.819281
  H      16.972898     26.891225      5.807263
  H      17.803631     29.510457      5.751370
  H      19.541113     31.601641      5.810869
  H      18.971739     34.273584      5.768294
  H      17.164909     36.367760      5.710196
  H      16.140335     38.906177      5.820749
  P      10.106695     36.832190     11.369620
  O      13.362707     37.225098     13.388934
  O      15.447476     39.256948     12.927420
  O      16.166219     37.334556     11.304493
  O      10.879178     37.878748     12.376836
  O      15.536918     34.597951     11.128509
  O       9.484945     35.812246     12.238123
  O      11.110154     36.455615     10.316829
  O       8.947282     37.742298     10.730223
  N      13.616103     35.255331     12.172085
  N      13.706043     33.274129     10.977092
  N      11.836831     31.983767     10.548981
  C      14.445539     38.804957     12.056860
  C      14.789399     37.410540     11.520197
  C      13.168665     38.533235     12.823471
  C      14.278180     36.504113     12.658558
  C      11.965385     38.610271     11.887044
  C      12.324031     34.997771     12.447328
  C      14.372332     34.401854     11.413576
  C      11.678113     33.891891     11.987493
  C      12.383829     33.030253     11.159126
  H      14.283085     39.510663     11.232394
  H      14.218857     37.209150     10.606033
  H      13.057066     39.202620     13.676387
  H      15.113986     36.176747     13.286075
  H      12.243976     38.228222     10.900676
  H      11.700818     39.670307     11.779762
  H      16.284334     38.941313     12.563427
  H      16.368512     36.413750     11.090592
  H      11.812924     35.735328     13.050932
  H      10.610715     33.828511     12.147124
  H      10.836727     31.882410     10.584938
  H      12.325847     31.432717      9.860849
  H       9.222662     38.158508      9.908662
  H      14.237057     32.704754     10.328065
161
Coordinates from ORCA-job /data/Seafile/cmp/protonated/frames/frame11/dry/cmp_prot11 E -13392.454755022143
  Si      3.532915     33.934630      7.831920
  Si      3.452063     30.839579      7.869164
  O       2.313566     34.875858      8.353933
  O       2.102755     30.138395      8.447891
  O       3.453920     32.392970      8.373429
  O       3.597500     33.867697      6.186904
  O       3.493548     30.879910      6.225304
  Si      6.137445     26.181559      7.852537
  Si      8.787735     24.567377      7.843943
  O       4.729033     25.591756      8.410484
  O       7.435823     25.327753      8.363025
  O       8.754391     23.044843      8.415479
  O       6.194223     26.224657      6.207428
  O       8.750972     24.635064      6.201385
  Si      6.100647     29.256591      7.794065
  Si      6.172874     35.506608      7.755355
  Si      8.901773     33.894725      7.701212
  Si      8.851490     30.826135      7.739453
  O       4.811493     30.067422      8.374873
  O       4.908907     34.657579      8.336514
  O       7.565426     34.722536      8.086184
  O       7.471707     30.076353      8.142808
  O       6.219929     27.735200      8.365415
  O       8.849217     32.359758      8.302218
  O       5.867961     29.175520      6.169485
  O       5.977958     35.655405      6.128052
  O       9.058021     33.761962      6.069235
  O       8.999992     30.918100      6.108607
  Si      6.234542     38.588809      7.807117
  Si      8.963355     40.067476      7.759564
  O       4.976909     39.463561      8.353515
  O       7.600853     39.352609      8.298230
  O       6.226853     37.033373      8.319005
  O       9.224814     41.561192      8.338257
  O       6.311451     38.560273      6.162440
  O       8.932318     40.047681      6.115839
  Si     11.479003     26.078554      7.757536
  Si     14.147711     24.551670      7.817470
  O      10.122721     25.388140      8.340082
  O      12.839913     25.393786      8.334160
  O      13.935558     23.026202      8.340228
  O      11.431915     25.842715      6.133217
  O      14.150470     24.653609      6.174147
  Si     11.490201     29.254988      7.718727
  Si     11.599102     35.364836      7.653126
  Si     14.228448     33.815199      7.620797
  Si     14.183627     30.740625      7.664671
  O      10.158199     30.000615      8.311820
  O      10.228741     34.682388      8.213556
  O      12.972406     34.651608      8.239158
  O      12.848958     30.001931      8.291693
  O      11.478257     27.680740      8.104633
  O      14.271657     32.274591      8.258391
  O      11.460822     29.465825      6.094892
  O      11.643115     34.946159      6.045667
  O      13.991622     33.604038      6.015160
  O      13.960334     30.823427      6.047883
  Si     11.650570     38.580300      7.629399
  Si     14.332677     40.053740      7.831873
  O      10.252871     39.166382      8.243943
  O      12.987885     39.241064      8.303755
  O      11.705108     36.970280      7.713686
  O      14.365679     41.562148      8.445164
  O      11.723174     39.051400      6.050158
  O      14.397925     40.029509      6.190965
  Si     16.868959     26.028982      7.842691
  O      15.529887     25.239271      8.351531
  O      18.166176     25.253010      8.440586
  O      16.808877     26.020664      6.199805
  Si     16.909374     29.110133      7.736130
  Si     17.027192     35.361910      7.679488
  Si     19.656923     33.761576      7.810761
  Si     19.551053     30.665699      7.814374
  O      15.502405     29.889082      8.053493
  O      15.642035     34.531474      7.930932
  O      18.286104     34.522523      8.291414
  O      18.152666     29.974690      8.328027
  O      16.825318     27.595157      8.332703
  O      19.665053     32.208746      8.334842
  O      17.117144     28.934899      6.117517
  O      17.327276     35.481623      6.068859
  O      19.625148     33.681023      6.168335
  O      19.475742     30.704842      6.169918
  Si     16.968509     38.430927      7.820589
  O      15.672064     39.268830      8.353364
  O      18.395599     39.011318      8.346260
  O      16.906986     36.861085      8.295072
  O      16.892645     38.409051      6.174252
  O      20.734630     29.691533      8.355627
  O      21.005755     34.462484      8.390132
  H       4.074657     24.986772      8.036591
  H       1.410409     29.602015      8.036749
  H       1.410409     35.007985      8.036749
  H       4.074657     39.623228      8.036591
  H       8.948181     22.173255      8.038302
  H       8.948181     42.436745      8.038302
  H      14.277762     22.173204      8.038282
  H      14.277762     42.436796      8.038282
  H      18.960557     24.876228      8.036406
  H      18.960557     39.733772      8.036406
  H      21.624717     29.491420      8.036583
  H      21.624717     35.118580      8.036583
  H      13.174202     34.064671      5.725140
  H      10.799461     34.578599      5.734853
  H       8.962432     32.853600      5.743349
  H       9.756590     30.422689      5.757926
  H      12.271902     29.865259      5.739334
  H      13.991134     31.742277      5.718136
  H      13.546994     39.794438      5.786097
  H      10.876824     39.339025      5.681702
  H       8.150985     39.599510      5.760197
  H       6.161607     37.678606      5.789928
  H       5.294479     35.076588      5.763176
  H       3.553511     32.964521      5.841758
  H       4.185373     30.316598      5.847235
  H       6.021774     28.295605      5.797633
  H       6.936022     25.723874      5.839138
  H       9.579538     24.949618      5.810993
  H      12.269029     25.529845      5.761388
  H      14.959680     25.048731      5.818567
  H      16.973345     26.890835      5.806491
  H      17.804466     29.510473      5.750576
  H      19.540908     31.602432      5.810928
  H      18.970404     34.273786      5.769193
  H      17.163214     36.366369      5.710989
  H      16.140242     38.906373      5.821299
  P      10.132831     36.804756     11.350762
  O      13.371180     37.203418     13.397269
  O      15.458721     39.232789     12.940252
  O      16.179501     37.309867     11.318577
  O      10.893374     37.849938     12.368477
  O      15.548220     34.575795     11.139575
  O       9.496932     35.785901     12.210048
  O      11.150685     36.426133     10.312183
  O       8.984499     37.717776     10.696324
  N      13.627681     35.232111     12.184326
  N      13.716720     33.253220     10.985520
  N      11.846686     31.963495     10.557655
  C      14.458639     38.781575     12.067230
  C      14.802379     37.386602     11.531937
  C      13.179410     38.511073     12.830278
  C      14.288724     36.481461     12.670168
  C      11.979401     38.588836     11.889118
  C      12.335608     34.974330     12.459357
  C      14.383547     34.379705     11.424380
  C      11.689894     33.868453     11.999614
  C      12.394907     33.008579     11.168917
  H      14.299181     39.487026     11.241924
  H      14.232976     37.184961     10.617110
  H      13.065408     39.180967     13.682458
  H      15.123143     36.155394     13.300230
  H      12.264568     38.214803     10.901554
  H      11.710758     39.648401     11.787898
  H      16.296185     38.916181     12.578482
  H      16.381682     36.388593     11.106526
  H      11.824642     35.712549     13.062171
  H      10.622308     33.805320     12.157566
  H      10.846598     31.862608     10.595357
  H      12.333784     31.414221      9.866753
  H       9.275035     38.143520      9.884569
  H      14.246914     32.685905     10.334050
161
Coordinates from ORCA-job /data/Seafile/cmp/protonated/frames/frame11/dry/cmp_prot11 E -13392.455088358927
  Si      3.532605     33.934329      7.832564
  Si      3.452311     30.839329      7.869448
  O       2.313124     34.875260      8.354727
  O       2.103034     30.137966      8.447915
  O       3.453938     32.392608      8.373925
  O       3.597145     33.867462      6.187547
  O       3.493784     30.879846      6.225590
  Si      6.137476     26.181443      7.852504
  Si      8.787741     24.567290      7.843551
  O       4.729379     25.591223      8.410686
  O       7.435957     25.327674      8.362764
  O       8.754805     23.044921      8.415439
  O       6.193993     26.224617      6.207384
  O       8.750619     24.634517      6.200981
  Si      6.100980     29.256501      7.794304
  Si      6.172364     35.506394      7.756427
  Si      8.901390     33.895220      7.705191
  Si      8.851596     30.826585      7.740480
  O       4.811719     30.067179      8.375133
  O       4.908075     34.657706      8.337367
  O       7.564215     34.722263      8.088687
  O       7.472026     30.076016      8.143317
  O       6.219974     27.734991      8.365473
  O       8.848687     32.359539      8.304384
  O       5.868362     29.175622      6.169708
  O       5.978145     35.654331      6.128909
  O       9.059230     33.763573      6.073189
  O       8.999744     30.919695      6.109589
  Si      6.234423     38.588550      7.806581
  Si      8.963261     40.067299      7.760088
  O       4.977215     39.464123      8.352896
  O       7.600752     39.352446      8.296961
  O       6.225827     37.033480      8.319148
  O       9.224791     41.561166      8.338358
  O       6.310987     38.559356      6.161937
  O       8.934465     40.047346      6.116220
  Si     11.478948     26.078411      7.756329
  Si     14.147707     24.551715      7.816859
  O      10.122742     25.388239      8.339235
  O      12.839832     25.393835      8.333258
  O      13.935604     23.026349      8.339851
  O      11.431813     25.841956      6.132102
  O      14.150665     24.653250      6.173526
  Si     11.490246     29.255071      7.717577
  Si     11.598680     35.365694      7.662798
  Si     14.227416     33.815761      7.625977
  Si     14.183884     30.741093      7.664316
  O      10.158644     30.000529      8.311625
  O      10.226550     34.683755      8.220356
  O      12.972801     34.652277      8.246912
  O      12.849657     30.000839      8.290674
  O      11.478198     27.680660      8.102766
  O      14.272038     32.273853      8.260818
  O      11.460673     29.466914      6.093921
  O      11.643222     34.944627      6.055350
  O      13.989189     33.606283      6.020409
  O      13.960273     30.826210      6.047779
  Si     11.651451     38.581511      7.628671
  Si     14.333461     40.054109      7.832326
  O      10.253339     39.166295      8.245517
  O      12.988405     39.241642      8.303673
  O      11.702554     36.972101      7.714361
  O      14.364825     41.562425      8.445791
  O      11.723403     39.054169      6.050077
  O      14.399384     40.030055      6.191429
  Si     16.868950     26.028961      7.842170
  O      15.529724     25.239558      8.350995
  O      18.165840     25.252627      8.440259
  O      16.809135     26.020487      6.199285
  Si     16.909717     29.110127      7.735378
  Si     17.026571     35.361649      7.681795
  Si     19.656642     33.761797      7.811630
  Si     19.551058     30.665997      7.814439
  O      15.502663     29.889045      8.052132
  O      15.641755     34.531446      7.934881
  O      18.286202     34.522839      8.293102
  O      18.152680     29.974771      8.327824
  O      16.825536     27.595179      8.332018
  O      19.664899     32.208865      8.335424
  O      17.118124     28.934727      6.116880
  O      17.325504     35.480265      6.070822
  O      19.624102     33.681531      6.169206
  O      19.475941     30.705579      6.169991
  Si     16.968737     38.430795      7.821063
  O      15.672521     39.269058      8.354331
  O      18.395734     39.011410      8.346582
  O      16.906891     36.861350      8.296253
  O      16.892599     38.408952      6.174819
  O      20.734591     29.691698      8.355364
  O      21.005875     34.462476      8.390312
  H       4.074657     24.986772      8.036591
  H       1.410409     29.602015      8.036749
  H       1.410409     35.007985      8.036749
  H       4.074657     39.623228      8.036591
  H       8.948181     22.173255      8.038302
  H       8.948181     42.436745      8.038302
  H      14.277762     22.173204      8.038282
  H      14.277762     42.436796      8.038282
  H      18.960557     24.876228      8.036406
  H      18.960557     39.733772      8.036406
  H      21.624717     29.491420      8.036583
  H      21.624717     35.118580      8.036583
  H      13.170463     34.066543      5.732641
  H      10.799353     34.577857      5.744204
  H       8.963799     32.855414      5.746688
  H       9.756144     30.424470      5.758279
  H      12.271501     29.866878      5.738412
  H      13.990051     31.745822      5.719814
  H      13.548314     39.796180      5.786172
  H      10.876634     39.340627      5.681539
  H       8.153683     39.598853      5.759830
  H       6.161295     37.677504      5.789800
  H       5.294681     35.075427      5.764155
  H       3.553353     32.964292      5.842359
  H       4.185784     30.316820      5.847423
  H       6.022017     28.295740      5.797738
  H       6.935635     25.723718      5.838944
  H       9.579090     24.948910      5.810271
  H      12.268935     25.529039      5.760340
  H      14.959829     25.048400      5.817888
  H      16.973787     26.890561      5.805846
  H      17.805239     29.510589      5.750007
  H      19.540596     31.603321      5.811276
  H      18.968739     34.273933      5.770521
  H      17.161116     36.364626      5.712256
  H      16.140131     38.906228      5.821918
  P      10.158662     36.774171     11.329632
  O      13.379461     37.179672     13.405502
  O      15.469454     39.206495     12.952942
  O      16.193877     37.281912     11.334571
  O      10.907952     37.817339     12.357795
  O      15.559549     34.550899     11.151571
  O       9.508739     35.756366     12.179420
  O      11.190097     36.393382     10.304888
  O       9.021470     37.690750     10.661421
  N      13.639250     35.206258     12.197393
  N      13.727209     33.230073     10.994146
  N      11.856152     31.941788     10.565452
  C      14.472005     38.755257     12.076984
  C      14.816271     37.359414     11.544297
  C      13.189916     38.486262     12.835702
  C      14.299309     36.456176     12.682522
  C      11.993734     38.563581     11.888967
  C      12.347091     34.948382     12.471980
  C      14.394718     34.354982     11.435910
  C      11.701472     33.842776     12.011918
  C      12.405752     32.984904     11.178560
  H      14.316051     39.459860     11.250268
  H      14.248905     37.156859     10.628399
  H      13.072736     39.157396     13.686459
  H      15.131891     36.131513     13.315753
  H      12.286105     38.196951     10.900721
  H      11.720693     39.622455     11.792798
  H      16.307867     38.888758     12.594358
  H      16.396117     36.360113     11.124829
  H      11.836236     35.687360     13.073856
  H      10.633636     33.780117     12.167876
  H      10.856032     31.841676     10.604549
  H      12.341399     31.394506      9.871653
  H       9.326301     38.126435      9.859859
  H      14.256487     32.665256     10.339777
161
Coordinates from ORCA-job /data/Seafile/cmp/protonated/frames/frame11/dry/cmp_prot11 E -13392.455465676920
  Si      3.532277     33.933990      7.833355
  Si      3.452559     30.839046      7.869817
  O       2.312642     34.874640      8.355586
  O       2.103354     30.137416      8.448006
  O       3.453902     32.392197      8.374535
  O       3.596874     33.867205      6.188343
  O       3.494023     30.879791      6.225959
  Si      6.137526     26.181276      7.852524
  Si      8.787751     24.567184      7.843207
  O       4.729753     25.590622      8.410908
  O       7.436116     25.327568      8.362588
  O       8.755194     23.044977      8.415415
  O       6.193803     26.224534      6.207394
  O       8.750264     24.633981      6.200624
  Si      6.101258     29.256313      7.794588
  Si      6.171836     35.506109      7.757872
  Si      8.900984     33.895590      7.709842
  Si      8.851681     30.826922      7.741646
  O       4.811943     30.066892      8.375475
  O       4.907161     34.657799      8.338492
  O       7.562852     34.721773      8.091609
  O       7.472333     30.075502      8.143819
  O       6.219989     27.734709      8.365625
  O       8.848011     32.359078      8.306945
  O       5.868651     29.175611      6.169986
  O       5.978396     35.653290      6.130130
  O       9.060735     33.765340      6.077805
  O       8.999594     30.921345      6.110734
  Si      6.234329     38.588213      7.806347
  Si      8.963181     40.067058      7.761034
  O       4.977461     39.464608      8.352421
  O       7.600675     39.352147      8.296216
  O       6.224780     37.033537      8.319663
  O       9.224508     41.561175      8.338769
  O       6.310737     38.558348      6.161751
  O       8.936612     40.046807      6.117022
  Si     11.478922     26.078190      7.755175
  Si     14.147731     24.551751      7.816312
  O      10.122790     25.388279      8.338444
  O      12.839784     25.393855      8.332455
  O      13.935626     23.026477      8.339478
  O      11.431742     25.841089      6.131048
  O      14.150926     24.652916      6.172974
  Si     11.490324     29.255090      7.716578
  Si     11.598236     35.366666      7.674601
  Si     14.226293     33.816336      7.632474
  Si     14.184149     30.741606      7.664502
  O      10.159071     30.000283      8.311572
  O      10.224170     34.684769      8.228340
  O      12.973315     34.652886      8.256441
  O      12.850349     29.999626      8.290040
  O      11.478181     27.680500      8.100917
  O      14.272454     32.272970      8.264196
  O      11.460711     29.468118      6.093133
  O      11.643568     34.943471      6.067030
  O      13.986401     33.608787      6.026981
  O      13.960207     30.829407      6.048254
  Si     11.652440     38.582808      7.628294
  Si     14.334424     40.054520      7.832813
  O      10.254076     39.166563      8.247464
  O      12.989057     39.242464      8.303763
  O      11.700050     36.974111      7.716484
  O      14.364338     41.562748      8.446373
  O      11.723657     39.056334      6.050174
  O      14.400933     40.030460      6.191918
  Si     16.868948     26.028942      7.841771
  O      15.529591     25.239803      8.350566
  O      18.165557     25.252273      8.439987
  O      16.809358     26.020390      6.198885
  Si     16.910066     29.110117      7.734892
  Si     17.025878     35.361314      7.684746
  Si     19.656327     33.762006      7.812801
  Si     19.551073     30.666306      7.814730
  O      15.502936     29.888979      8.051118
  O      15.641486     34.531370      7.939894
  O      18.286361     34.523180      8.295294
  O      18.152719     29.974834      8.327867
  O      16.825767     27.595173      8.331537
  O      19.664764     32.208974      8.336307
  O      17.119056     28.934604      6.116494
  O      17.323371     35.478612      6.073359
  O      19.622786     33.682005      6.170378
  O      19.476108     30.706380      6.170296
  Si     16.969035     38.430567      7.821628
  O      15.673120     39.269317      8.355369
  O      18.395971     39.011424      8.346877
  O      16.906828     36.861644      8.297898
  O      16.892536     38.408534      6.175488
  O      20.734620     29.691904      8.355263
  O      21.006033     34.462486      8.390582
  H       4.074657     24.986772      8.036591
  H       1.410409     29.602015      8.036749
  H       1.410409     35.007985      8.036749
  H       4.074657     39.623228      8.036591
  H       8.948181     22.173255      8.038302
  H       8.948181     42.436745      8.038302
  H      14.277762     22.173204      8.038282
  H      14.277762     42.436796      8.038282
  H      18.960557     24.876228      8.036406
  H      18.960557     39.733772      8.036406
  H      21.624717     29.491420      8.036583
  H      21.624717     35.118580      8.036583
  H      13.166324     34.068797      5.741725
  H      10.799560     34.577505      5.755362
  H       8.965480     32.857459      5.750490
  H       9.755843     30.426384      5.758794
  H      12.271282     29.868734      5.737802
  H      13.988875     31.749884      5.722322
  H      13.549730     39.797708      5.786321
  H      10.876450     39.341583      5.681570
  H       8.156378     39.597989      5.759911
  H       6.161231     37.676289      5.790024
  H       5.295012     35.074289      5.765407
  H       3.553324     32.964040      5.843111
  H       4.186169     30.317022      5.847686
  H       6.022189     28.295773      5.797888
  H       6.935307     25.723540      5.838817
  H       9.578653     24.948180      5.809599
  H      12.268884     25.528177      5.759340
  H      14.960034     25.048154      5.817316
  H      16.974197     26.890390      5.805370
  H      17.805923     29.510795      5.749682
  H      19.540164     31.604303      5.811907
  H      18.966706     34.274009      5.772255
  H      17.158587     36.362527      5.713988
  H      16.139997     38.905740      5.822617
  P      10.182945     36.739458     11.306587
  O      13.385518     37.152683     13.414431
  O      15.478063     39.176573     12.966418
  O      16.207673     37.248893     11.353742
  O      10.921394     37.780043     12.345257
  O      15.568829     34.521484     11.166030
  O       9.519034     35.722588     12.146440
  O      11.227454     36.356491     10.295525
  O       9.057120     37.660317     10.625735
  N      13.648616     35.176557     12.212212
  N      13.735162     33.203226     11.004324
  N      11.862660     31.917366     10.573811
  C      14.484097     38.724571     12.086975
  C      14.829382     37.327446     11.558325
  C      13.198518     38.457630     12.840426
  C      14.307884     36.426935     12.696626
  C      12.006962     38.533413     11.887071
  C      12.356184     34.919011     12.485943
  C      14.403647     34.326192     11.449402
  C      11.710400     33.814021     12.025189
  C      12.413907     32.958053     11.189204
  H      14.332350     39.427664     11.258179
  H      14.265052     37.123326     10.640892
  H      13.077327     39.130775     13.689007
  H      15.137999     36.103664     13.333804
  H      12.307209     38.173397     10.898729
  H      11.729340     39.591400     11.794731
  H      16.317760     38.857424     12.612111
  H      16.410014     36.326482     11.146785
  H      11.845467     35.659056     13.086550
  H      10.642225     33.752297     12.178643
  H      10.862460     31.818490     10.613944
  H      12.346077     31.371884      9.877279
  H       9.375572     38.106531      9.834908
  H      14.263458     32.641046     10.346904
161
Coordinates from ORCA-job /data/Seafile/cmp/protonated/frames/frame11/dry/cmp_prot11 E -13392.455886352811
  Si      3.531938     33.933626      7.834355
  Si      3.452801     30.838740      7.870324
  O       2.312102     34.873982      8.356568
  O       2.103689     30.136772      8.448184
  O       3.453810     32.391751      8.375324
  O       3.596745     33.866940      6.189355
  O       3.494309     30.879767      6.226469
  Si      6.137581     26.181060      7.852657
  Si      8.787747     24.567054      7.842975
  O       4.730137     25.589952      8.411184
  O       7.436272     25.327422      8.362565
  O       8.755528     23.044991      8.415441
  O       6.193679     26.224451      6.207522
  O       8.749920     24.633493      6.200381
  Si      6.101458     29.256023      7.795033
  Si      6.171301     35.505772      7.759809
  Si      8.900560     33.895815      7.715462
  Si      8.851711     30.827137      7.743196
  O       4.812128     30.066554      8.375989
  O       4.906154     34.657888      8.339992
  O       7.561309     34.721059      8.095142
  O       7.472583     30.074795      8.144497
  O       6.219944     27.734344      8.365971
  O       8.847118     32.358352      8.310180
  O       5.868842     29.175511      6.170428
  O       5.978752     35.652284      6.131829
  O       9.062718     33.767286      6.083407
  O       8.999559     30.923083      6.112301
  Si      6.234286     38.587820      7.806464
  Si      8.963156     40.066757      7.762420
  O       4.977648     39.465036      8.352110
  O       7.600608     39.351802      8.296031
  O       6.223738     37.033574      8.320652
  O       9.224046     41.561240      8.339475
  O       6.310726     38.557219      6.161932
  O       8.938799     40.045995      6.118260
  Si     11.478899     26.077890      7.754222
  Si     14.147761     24.551782      7.815929
  O      10.122835     25.388237      8.337827
  O      12.839742     25.393829      8.331885
  O      13.935623     23.026566      8.339167
  O      11.431681     25.840177      6.130192
  O      14.151208     24.652687      6.172597
  Si     11.490389     29.255044      7.716018
  Si     11.597828     35.367700      7.689335
  Si     14.225126     33.816874      7.641028
  Si     14.184382     30.742154      7.665751
  O      10.159421     29.999864      8.311943
  O      10.221526     34.685368      8.238037
  O      12.974014     34.653337      8.268549
  O      12.850963     29.998226      8.290198
  O      11.478145     27.680240      8.099311
  O      14.272909     32.271865      8.269186
  O      11.460939     29.469518      6.092823
  O      11.644336     34.942574      6.081510
  O      13.983302     33.611560      6.035614
  O      13.960099     30.833130      6.049838
  Si     11.653578     38.584112      7.628505
  Si     14.335579     40.054963      7.833428
  O      10.255098     39.167218      8.249860
  O      12.989859     39.243560      8.304187
  O      11.697687     36.976262      7.720585
  O      14.364267     41.563134      8.446947
  O      11.724004     39.057658      6.050633
  O      14.402560     40.030603      6.192529
  Si     16.868937     26.028913      7.841634
  O      15.529473     25.239979      8.350371
  O      18.165314     25.251881      8.439826
  O      16.809485     26.020463      6.198746
  Si     16.910380     29.110092      7.735004
  Si     17.025122     35.360870      7.688825
  Si     19.655994     33.762178      7.814523
  Si     19.551065     30.666609      7.815462
  O      15.503191     29.888837      8.050898
  O      15.641291     34.531204      7.946662
  O      18.286659     34.523545      8.298395
  O      18.152787     29.974846      8.328451
  O      16.826014     27.595095      8.331514
  O      19.664688     32.209045      8.337732
  O      17.119808     28.934590      6.116672
  O      17.320718     35.476506      6.076916
  O      19.621056     33.682419      6.172106
  O      19.476075     30.707265      6.171057
  Si     16.969416     38.430222      7.822459
  O      15.673883     39.269621      8.356606
  O      18.396320     39.011404      8.347258
  O      16.906856     36.861995      8.300341
  O      16.892400     38.407622      6.176445
  O      20.734743     29.692131      8.355423
  O      21.006310     34.462485      8.391038
  H       4.074657     24.986772      8.036591
  H       1.410409     29.602015      8.036749
  H       1.410409     35.007985      8.036749
  H       4.074657     39.623228      8.036591
  H       8.948181     22.173255      8.038302
  H       8.948181     42.436745      8.038302
  H      14.277762     22.173204      8.038282
  H      14.277762     42.436796      8.038282
  H      18.960557     24.876228      8.036406
  H      18.960557     39.733772      8.036406
  H      21.624717     29.491420      8.036583
  H      21.624717     35.118580      8.036583
  H      13.161843     34.071504      5.753187
  H      10.800281     34.577470      5.769034
  H       8.967649     32.859779      5.755039
  H       9.755713     30.428464      5.759751
  H      12.271260     29.870945      5.737854
  H      13.987544     31.754600      5.726272
  H      13.551213     39.798846      5.786694
  H      10.876329     39.341626      5.681955
  H       8.159081     39.596857      5.760475
  H       6.161451     37.674907      5.790679
  H       5.295512     35.073167      5.767044
  H       3.553458     32.963778      5.844076
  H       4.186579     30.317212      5.848107
  H       6.022298     28.295731      5.798185
  H       6.935069     25.723380      5.838826
  H       9.578257     24.947470      5.809076
  H      12.268860     25.527337      5.758518
  H      14.960254     25.048071      5.816969
  H      16.974508     26.890435      5.805256
  H      17.806363     29.511169      5.749894
  H      19.539427     31.605399      5.813048
  H      18.964125     34.273986      5.774705
  H      17.155399     36.359884      5.716576
  H      16.139772     38.904718      5.823573
  P      10.206519     36.701811     11.281382
  O      13.390762     37.123737     13.423679
  O      15.485879     39.144269     12.980080
  O      16.222204     37.211964     11.375653
  O      10.935067     37.739085     12.330407
  O      15.577329     34.488932     11.182313
  O       9.529206     35.685608     12.111108
  O      11.263006     36.316956     10.283076
  O       9.091640     37.627414     10.589628
  N      13.657203     35.144126     12.228625
  N      13.741961     33.173994     11.015535
  N      11.867711     31.891502     10.582227
  C      14.496258     38.690651     12.096651
  C      14.843059     37.291793     11.573624
  C      13.206566     38.426358     12.843898
  C      14.315854     36.394929     12.712186
  C      12.020430     38.499370     11.882877
  C      12.364420     34.887107     12.501386
  C      14.411681     34.294607     11.464440
  C      11.718263     33.783043     12.039581
  C      12.420853     32.929159     11.200573
  H      14.349434     39.391493     11.265065
  H      14.282732     37.085301     10.654266
  H      13.080538     39.102416     13.689429
  H      15.142884     36.073140     13.354107
  H      12.329255     38.145121     10.895065
  H      11.738042     39.556281     11.793059
  H      16.327195     38.823411     12.631194
  H      16.424678     36.288871     11.171896
  H      11.853885     35.628394     13.100538
  H      10.649711     33.722523     12.190319
  H      10.867371     31.794254     10.623065
  H      12.349307     31.347999      9.882798
  H       9.422605     38.084583      9.809833
  H      14.269118     32.614865     10.354594
161
Coordinates from ORCA-job /data/Seafile/cmp/protonated/frames/frame11/dry/cmp_prot11 E -13392.456359408747
  Si      3.531587     33.933241      7.835597
  Si      3.453037     30.838414      7.870984
  O       2.311489     34.873286      8.357680
  O       2.104038     30.136025      8.448448
  O       3.453661     32.391267      8.376320
  O       3.596784     33.866673      6.190620
  O       3.494638     30.879797      6.227134
  Si      6.137653     26.180776      7.852926
  Si      8.787738     24.566901      7.842880
  O       4.730547     25.589182      8.411520
  O       7.436438     25.327224      8.362729
  O       8.755809     23.044959      8.415517
  O       6.193640     26.224344      6.207789
  O       8.749596     24.633077      6.200275
  Si      6.101556     29.255593      7.795637
  Si      6.170732     35.505421      7.762319
  Si      8.900062     33.895855      7.722200
  Si      8.851670     30.827188      7.745136
  O       4.812272     30.066148      8.376688
  O       4.905015     34.658013      8.341928
  O       7.559508     34.720071      8.099353
  O       7.472769     30.073837      8.145318
  O       6.219828     27.733872      8.366539
  O       8.845922     32.357289      8.314159
  O       5.868877     29.175264      6.171038
  O       5.979192     35.651399      6.134090
  O       9.065225     33.769461      6.090144
  O       8.999669     30.924900      6.114298
  Si      6.234325     38.587409      7.806993
  Si      8.963240     40.066364      7.764421
  O       4.977776     39.465440      8.351950
  O       7.600536     39.351470      8.296602
  O       6.222705     37.033636      8.322221
  O       9.223372     41.561377      8.340556
  O       6.311080     38.555991      6.162553
  O       8.941133     40.044780      6.120109
  Si     11.478890     26.077506      7.753507
  Si     14.147802     24.551810      7.815729
  O      10.122890     25.388107      8.337419
  O      12.839718     25.393753      8.331586
  O      13.935584     23.026615      8.338906
  O      11.431639     25.839217      6.129572
  O      14.151528     24.652583      6.172414
  Si     11.490466     29.254930      7.715981
  Si     11.597433     35.368778      7.707615
  Si     14.223883     33.817342      7.651824
  Si     14.184607     30.742714      7.668177
  O      10.159684     29.999238      8.312776
  O      10.218524     34.685425      8.249762
  O      12.974944     34.653522      8.283665
  O      12.851507     29.996652      8.291290
  O      11.478118     27.679870      8.097984
  O      14.273472     32.270495      8.275940
  O      11.461439     29.471132      6.093078
  O      11.645546     34.942016      6.099348
  O      13.979710     33.614625      6.046516
  O      13.959956     30.837425      6.052659
  Si     11.654955     38.585371      7.629548
  Si     14.337009     40.055442      7.834229
  O      10.256501     39.168295      8.252926
  O      12.990923     39.244952      8.305106
  O      11.695538     36.978535      7.727106
  O      14.364712     41.563605      8.447516
  O      11.724496     39.057908      6.051638
  O      14.404295     40.030407      6.193317
  Si     16.868916     26.028867      7.841779
  O      15.529375     25.240076      8.350437
  O      18.165111     25.251429      8.439778
  O      16.809503     26.020714      6.198889
  Si     16.910686     29.110034      7.735749
  Si     17.024291     35.360287      7.694098
  Si     19.655630     33.762306      7.816820
  Si     19.551045     30.666908      7.816649
  O      15.503454     29.888589      8.051526
  O      15.641162     34.530915      7.955275
  O      18.287097     34.523926      8.302454
  O      18.152899     29.974803      8.329603
  O      16.826302     27.594931      8.331985
  O      19.664672     32.209077      8.339731
  O      17.120401     28.934677      6.117447
  O      17.317514     35.473904      6.081557
  O      19.618847     33.682758      6.174415
  O      19.475848     30.708247      6.172291
  Si     16.969915     38.429725      7.823581
  O      15.674894     39.269992      8.358101
  O      18.396835     39.011303      8.347695
  O      16.906982     36.862379      8.303669
  O      16.892188     38.406146      6.177718
  O      20.734974     29.692395      8.355857
  O      21.006700     34.462480      8.391672
  H       4.074657     24.986772      8.036591
  H       1.410409     29.602015      8.036749
  H       1.410409     35.007985      8.036749
  H       4.074657     39.623228      8.036591
  H       8.948181     22.173255      8.038302
  H       8.948181     42.436745      8.038302
  H      14.277762     22.173204      8.038282
  H      14.277762     42.436796      8.038282
  H      18.960557     24.876228      8.036406
  H      18.960557     39.733772      8.036406
  H      21.624717     29.491420      8.036583
  H      21.624717     35.118580      8.036583
  H      13.156779     34.074700      5.767373
  H      10.801542     34.577887      5.785720
  H       8.970370     32.862443      5.760428
  H       9.755812     30.430733      5.761165
  H      12.271507     29.873555      5.738676
  H      13.986018     31.760039      5.731845
  H      13.552791     39.799459      5.787383
  H      10.876322     39.340496      5.682878
  H       8.161914     39.595336      5.761685
  H       6.162103     37.673378      5.791848
  H       5.296166     35.072162      5.769128
  H       3.553801     32.963516      5.845288
  H       4.187003     30.317419      5.848687
  H       6.022303     28.295558      5.798629
  H       6.934942     25.723220      5.838993
  H       9.577905     24.946815      5.808727
  H      12.268873     25.526526      5.757906
  H      14.960507     25.048185      5.816874
  H      16.974704     26.890711      5.805531
  H      17.806563     29.511723      5.750675
  H      19.538375     31.606633      5.814728
  H      18.960898     34.273829      5.777923
  H      17.151515     36.356640      5.720071
  H      16.139450     38.903089      5.824823
  P      10.227753     36.660137     11.254738
  O      13.393410     37.091712     13.434002
  O      15.491252     39.108378     12.994723
  O      16.235962     37.169682     11.401475
  O      10.947453     37.693389     12.313857
  O      15.583496     34.451801     11.201800
  O       9.537748     35.644310     12.074233
  O      11.295117     36.273813     10.268116
  O       9.123308     37.590976     10.553959
  N      13.663269     35.107833     12.247466
  N      13.745904     33.141166     11.028768
  N      11.869507     31.863188     10.591428
  C      14.506960     38.652197     12.106759
  C      14.855792     37.251104     11.591174
  C      13.212457     38.391269     12.846734
  C      14.321477     36.358975     12.730159
  C      12.032695     38.460204     11.876907
  C      12.369977     34.851697     12.518915
  C      14.417168     34.258959     11.482088
  C      11.723192     33.748966     12.055570
  C      12.424806     32.897199     11.213372
  H      14.365879     39.349939     11.271582
  H      14.300552     37.041328     10.669479
  H      13.080704     39.071215     13.688236
  H      15.144657     36.038734     13.377757
  H      12.350817     38.110674     10.890325
  H      11.745459     39.515866     11.788056
  H      16.334540     38.785491     12.652550
  H      16.438579     36.245841     11.201318
  H      11.859614     35.594506     13.116264
  H      10.654204     33.690031     12.203172
  H      10.868966     31.768069     10.632516
  H      12.349349     31.321634      9.889148
  H       9.465744     38.059764      9.785641
  H      14.271840     32.585367     10.364022
161
Coordinates from ORCA-job /data/Seafile/cmp/protonated/frames/frame11/dry/cmp_prot11 E -13392.456907555370
  Si      3.531190     33.932828      7.836941
  Si      3.453242     30.838063      7.871670
  O       2.310818     34.872546      8.358877
  O       2.104384     30.135226      8.448749
  O       3.453467     32.390743      8.377388
  O       3.596864     33.866401      6.191995
  O       3.494920     30.879845      6.227825
  Si      6.137728     26.180394      7.853219
  Si      8.787715     24.566709      7.842829
  O       4.730974     25.588339      8.411876
  O       7.436610     25.326974      8.362985
  O       8.756026     23.044888      8.415617
  O       6.193640     26.224115      6.208084
  O       8.749264     24.632658      6.200214
  Si      6.101496     29.254978      7.796164
  Si      6.170088     35.505046      7.765119
  Si      8.899412     33.895608      7.729676
  Si      8.851522     30.826994      7.747111
  O       4.812354     30.065655      8.377385
  O       4.903740     34.658164      8.344082
  O       7.557383     34.718736      8.103855
  O       7.472850     30.072576      8.145970
  O       6.219628     27.733278      8.367152
  O       8.844346     32.355801      8.318504
  O       5.868615     29.174772      6.171596
  O       5.979551     35.650711      6.136653
  O       9.068293     33.771788      6.097657
  O       8.999916     30.926686      6.116374
  Si      6.234501     38.586978      7.807868
  Si      8.963499     40.065940      7.766772
  O       4.977882     39.465774      8.351956
  O       7.600579     39.351166      8.297721
  O       6.221761     37.033678      8.324177
  O       9.222569     41.561594      8.341882
  O       6.311766     38.554743      6.163543
  O       8.943584     40.043276      6.122310
  Si     11.478892     26.076998      7.752846
  Si     14.147861     24.551827      7.815640
  O      10.122952     25.387884      8.337075
  O      12.839702     25.393627      8.331433
  O      13.935505     23.026629      8.338675
  O      11.431629     25.838079      6.129019
  O      14.151927     24.652551      6.172354
  Si     11.490544     29.254707      7.716163
  Si     11.596968     35.369907      7.729693
  Si     14.222524     33.817738      7.665014
  Si     14.184796     30.743294      7.671686
  O      10.159827     29.998350      8.313739
  O      10.214951     34.684853      8.263358
  O      12.976043     34.653368      8.301972
  O      12.851936     29.994844      8.293092
  O      11.478082     27.679363      8.096684
  O      14.274073     32.268809      8.284493
  O      11.462269     29.472936      6.093600
  O      11.647245     34.941878      6.120748
  O      13.975664     33.618073      6.059828
  O      13.959816     30.842400      6.056622
  Si     11.656598     38.586555      7.631304
  Si     14.338724     40.055965      7.835165
  O      10.258298     39.169840      8.256411
  O      12.992241     39.246667      8.306408
  O      11.693602     36.980942      7.736114
  O      14.365730     41.564158      8.448056
  O      11.725233     39.056968      6.053047
  O      14.406166     40.029884      6.194236
  Si     16.868888     26.028804      7.842165
  O      15.529287     25.240108      8.350710
  O      18.164926     25.250894      8.439829
  O      16.809448     26.021142      6.199275
  Si     16.910961     29.109955      7.737075
  Si     17.023336     35.359549      7.700736
  Si     19.655220     33.762398      7.819760
  Si     19.551005     30.667206      7.818302
  O      15.503685     29.888226      8.052941
  O      15.641069     34.530486      7.965980
  O      18.287666     34.524315      8.307600
  O      18.153034     29.974706      8.331298
  O      16.826618     27.594686      8.332897
  O      19.664716     32.209062      8.342345
  O      17.120832     28.934879      6.118770
  O      17.313641     35.470746      6.087443
  O      19.616120     33.683052      6.177375
  O      19.475442     30.709352      6.174008
  Si     16.970532     38.429071      7.825023
  O      15.676147     39.270433      8.359838
  O      18.397512     39.011128      8.348217
  O      16.907203     36.862813      8.307968
  O      16.891907     38.404059      6.179342
  O      20.735305     29.692682      8.356569
  O      21.007212     34.462469      8.392515
  H       4.074657     24.986772      8.036591
  H       1.410409     29.602015      8.036749
  H       1.410409     35.007985      8.036749
  H       4.074657     39.623228      8.036591
  H       8.948181     22.173255      8.038302
  H       8.948181     42.436745      8.038302
  H      14.277762     22.173204      8.038282
  H      14.277762     42.436796      8.038282
  H      18.960557     24.876228      8.036406
  H      18.960557     39.733772      8.036406
  H      21.624717     29.491420      8.036583
  H      21.624717     35.118580      8.036583
  H      13.151182     34.078514      5.784436
  H      10.803427     34.578849      5.805510
  H       8.973724     32.865376      5.766281
  H       9.756153     30.433086      5.762722
  H      12.272111     29.876550      5.740026
  H      13.984349     31.766332      5.739009
  H      13.554503     39.799501      5.788339
  H      10.876551     39.338146      5.684187
  H       8.164787     39.593572      5.763325
  H       6.163121     37.671794      5.793419
  H       5.296754     35.071388      5.771429
  H       3.554186     32.963245      5.846603
  H       4.187330     30.317581      5.849282
  H       6.022032     28.295140      5.799028
  H       6.934880     25.722949      5.839214
  H       9.577563     24.946143      5.808442
  H      12.268935     25.525587      5.757360
  H      14.960841     25.048426      5.816959
  H      16.974808     26.891219      5.806154
  H      17.806536     29.512457      5.751986
  H      19.537044     31.608029      5.816967
  H      18.956972     34.273564      5.781997
  H      17.146814     36.352728      5.724613
  H      16.139050     38.900817      5.826385
  P      10.248982     36.615893     11.225912
  O      13.396734     37.058423     13.443944
  O      15.497187     39.070785     13.008154
  O      16.251844     37.123688     11.429362
  O      10.961394     37.644480     12.294474
  O      15.590279     34.411652     11.223055
  O       9.547765     35.599961     12.035516
  O      11.325705     36.228810     10.249211
  O       9.153557     37.552022     10.518620
  N      13.669959     35.069310     12.267642
  N      13.749844     33.106466     11.042769
  N      11.870725     31.834497     10.600140
  C      14.519119     38.610807     12.115381
  C      14.870542     37.206903     11.609342
  C      13.219240     38.353987     12.847212
  C      14.327963     36.320783     12.749151
  C      12.046642     38.417205     11.867602
  C      12.376056     34.814410     12.537726
  C      14.423109     34.220853     11.501120
  C      11.728267     33.713504     12.072354
  C      12.428633     32.864000     11.226504
  H      14.384435     39.304395     11.275719
  H      14.321366     36.992607     10.685075
  H      13.080940     39.038956     13.683544
  H      15.146620     36.002322     13.403298
  H      12.374600     38.070956     10.883041
  H      11.754595     39.471450     11.777840
  H      16.342756     38.745574     12.673921
  H      16.454623     36.198984     11.233426
  H      11.865987     35.558964     13.133080
  H      10.658823     33.656487     12.216684
  H      10.869910     31.742104     10.641105
  H      12.348763     31.295033      9.894862
  H       9.505620     38.033047      9.761893
  H      14.274336     32.554359     10.373760
161
Coordinates from ORCA-job /data/Seafile/cmp/protonated/frames/frame11/dry/cmp_prot11 E -13392.457587600518
  Si      3.530727     33.932374      7.838327
  Si      3.453423     30.837680      7.872339
  O       2.310113     34.871799      8.360095
  O       2.104732     30.134390      8.449067
  O       3.453229     32.390167      8.378470
  O       3.596898     33.866111      6.193414
  O       3.495111     30.879894      6.228499
  Si      6.137817     26.179884      7.853458
  Si      8.787702     24.566472      7.842707
  O       4.731441     25.587415      8.412225
  O       7.436824     25.326668      8.363225
  O       8.756226     23.044805      8.415692
  O       6.193613     26.223679      6.208323
  O       8.748880     24.632149      6.200079
  Si      6.101275     29.254143      7.796496
  Si      6.169347     35.504601      7.768103
  Si      8.898546     33.894989      7.737882
  Si      8.851282     30.826489      7.748925
  O       4.812396     30.065052      8.377991
  O       4.902308     34.658318      8.346356
  O       7.554902     34.717014      8.108588
  O       7.472845     30.070958      8.146279
  O       6.219360     27.732536      8.367694
  O       8.842368     32.353771      8.323107
  O       5.868010     29.173993      6.171994
  O       5.979859     35.650119      6.139407
  O       9.071826     33.774218      6.105931
  O       9.000262     30.928426      6.118329
  Si      6.234780     38.586506      7.808970
  Si      8.963914     40.065488      7.769318
  O       4.977966     39.466008      8.352073
  O       7.600785     39.350790      8.299239
  O       6.220897     37.033666      8.326357
  O       9.221575     41.561845      8.343410
  O       6.312733     38.553496      6.164785
  O       8.946145     40.041567      6.124718
  Si     11.478937     26.076336      7.751944
  Si     14.147969     24.551820      7.815479
  O      10.123062     25.387590      8.336571
  O      12.839722     25.393464      8.331163
  O      13.935382     23.026641      8.338378
  O      11.431658     25.836617      6.128257
  O      14.152476     24.652435      6.172220
  Si     11.490677     29.254358      7.716135
  Si     11.596300     35.371191      7.755898
  Si     14.220967     33.818125      7.680172
  Si     14.184999     30.743913      7.675650
  O      10.159917     29.997125      8.314502
  O      10.210660     34.683571      8.278897
  O      12.977330     34.652837      8.323351
  O      12.852345     29.992816      8.295046
  O      11.478113     27.678716      8.094999
  O      14.274750     32.266794      8.294264
  O      11.463406     29.474921      6.093972
  O      11.649194     34.942460      6.145935
  O      13.970996     33.622120      6.075116
  O      13.959666     30.848112      6.061114
  Si     11.658490     38.587709      7.633815
  Si     14.340726     40.056550      7.836254
  O      10.260421     39.171852      8.260261
  O      12.993820     39.248755      8.308124
  O      11.691803     36.983592      7.747781
  O      14.367315     41.564805      8.448574
  O      11.726258     39.054759      6.054861
  O      14.408130     40.029085      6.195302
  Si     16.868876     26.028729      7.842550
  O      15.529228     25.240103      8.350965
  O      18.164747     25.250347      8.439888
  O      16.809426     26.021612      6.199656
  Si     16.911268     29.109856      7.738484
  Si     17.022229     35.358665      7.708421
  Si     19.654746     33.762472      7.823115
  Si     19.550984     30.667517      7.820143
  O      15.503931     29.887773      8.054513
  O      15.640956     34.529929      7.978357
  O      18.288309     34.524688      8.313523
  O      18.153189     29.974574      8.333123
  O      16.826956     27.594406      8.333842
  O      19.664802     32.209010      8.345309
  O      17.121310     28.935130      6.120169
  O      17.309144     35.467149      6.094282
  O      19.612958     33.683370      6.180758
  O      19.475081     30.710589      6.175923
  Si     16.971256     38.428268      7.826715
  O      15.677653     39.270955      8.361782
  O      18.398357     39.010844      8.348750
  O      16.907483     36.863261      8.313046
  O      16.891582     38.401472      6.181244
  O      20.735679     29.692963      8.357402
  O      21.007785     34.462457      8.393463
  H       4.074657     24.986772      8.036591
  H       1.410409     29.602015      8.036749
  H       1.410409     35.007985      8.036749
  H       4.074657     39.623228      8.036591
  H       8.948181     22.173255      8.038302
  H       8.948181     42.436745      8.038302
  H      14.277762     22.173204      8.038282
  H      14.277762     42.436796      8.038282
  H      18.960557     24.876228      8.036406
  H      18.960557     39.733772      8.036406
  H      21.624717     29.491420      8.036583
  H      21.624717     35.118580      8.036583
  H      13.144886     34.083225      5.804039
  H      10.805749     34.580582      5.828638
  H       8.977691     32.868537      5.772553
  H       9.756700     30.435546      5.764170
  H      12.273021     29.879948      5.741448
  H      13.982475     31.773548      5.747187
  H      13.556335     39.798956      5.789560
  H      10.877103     39.334573      5.685864
  H       8.167727     39.591628      5.765232
  H       6.164425     37.670198      5.795252
  H       5.297309     35.070742      5.773836
  H       3.554542     32.962961      5.847949
  H       4.187509     30.317702      5.849811
  H       6.021425     28.294433      5.799267
  H       6.934813     25.722494      5.839383
  H       9.577158     24.945368      5.808044
  H      12.269049     25.524323      5.756626
  H      14.961329     25.048622      5.817013
  H      16.974915     26.891800      5.806814
  H      17.806560     29.513258      5.753410
  H      19.535695     31.609603      5.819497
  H      18.952457     34.273268      5.786665
  H      17.141393     36.348300      5.729971
  H      16.138605     38.898028      5.828196
  P      10.268110     36.567321     11.194339
  O      13.398247     37.021716     13.453760
  O      15.501382     39.029331     13.020847
  O      16.267679     37.071671     11.460095
  O      10.974572     37.590551     12.271896
  O      15.595484     34.365821     11.247369
  O       9.556286     35.551156     11.994097
  O      11.353208     36.179498     10.226486
  O       9.181153     37.509386     10.482522
  N      13.674845     35.026456     12.289592
  N      13.751412     33.067424     11.058603
  N      11.868764     31.803252     10.609275
  C      14.530554     38.564270     12.122942
  C      14.885135     37.156969     11.628697
  C      13.224651     38.312327     12.845539
  C      14.332912     36.278222     12.769644
  C      12.060393     38.368166     11.854860
  C      12.380093     34.773487     12.557911
  C      14.427199     34.177841     11.522476
  C      11.730826     33.674991     12.090002
  C      12.429806     32.827459     11.240629
  H      14.402983     39.252579     11.277845
  H      14.343143     36.936915     10.701577
  H      13.078763     39.003402     13.675500
  H      15.146220     35.961763     13.431337
  H      12.398877     38.023399     10.873316
  H      11.763926     39.420893     11.761957
  H      16.349553     38.701549     12.695877
  H      16.470628     36.145927     11.269284
  H      11.870475     35.520167     13.150907
  H      10.660858     33.620471     12.230551
  H      10.867592     31.714380     10.649624
  H      12.344992     31.265537      9.901290
  H       9.541360     38.003397      9.737706
  H      14.274391     32.518966     10.385342
161
Coordinates from ORCA-job /data/Seafile/cmp/protonated/frames/frame11/dry/cmp_prot11 E -13392.458460549436
  Si      3.530132     33.931842      7.839625
  Si      3.453560     30.837235      7.872965
  O       2.309393     34.871064      8.361291
  O       2.105013     30.133603      8.449403
  O       3.452940     32.389525      8.379484
  O       3.596684     33.865733      6.194745
  O       3.495204     30.879834      6.229127
  Si      6.137888     26.179227      7.853661
  Si      8.787688     24.566175      7.842532
  O       4.731889     25.586456      8.412607
  O       7.437050     25.326288      8.363435
  O       8.756407     23.044699      8.415778
  O       6.193498     26.223001      6.208526
  O       8.748457     24.631517      6.199892
  Si      6.100884     29.253072      7.796665
  Si      6.168450     35.503988      7.770899
  Si      8.897392     33.893893      7.746460
  Si      8.850942     30.825603      7.750580
  O       4.812354     30.064303      8.378488
  O       4.900723     34.658384      8.348493
  O       7.552045     34.714911      8.113184
  O       7.472710     30.068993      8.146320
  O       6.219021     27.731625      8.368152
  O       8.839947     32.351179      8.327779
  O       5.867123     29.172927      6.172249
  O       5.979939     35.649515      6.142003
  O       9.075858     33.776463      6.114657
  O       9.000693     30.929926      6.120167
  Si      6.235137     38.585904      7.810117
  Si      8.964442     40.065150      7.771615
  O       4.978058     39.466040      8.352306
  O       7.601264     39.350234      8.300596
  O       6.220122     37.033476      8.328389
  O       9.220511     41.562140      8.344930
  O       6.313760     38.552262      6.166070
  O       8.948691     40.039942      6.126910
  Si     11.479011     26.075519      7.750845
  Si     14.148122     24.551769      7.815289
  O      10.123199     25.387212      8.335923
  O      12.839762     25.393237      8.330793
  O      13.935235     23.026629      8.338082
  O      11.431731     25.834871      6.127324
  O      14.153151     24.652203      6.172052
  Si     11.490842     29.253854      7.715919
  Si     11.595344     35.372733      7.786523
  Si     14.219226     33.818494      7.697295
  Si     14.185187     30.744560      7.680086
  O      10.159936     29.995539      8.315103
  O      10.205340     34.681652      8.296211
  O      12.978832     34.651875      8.347790
  O      12.852714     29.990510      8.297086
  O      11.478183     27.677910      8.093016
  O      14.275440     32.264433      8.305235
  O      11.464793     29.477039      6.094217
  O      11.651329     34.943942      6.175156
  O      13.965853     33.626779      6.092364
  O      13.959506     30.854492      6.066150
  Si     11.660496     38.588877      7.636997
  Si     14.342852     40.057210      7.837501
  O      10.262636     39.174346      8.264136
  O      12.995468     39.251280      8.310176
  O      11.689994     36.986619      7.762149
  O      14.369315     41.565548      8.449104
  O      11.727569     39.051329      6.057004
  O      14.410024     40.028071      6.196528
  Si     16.868883     26.028640      7.842973
  O      15.529189     25.240061      8.351219
  O      18.164572     25.249758      8.439990
  O      16.809458     26.022123      6.200077
  Si     16.911570     29.109746      7.740050
  Si     17.020960     35.357650      7.717196
  Si     19.654226     33.762539      7.826904
  Si     19.550965     30.667816      7.822216
  O      15.504156     29.887222      8.056351
  O      15.640858     34.529235      7.992533
  O      18.289032     34.525043      8.320242
  O      18.153354     29.974384      8.335145
  O      16.827297     27.594083      8.334861
  O      19.664950     32.208909      8.348619
  O      17.121747     28.935473      6.121712
  O      17.303956     35.463128      6.102111
  O      19.609424     33.683736      6.184591
  O      19.474709     30.711905      6.178080
  Si     16.972011     38.427364      7.828726
  O      15.679260     39.271540      8.363909
  O      18.399274     39.010541      8.349398
  O      16.907816     36.863756      8.318861
  O      16.891177     38.398461      6.183491
  O      20.736071     29.693155      8.358345
  O      21.008447     34.462432      8.394547
  H       4.074657     24.986772      8.036591
  H       1.410409     29.602015      8.036749
  H       1.410409     35.007985      8.036749
  H       4.074657     39.623228      8.036591
  H       8.948181     22.173255      8.038302
  H       8.948181     42.436745      8.038302
  H      14.277762     22.173204      8.038282
  H      14.277762     42.436796      8.038282
  H      18.960557     24.876228      8.036406
  H      18.960557     39.733772      8.036406
  H      21.624717     29.491420      8.036583
  H      21.624717     35.118580      8.036583
  H      13.138076     34.088860      5.826132
  H      10.808476     34.583271      5.855258
  H       8.982383     32.871598      5.779028
  H       9.757424     30.437882      5.765546
  H      12.274211     29.883641      5.742971
  H      13.980501     31.781592      5.756362
  H      13.558119     39.797886      5.791062
  H      10.878015     39.329829      5.687752
  H       8.170596     39.589715      5.767028
  H       6.165734     37.668623      5.797083
  H       5.297567     35.070164      5.776072
  H       3.554618     32.962580      5.849214
  H       4.187549     30.317660      5.850286
  H       6.020518     28.293432      5.799376
  H       6.934669     25.721810      5.839511
  H       9.576710     24.944465      5.807568
  H      12.269205     25.522752      5.755739
  H      14.961946     25.048712      5.817049
  H      16.975030     26.892452      5.807555
  H      17.806564     29.514142      5.755005
  H      19.534321     31.611276      5.822320
  H      18.947439     34.272977      5.791942
  H      17.135180     36.343378      5.736198
  H      16.138075     38.894790      5.830314
  P      10.290674     36.519196     11.158530
  O      13.403964     36.986976     13.460508
  O      15.509503     38.989613     13.029269
  O      16.288188     37.019899     11.489026
  O      10.992425     37.536696     12.244424
  O      15.604646     34.320173     11.270825
  O       9.569842     35.502174     11.948726
  O      11.383216     36.131219     10.198117
  O       9.210546     37.466867     10.444405
  N      13.683862     34.984693     12.310388
  N      13.756550     33.029178     11.073778
  N      11.869790     31.773931     10.617518
  C      14.546427     38.518408     12.126374
  C      14.904454     37.107327     11.645553
  C      13.234271     38.271721     12.839214
  C      14.342161     36.236975     12.788148
  C      12.079109     38.318543     11.836699
  C      12.388282     34.733910     12.577407
  C      14.435219     34.135430     11.542998
  C      11.737239     33.637998     12.107161
  C      12.434474     32.792292     11.254042
  H      14.426267     39.200527     11.275228
  H      14.370159     36.880485     10.715642
  H      13.080048     38.969726     13.661799
  H      15.149791     35.923039     13.457883
  H      12.428518     37.973616     10.859051
  H      11.778470     39.369620     11.738776
  H      16.360376     38.659145     12.714249
  H      16.491213     36.092922     11.304259
  H      11.879420     35.482892     13.168022
  H      10.666826     33.585985     12.244329
  H      10.868220     31.689042     10.657276
  H      12.344031     31.237874      9.906801
  H       9.576356     37.974281      9.711145
  H      14.277794     32.484342     10.396151
161
Coordinates from ORCA-job /data/Seafile/cmp/protonated/frames/frame11/dry/cmp_prot11 E -13392.459601871929
  Si      3.529467     33.931258      7.841024
  Si      3.453729     30.836767      7.873717
  O       2.308663     34.870379      8.362494
  O       2.105284     30.132808      8.449801
  O       3.452605     32.388841      8.380604
  O       3.596432     33.865305      6.196176
  O       3.495337     30.879762      6.229878
  Si      6.137970     26.178469      7.853924
  Si      8.787697     24.565854      7.842351
  O       4.732339     25.585453      8.413042
  O       7.437311     25.325844      8.363670
  O       8.756608     23.044589      8.415870
  O       6.193331     26.222203      6.208784
  O       8.747995     24.630817      6.199693
  Si      6.100419     29.251839      7.796959
  Si      6.167451     35.503242      7.773918
  Si      8.896025     33.892481      7.756272
  Si      8.850574     30.824485      7.752628
  O       4.812285     30.063448      8.379119
  O       4.898978     34.658408      8.350789
  O       7.548868     34.712602      8.118365
  O       7.472514     30.066763      8.146500
  O       6.218660     27.730565      8.368712
  O       8.837182     32.348107      8.333262
  O       5.866120     29.171742      6.172633
  O       5.980135     35.648719      6.144787
  O       9.080264     33.778774      6.124674
  O       9.001192     30.931516      6.122430
  Si      6.235427     38.585208      7.811174
  Si      8.964944     40.064824      7.773764
  O       4.978103     39.465955      8.352504
  O       7.601822     39.349417      8.301856
  O       6.219289     37.033238      8.330399
  O       9.219259     41.562384      8.346511
  O       6.314794     38.550961      6.167277
  O       8.951148     40.038403      6.128977
  Si     11.479138     26.074600      7.749602
  Si     14.148321     24.551677      7.814989
  O      10.123394     25.386786      8.335173
  O      12.839865     25.392967      8.330293
  O      13.935066     23.026621      8.337733
  O      11.431815     25.832943      6.126266
  O      14.153891     24.651798      6.171761
  Si     11.491068     29.253265      7.715659
  Si     11.594180     35.374715      7.822107
  Si     14.217366     33.818848      7.715514
  Si     14.185435     30.745194      7.684398
  O      10.160005     29.993651      8.315893
  O      10.199164     34.679168      8.315988
  O      12.980921     34.650428      8.374961
  O      12.853216     29.988049      8.299009
  O      11.478365     27.676998      8.090802
  O      14.276386     32.261750      8.316606
  O      11.466179     29.479314      6.094480
  O      11.653336     34.946613      6.208838
  O      13.959891     33.632043      6.110779
  O      13.959122     30.861375      6.071168
  Si     11.662576     38.590171      7.640913
  Si     14.345138     40.057925      7.838898
  O      10.264852     39.177293      8.268140
  O      12.997223     39.254270      8.312609
  O      11.688183     36.990255      7.779490
  O      14.371655     41.566372      8.449647
  O      11.729065     39.046777      6.059514
  O      14.411837     40.026839      6.197904
  Si     16.868918     26.028519      7.843205
  O      15.529197     25.239991      8.351300
  O      18.164412     25.249238      8.440035
  O      16.809586     26.022483      6.200297
  Si     16.911964     29.109583      7.741218
  Si     17.019643     35.356522      7.726315
  Si     19.653714     33.762562      7.830678
  Si     19.550997     30.668091      7.824126
  O      15.504473     29.886594      8.057756
  O      15.640852     34.528400      8.007439
  O      18.289833     34.525315      8.327093
  O      18.153548     29.974142      8.336858
  O      16.827648     27.593745      8.335535
  O      19.665152     32.208747      8.351838
  O      17.122391     28.935743      6.122873
  O      17.298462     35.458995      6.110254
  O      19.605789     33.684139      6.188413
  O      19.474562     30.713227      6.180068
  Si     16.972801     38.426337      7.830924
  O      15.680988     39.272135      8.366175
  O      18.400269     39.010176      8.350066
  O      16.908198     36.864182      8.325022
  O      16.890744     38.395233      6.185938
  O      20.736425     29.693258      8.359190
  O      21.009140     34.462356      8.395573
  H       4.074657     24.986772      8.036591
  H       1.410409     29.602015      8.036749
  H       1.410409     35.007985      8.036749
  H       4.074657     39.623228      8.036591
  H       8.948181     22.173255      8.038302
  H       8.948181     42.436745      8.038302
  H      14.277762     22.173204      8.038282
  H      14.277762     42.436796      8.038282
  H      18.960557     24.876228      8.036406
  H      18.960557     39.733772      8.036406
  H      21.624717     29.491420      8.036583
  H      21.624717     35.118580      8.036583
  H      13.130326     34.095409      5.850199
  H      10.811291     34.587162      5.885963
  H       8.987717     32.874828      5.786493
  H       9.758283     30.440493      5.767258
  H      12.275346     29.887634      5.744550
  H      13.978179     31.790274      5.765896
  H      13.559810     39.796296      5.792865
  H      10.879143     39.323953      5.689921
  H       8.173414     39.587781      5.768762
  H       6.167007     37.666972      5.798859
  H       5.297976     35.069401      5.778429
  H       3.554711     32.962155      5.850568
  H       4.187617     30.317604      5.850865
  H       6.019491     28.292325      5.799576
  H       6.934489     25.721043      5.839672
  H       9.576199     24.943493      5.807030
  H      12.269364     25.520966      5.754724
  H      14.962625     25.048622      5.816942
  H      16.975226     26.892941      5.808055
  H      17.806843     29.514923      5.756284
  H      19.533187     31.612979      5.825025
  H      18.942258     34.272715      5.797293
  H      17.128603     36.338335      5.742753
  H      16.137496     38.891308      5.832634
  P      10.309463     36.467690     11.119895
  O      13.405822     36.949957     13.466240
  O      15.513658     38.947596     13.037034
  O      16.305736     36.965256     11.518733
  O      11.007527     37.479036     12.213652
  O      15.610903     34.271022     11.296122
  O       9.579620     35.450059     11.900483
  O      11.408995     36.078598     10.166543
  O       9.236494     37.421746     10.404507
  N      13.689572     34.940341     12.331535
  N      13.758743     32.987400     11.090874
  N      11.867723     31.741347     10.627619
  C      14.559077     38.469721     12.128840
  C      14.920834     37.054803     11.662315
  C      13.240285     38.228188     12.830920
  C      14.347919     36.193367     12.806599
  C      12.095525     38.264699     11.815451
  C      12.393072     34.691972     12.597146
  C      14.440224     34.089752     11.564882
  C      11.740304     33.598545     12.124907
  C      12.436049     32.754009     11.268838
  H      14.446781     39.145248     11.271410
  H      14.394816     36.820862     10.729439
  H      13.076614     38.933511     13.645349
  H      15.149471     35.882440     13.484891
  H      12.456627     37.918494     10.842578
  H      11.790929     39.313984     11.710966
  H      16.367396     38.614536     12.732676
  H      16.508861     36.036971     11.340624
  H      11.885005     35.443527     13.185050
  H      10.669476     33.548950     12.258578
  H      10.865743     31.660643     10.666560
  H      12.340171     31.206278      9.914818
  H       9.606814     37.942834      9.682832
  H      14.278491     32.445642     10.409541
161
Coordinates from ORCA-job /data/Seafile/cmp/protonated/frames/frame11/dry/cmp_prot11 E -13392.461098439266
  Si      3.528622     33.930581      7.842188
  Si      3.453869     30.836231      7.874357
  O       2.307938     34.869739      8.363618
  O       2.105474     30.132112      8.450190
  O       3.452217     32.388095      8.381553
  O       3.595757     33.864758      6.197361
  O       3.495370     30.879531      6.230512
  Si      6.138007     26.177539      7.854129
  Si      8.787710     24.565459      7.842134
  O       4.732705     25.584472      8.413524
  O       7.437555     25.325296      8.363838
  O       8.756793     23.044441      8.416003
  O       6.193026     26.221099      6.208980
  O       8.747528     24.629978      6.199457
  Si      6.099799     29.250362      7.797034
  Si      6.166245     35.502293      7.776378
  Si      8.894306     33.890518      7.766089
  Si      8.850123     30.822935      7.754483
  O       4.812134     30.062433      8.379568
  O       4.897107     34.658263      8.352682
  O       7.545319     34.709996      8.123070
  O       7.472151     30.064212      8.146407
  O       6.218247     27.729323      8.369105
  O       8.833938     32.344472      8.338620
  O       5.864870     29.170260      6.172811
  O       5.979929     35.647868      6.147062
  O       9.085148     33.780675      6.134827
  O       9.001823     30.932713      6.124550
  Si      6.235734     38.584364      7.812054
  Si      8.965429     40.064780      7.775416
  O       4.978167     39.465633      8.352791
  O       7.602588     39.348458      8.302491
  O       6.218494     37.032769      8.331896
  O       9.218054     41.562735      8.347955
  O       6.315708     38.549750      6.168280
  O       8.953483     40.037182      6.130599
  Si     11.479289     26.073551      7.748244
  Si     14.148549     24.551503      7.814685
  O      10.123599     25.386276      8.334322
  O      12.839979     25.392606      8.329707
  O      13.934887     23.026556      8.337450
  O      11.431936     25.830813      6.125105
  O      14.154697     24.651243      6.171455
  Si     11.491328     29.252531      7.715299
  Si     11.592740     35.377043      7.862537
  Si     14.215503     33.819113      7.735147
  Si     14.185683     30.745792      7.689024
  O      10.159994     29.991410      8.316598
  O      10.191702     34.675992      8.337329
  O      12.983586     34.648360      8.404848
  O      12.853692     29.985351      8.300937
  O      11.478575     27.675937      8.088440
  O      14.277485     32.258706      8.328799
  O      11.467757     29.481626      6.094688
  O      11.655457     34.950430      6.246851
  O      13.953530     33.637787      6.130641
  O      13.958643     30.868697      6.076590
  Si     11.664548     38.591536      7.645687
  Si     14.347363     40.058685      7.840648
  O      10.266800     39.180731      8.272074
  O      12.998848     39.257707      8.315545
  O      11.686191     36.994478      7.799716
  O      14.374126     41.567310      8.450339
  O      11.730717     39.041289      6.062603
  O      14.413407     40.025355      6.199646
  Si     16.868970     26.028339      7.843452
  O      15.529218     25.239844      8.351356
  O      18.164260     25.248661      8.440136
  O      16.809788     26.022804      6.200533
  Si     16.912351     29.109359      7.742465
  Si     17.018322     35.355301      7.736139
  Si     19.653263     33.762537      7.834693
  Si     19.551026     30.668288      7.826187
  O      15.504796     29.885842      8.059333
  O      15.641053     34.527402      8.023564
  O      18.290776     34.525502      8.334413
  O      18.153757     29.973782      8.338700
  O      16.827980     27.593321      8.336223
  O      19.665462     32.208493      8.355226
  O      17.122985     28.936037      6.124100
  O      17.292653     35.454741      6.119064
  O      19.602062     33.684551      6.192494
  O      19.474375     30.714498      6.182208
  Si     16.973538     38.425275      7.833618
  O      15.682669     39.272766      8.368823
  O      18.401260     39.009901      8.351008
  O      16.908675     36.864600      8.331752
  O      16.890165     38.391794      6.188891
  O      20.736766     29.693187      8.360092
  O      21.009963     34.462223      8.396702
  H       4.074657     24.986772      8.036591
  H       1.410409     29.602015      8.036749
  H       1.410409     35.007985      8.036749
  H       4.074657     39.623228      8.036591
  H       8.948181     22.173255      8.038302
  H       8.948181     42.436745      8.038302
  H      14.277762     22.173204      8.038282
  H      14.277762     42.436796      8.038282
  H      18.960557     24.876228      8.036406
  H      18.960557     39.733772      8.036406
  H      21.624717     29.491420      8.036583
  H      21.624717     35.118580      8.036583
  H      13.122148     34.102777      5.876433
  H      10.814466     34.592256      5.920413
  H       8.993837     32.877704      5.793928
  H       9.759345     30.442783      5.768909
  H      12.276733     29.891718      5.746257
  H      13.975811     31.799494      5.776188
  H      13.561246     39.794234      5.795177
  H      10.880513     39.317145      5.692504
  H       8.176088     39.585996      5.770190
  H       6.168113     37.665429      5.800359
  H       5.297845     35.068692      5.780339
  H       3.554319     32.961595      5.851706
  H       4.187568     30.317351      5.851338
  H       6.018157     28.290900      5.799607
  H       6.934165     25.719959      5.839772
  H       9.575680     24.942399      5.806455
  H      12.269547     25.518928      5.753631
  H      14.963386     25.048348      5.816823
  H      16.975469     26.893411      5.808601
  H      17.807105     29.515695      5.757655
  H      19.532069     31.614618      5.827880
  H      18.936958     34.272485      5.802998
  H      17.121605     36.333155      5.750001
  H      16.136760     38.887577      5.835447
  P      10.336230     36.422160     11.076498
  O      13.416383     36.920357     13.466076
  O      15.525973     38.913068     13.037939
  O      16.331020     36.918085     11.541814
  O      11.031391     37.427098     12.177520
  O      15.625252     34.228724     11.316026
  O       9.600713     35.401808     11.847441
  O      11.442135     36.034331     10.128092
  O       9.267436     37.380976     10.362466
  N      13.703985     34.903031     12.348179
  N      13.769295     32.951668     11.105024
  N      11.873928     31.714295     10.636892
  C      14.579778     38.428225     12.124912
  C      14.945140     37.009510     11.672859
  C      13.254602     38.191568     12.816381
  C      14.362334     36.157255     12.819279
  C      12.120315     38.216836     11.788119
  C      12.406888     34.656791     12.613832
  C      14.453640     34.050704     11.582421
  C      11.752403     33.565292     12.141001
  C      12.446176     32.721618     11.281790
  H      14.475224     39.096908     11.261296
  H      14.427111     36.768196     10.737337
  H      13.081259     38.904281     13.622280
  H      15.158180     35.850099     13.505863
  H      12.492872     37.868802     10.820341
  H      11.811557     39.264136     11.676577
  H      16.382416     38.577541     12.744033
  H      16.534152     35.988394     11.370975
  H      11.900032     35.410905     13.199294
  H      10.681399     33.517356     12.272727
  H      10.871569     31.637614     10.675728
  H      12.344229     31.180142      9.921860
  H       9.638836     37.915947      9.651362
  H      14.287224     32.412630     10.420037
161
Coordinates from ORCA-job /data/Seafile/cmp/protonated/frames/frame11/dry/cmp_prot11 E -13392.462959679297
  Si      3.527846     33.929990      7.843445
  Si      3.454142     30.835801      7.874978
  O       2.307226     34.869161      8.364715
  O       2.105829     30.131333      8.450518
  O       3.451880     32.387413      8.382526
  O       3.595354     33.864392      6.198639
  O       3.495454     30.879562      6.231122
  Si      6.138066     26.176603      7.854191
  Si      8.787723     24.565055      7.841769
  O       4.733089     25.583546      8.413896
  O       7.437821     25.324742      8.363848
  O       8.756982     23.044321      8.416062
  O       6.192670     26.219907      6.209014
  O       8.747021     24.629042      6.199060
  Si      6.099179     29.248852      7.796913
  Si      6.165033     35.501497      7.779305
  Si      8.892543     33.888660      7.777288
  Si      8.849708     30.821464      7.756429
  O       4.812088     30.061444      8.379943
  O       4.895174     34.658227      8.354837
  O       7.541615     34.707569      8.128629
  O       7.471798     30.061630      8.146036
  O       6.217911     27.728062      8.369342
  O       8.830500     32.340618      8.344709
  O       5.863418     29.168719      6.172817
  O       5.980040     35.647124      6.149741
  O       9.090282     33.783288      6.146409
  O       9.002660     30.934502      6.126793
  Si      6.235756     38.583690      7.812890
  Si      8.965679     40.064470      7.777168
  O       4.978053     39.465458      8.353003
  O       7.603031     39.347343      8.303582
  O       6.217450     37.032567      8.333611
  O       9.216721     41.562863      8.349482
  O       6.316521     38.548677      6.169274
  O       8.955466     40.035916      6.132312
  Si     11.479462     26.072449      7.746612
  Si     14.148779     24.551260      7.814149
  O      10.123830     25.385764      8.333243
  O      12.840128     25.392218      8.328857
  O      13.934664     23.026497      8.337051
  O      11.432039     25.828531      6.123688
  O      14.155503     24.650464      6.170901
  Si     11.491631     29.251785      7.714794
  Si     11.591514     35.379944      7.907300
  Si     14.213887     33.819113      7.754461
  Si     14.186037     30.746211      7.693083
  O      10.160016     29.989055      8.317270
  O      10.183883     34.672401      8.360896
  O      12.987493     34.645596      8.436106
  O      12.854310     29.982626      8.302633
  O      11.478843     27.674832      8.085723
  O      14.279114     32.255312      8.340483
  O      11.469220     29.484029      6.094785
  O      11.657489     34.955608      6.288580
  O      13.946421     33.643637      6.150363
  O      13.957805     30.876038      6.081557
  Si     11.666598     38.593240      7.650902
  Si     14.349820     40.059565      7.842451
  O      10.268676     39.184398      8.276122
  O      13.000672     39.261631      8.318710
  O      11.684486     36.999649      7.822466
  O      14.376758     41.568362      8.451054
  O      11.732378     39.035429      6.065898
  O      14.414994     40.023776      6.201441
  Si     16.869019     26.028050      7.843364
  O      15.529255     25.239622      8.351115
  O      18.164129     25.248222      8.440102
  O      16.810051     26.022792      6.200420
  Si     16.912907     29.108957      7.742994
  Si     17.017196     35.354043      7.745242
  Si     19.652923     33.762406      7.838178
  Si     19.551101     30.668426      7.827755
  O      15.505309     29.884958      8.060010
  O      15.641580     34.526231      8.038787
  O      18.291823     34.525555      8.341008
  O      18.154005     29.973337      8.339899
  O      16.828316     27.592821      8.336370
  O      19.665811     32.208163      8.358094
  O      17.123985     28.935995      6.124654
  O      17.287252     35.450859      6.127233
  O      19.598614     33.684922      6.196036
  O      19.474445     30.715659      6.183837
  Si     16.974320     38.424143      7.836288
  O      15.684516     39.273438      8.371562
  O      18.402312     39.009586      8.351915
  O      16.909225     36.864864      8.338249
  O      16.889653     38.388464      6.191816
  O      20.737028     29.693076      8.360721
  O      21.010780     34.461981      8.397573
  H       4.074657     24.986772      8.036591
  H       1.410409     29.602015      8.036749
  H       1.410409     35.007985      8.036749
  H       4.074657     39.623228      8.036591
  H       8.948181     22.173255      8.038302
  H       8.948181     42.436745      8.038302
  H      14.277762     22.173204      8.038282
  H      14.277762     42.436796      8.038282
  H      18.960557     24.876228      8.036406
  H      18.960557     39.733772      8.036406
  H      21.624717     29.491420      8.036583
  H      21.624717     35.118580      8.036583
  H      13.113043     34.110566      5.903620
  H      10.817732     34.598753      5.958391
  H       9.000444     32.881410      5.802423
  H       9.760692     30.445867      5.770550
  H      12.277914     29.895927      5.747741
  H      13.973030     31.808778      5.786200
  H      13.562603     39.791899      5.797744
  H      10.881774     39.309840      5.695371
  H       8.178524     39.584112      5.771697
  H       6.169079     37.664029      5.801905
  H       5.298151     35.068034      5.782548
  H       3.554326     32.961255      5.852865
  H       4.187554     30.317420      5.851682
  H       6.016595     28.289403      5.799459
  H       6.933790     25.718784      5.839712
  H       9.575101     24.941186      5.805662
  H      12.269714     25.516691      5.752308
  H      14.964165     25.047796      5.816430
  H      16.975806     26.893503      5.808704
  H      17.807860     29.516093      5.758445
  H      19.531264     31.616157      5.830247
  H      18.932013     34.272286      5.808138
  H      17.114992     36.328414      5.756801
  H      16.136061     38.883934      5.838261
  P      10.341728     36.366702     11.037922
  O      13.407380     36.878254     13.470039
  O      15.519946     38.865261     13.044918
  O      16.339003     36.857144     11.572605
  O      11.036948     37.364926     12.144185
  O      15.621476     34.172695     11.343641
  O       9.596775     35.347640     11.800449
  O      11.453186     35.973694     10.095709
  O       9.282432     37.333743     10.323043
  N      13.699112     34.853510     12.369141
  N      13.761486     32.902772     11.125089
  N      11.861957     31.674398     10.650662
  C      14.583138     38.373548     12.126213
  C      14.952064     36.950998     11.689335
  C      13.250911     38.142253     12.805649
  C      14.357554     36.108502     12.837195
  C      12.128561     38.156465     11.763682
  C      12.400822     34.610438     12.632979
  C      14.448519     33.998536     11.605961
  C      11.744687     33.521036     12.159112
  C      12.437532     32.676897     11.298791
  H      14.487264     39.035318     11.256330
  H      14.443072     36.702606     10.750641
  H      13.067356     38.862640     13.602347
  H      15.146718     35.804803     13.532856
  H      12.512872     37.805348     10.801739
  H      11.817348     39.202034     11.643542
  H      16.379273     38.527196     12.762550
  H      16.542360     35.926080     11.409570
  H      11.894983     35.367566     13.215300
  H      10.673379     33.475205     12.287351
  H      10.859186     31.602213     10.688032
  H      12.330925     31.139942      9.934780
  H       9.657602     37.880701      9.622399
  H      14.278422     32.365469     10.437874
161
Coordinates from ORCA-job /data/Seafile/cmp/protonated/frames/frame11/dry/cmp_prot11 E -13392.465129134329
  Si      3.526476     33.929030      7.843384
  Si      3.454145     30.835011      7.874640
  O       2.306550     34.868516      8.365457
  O       2.105975     30.130762      8.450633
  O       3.451428     32.386440      8.382404
  O       3.593118     33.863542      6.198554
  O       3.494817     30.878842      6.230767
  Si      6.137981     26.175171      7.853857
  Si      8.787820     24.564500      7.841403
  O       4.733253     25.582678      8.414342
  O       7.438025     25.323985      8.363637
  O       8.757126     23.044085      8.416291
  O       6.192012     26.217610      6.208660
  O       8.746790     24.627860      6.198681
  Si      6.098087     29.246679      7.795229
  Si      6.163115     35.500253      7.779039
  Si      8.889775     33.885293      7.782900
  Si      8.848967     30.818736      7.755532
  O       4.811812     30.060050      8.378948
  O       4.893130     34.657552      8.354750
  O       7.537255     34.704173      8.129253
  O       7.470981     30.058353      8.143503
  O       6.217386     27.726447      8.368524
  O       8.826074     32.335900      8.346413
  O       5.861028     29.165965      6.171361
  O       5.977513     35.647153      6.149622
  O       9.095806     33.783661      6.152744
  O       9.003764     30.933858      6.126281
  Si      6.236338     38.582521      7.813765
  Si      8.966012     40.065416      7.778372
  O       4.978262     39.464622      8.353691
  O       7.604195     39.346573      8.303222
  O       6.216857     37.031342      8.333646
  O       9.215760     41.563855      8.350854
  O       6.317402     38.548104      6.170167
  O       8.957482     40.035365      6.133613
  Si     11.479694     26.071279      7.745220
  Si     14.149003     24.550793      7.813975
  O      10.124046     25.385140      8.332273
  O      12.840253     25.391661      8.328258
  O      13.934410     23.026193      8.337047
  O      11.432345     25.826222      6.122495
  O      14.156348     24.649584      6.170716
  Si     11.492010     29.250837      7.713913
  Si     11.589593     35.382322      7.953327
  Si     14.212686     33.818894      7.773909
  Si     14.186307     30.746540      7.697853
  O      10.159577     29.986366      8.316514
  O      10.173646     34.667310      8.380672
  O      12.991609     34.641742      8.467304
  O      12.854515     29.979897      8.304402
  O      11.479055     27.673626      8.083314
  O      14.280721     32.251785      8.352583
  O      11.471601     29.485661      6.094421
  O      11.660047     34.961207      6.331062
  O      13.940187     33.649500      6.170168
  O      13.957418     30.883153      6.087202
  Si     11.667911     38.594752      7.657006
  Si     14.351547     40.060394      7.844816
  O      10.269782     39.188691      8.280117
  O      13.001662     39.265705      8.322426
  O      11.681819     37.004773      7.846012
  O      14.379167     41.569479      8.452127
  O      11.733892     39.029683      6.070245
  O      14.415883     40.022082      6.203844
  Si     16.869076     26.027637      7.843823
  O      15.529260     25.239174      8.351296
  O      18.164023     25.247437      8.440434
  O      16.810324     26.022923      6.200879
  Si     16.913210     29.108495      7.744611
  Si     17.016276     35.352850      7.755062
  Si     19.652787     33.762260      7.842288
  Si     19.551088     30.668381      7.830105
  O      15.505596     29.883884      8.062054
  O      15.642610     34.524909      8.055059
  O      18.293114     34.525641      8.348404
  O      18.154215     29.972689      8.342135
  O      16.828571     27.592103      8.337345
  O      19.666333     32.207725      8.361621
  O      17.124386     28.936137      6.126238
  O      17.282120     35.447063      6.136145
  O      19.595365     33.685174      6.200258
  O      19.474053     30.716641      6.186267
  Si     16.974807     38.423247      7.839486
  O      15.685850     39.274129      8.374735
  O      18.403172     39.009497      8.353211
  O      16.909858     36.865296      8.345013
  O      16.888698     38.385264      6.195284
  O      20.737367     29.692645      8.361787
  O      21.011890     34.461732      8.398892
  H       4.074657     24.986772      8.036591
  H       1.410409     29.602015      8.036749
  H       1.410409     35.007985      8.036749
  H       4.074657     39.623228      8.036591
  H       8.948181     22.173255      8.038302
  H       8.948181     42.436745      8.038302
  H      14.277762     22.173204      8.038282
  H      14.277762     42.436796      8.038282
  H      18.960557     24.876228      8.036406
  H      18.960557     39.733772      8.036406
  H      21.624717     29.491420      8.036583
  H      21.624717     35.118580      8.036583
  H      13.104839     34.118648      5.931349
  H      10.821716     34.605785      5.996172
  H       9.007778     32.882711      5.806059
  H       9.762480     30.446321      5.770175
  H      12.280243     29.899315      5.749217
  H      13.970980     31.817826      5.796950
  H      13.563355     39.789470      5.800876
  H      10.883248     39.302898      5.698962
  H       8.180812     39.582686      5.773090
  H       6.170105     37.663346      5.802788
  H       5.295160     35.068617      5.782392
  H       3.552105     32.960354      5.852803
  H       4.186706     30.316558      5.851082
  H       6.013920     28.286573      5.798141
  H       6.933070     25.716392      5.839362
  H       9.574854     24.939756      5.805039
  H      12.270053     25.514426      5.751217
  H      14.964995     25.047104      5.816424
  H      16.976084     26.893793      5.809517
  H      17.807945     29.516634      5.760145
  H      19.530052     31.617423      5.833272
  H      18.927298     34.271943      5.813935
  H      17.108576     36.323759      5.764384
  H      16.134933     38.880404      5.841642
  P      10.397120     36.353996     10.997779
  O      13.454327     36.883761     13.454115
  O      15.566782     38.866438     13.024512
  O      16.393693     36.847529     11.570355
  O      11.093550     37.347762     12.105756
  O      15.667248     34.166834     11.341015
  O       9.658363     35.327809     11.755311
  O      11.513305     35.968437     10.054790
  O       9.331594     37.316609     10.287609
  N      13.747693     34.851009     12.369525
  N      13.804725     32.900508     11.124524
  N      11.901459     31.677390     10.652636
  C      14.635429     38.368150     12.104034
  C      15.006471     36.942347     11.679381
  C      13.299282     38.140924     12.777176
  C      14.406543     36.108162     12.830842
  C      12.183306     38.144015     11.727318
  C      12.450164     34.607999     12.638686
  C      14.494638     33.994570     11.605327
  C      11.792510     33.518716     12.167808
  C      12.481410     32.675945     11.301876
  H      14.544846     39.023377     11.229096
  H      14.502391     36.687057     10.739823
  H      13.108993     38.867957     13.566170
  H      15.192651     35.809217     13.531908
  H      12.574829     37.790481     10.769278
  H      11.867189     39.187268     11.600831
  H      16.427703     38.526359     12.749354
  H      16.596581     35.915206     11.413753
  H      11.946668     35.366636     13.220720
  H      10.721831     33.471546     12.299715
  H      10.898523     31.607446     10.693178
  H      12.366828     31.144830      9.932690
  H       9.698529     37.875492      9.592272
  H      14.318366     32.366076     10.432432
161
Coordinates from ORCA-job /data/Seafile/cmp/protonated/frames/frame11/dry/cmp_prot11 E -13392.467895659560
  Si      3.524973     33.928950      7.840205
  Si      3.454932     30.835007      7.872454
  O       2.306349     34.868705      8.364690
  O       2.107008     30.130498      8.449973
  O       3.451658     32.386435      8.379655
  O       3.589010     33.863512      6.195351
  O       3.494128     30.878731      6.228465
  Si      6.137615     26.173703      7.853064
  Si      8.787475     24.563523      7.841156
  O       4.732893     25.582501      8.414527
  O       7.437840     25.323106      8.363233
  O       8.756821     23.043510      8.417041
  O       6.190699     26.214138      6.207795
  O       8.746481     24.625971      6.198364
  Si      6.096823     29.244333      7.791669
  Si      6.160071     35.500150      7.772924
  Si      8.884632     33.881983      7.784603
  Si      8.847756     30.815886      7.752602
  O       4.811983     30.059188      8.376269
  O       4.891098     34.657398      8.350162
  O       7.530921     34.702134      8.124091
  O       7.469521     30.055372      8.138428
  O       6.216996     27.724954      8.366747
  O       8.819947     32.331088      8.345328
  O       5.857800     29.162257      6.168107
  O       5.972283     35.649392      6.143857
  O       9.099463     33.783020      6.155157
  O       9.006203     30.932781      6.123941
  Si      6.235853     38.582855      7.810228
  Si      8.965312     40.066377      7.774173
  O       4.978298     39.464518      8.353422
  O       7.604422     39.345988      8.298258
  O       6.215479     37.031308      8.327887
  O       9.215858     41.563846      8.349841
  O       6.315286     38.550720      6.166383
  O       8.955898     40.038360      6.129405
  Si     11.479730     26.069122      7.744570
  Si     14.148987     24.549208      7.814432
  O      10.123851     25.383797      8.331827
  O      12.840157     25.390002      8.328543
  O      13.933827     23.025033      8.337786
  O      11.432688     25.823263      6.122031
  O      14.156958     24.647361      6.171205
  Si     11.491791     29.248694      7.714044
  Si     11.586251     35.387270      8.002881
  Si     14.211790     33.818025      7.793381
  Si     14.185988     30.745938      7.704445
  O      10.158057     29.982796      8.315814
  O      10.159040     34.661855      8.397396
  O      12.996591     34.636899      8.497994
  O      12.853576     29.976264      8.308280
  O      11.478658     27.671287      8.082131
  O      14.281651     32.247379      8.365695
  O      11.473926     29.485593      6.095000
  O      11.661061     34.969578      6.374798
  O      13.936742     33.654249      6.189696
  O      13.955942     30.888220      6.094892
  Si     11.669301     38.599740      7.656269
  Si     14.353707     40.062414      7.844831
  O      10.270156     39.194106      8.276462
  O      13.002602     39.271523      8.321102
  O      11.678926     37.015637      7.868128
  O      14.380182     41.570793      8.452895
  O      11.735153     39.030471      6.068939
  O      14.418781     40.022041      6.203800
  Si     16.868841     26.026691      7.845271
  O      15.529010     25.237802      8.352195
  O      18.164289     25.246850      8.441442
  O      16.809981     26.022503      6.202259
  Si     16.913116     29.107529      7.748118
  Si     17.015232     35.351488      7.764845
  Si     19.652607     33.761838      7.846685
  Si     19.550804     30.667938      7.833495
  O      15.505616     29.882315      8.066217
  O      15.644294     34.523390      8.072822
  O      18.294251     34.525320      8.355840
  O      18.154274     29.971678      8.346141
  O      16.828472     27.590689      8.340003
  O      19.666877     32.207078      8.365908
  O      17.124110     28.935825      6.129661
  O      17.276856     35.443449      6.144952
  O      19.592284     33.684920      6.204704
  O      19.472949     30.716847      6.189773
  Si     16.975570     38.422663      7.841966
  O      15.687242     39.275537      8.376584
  O      18.404064     39.009682      8.355076
  O      16.910670     36.866128      8.351428
  O      16.888977     38.382320      6.198084
  O      20.737828     29.691885      8.363437
  O      21.012977     34.461504      8.400476
  H       4.074657     24.986772      8.036591
  H       1.410409     29.602015      8.036749
  H       1.410409     35.007985      8.036749
  H       4.074657     39.623228      8.036591
  H       8.948181     22.173255      8.038302
  H       8.948181     42.436745      8.038302
  H      14.277762     22.173204      8.038282
  H      14.277762     42.436796      8.038282
  H      18.960557     24.876228      8.036406
  H      18.960556     39.733772      8.036406
  H      21.624717     29.491420      8.036583
  H      21.624717     35.118580      8.036583
  H      13.099160     34.126549      5.959964
  H      10.824358     34.615372      6.035036
  H       9.013574     32.882901      5.806288
  H       9.765736     30.446461      5.768591
  H      12.282648     29.900265      5.751569
  H      13.968641     31.824584      5.809083
  H      13.566119     39.789079      5.801052
  H      10.883458     39.303148      5.698537
  H       8.178796     39.585165      5.769622
  H       6.167244     37.665835      5.799078
  H       5.288807     35.071857      5.777038
  H       3.547669     32.960229      5.849845
  H       4.185653     30.316235      5.848452
  H       6.010064     28.282580      5.795459
  H       6.931511     25.712456      5.838696
  H       9.574693     24.937560      5.804811
  H      12.270402     25.511406      5.750972
  H      14.965746     25.044900      5.817262
  H      16.975609     26.893649      5.811471
  H      17.807352     29.516539      5.763617
  H      19.528443     31.617683      5.837003
  H      18.923099     34.271538      5.819997
  H      17.102027     36.319273      5.772062
  H      16.135353     38.877107      5.843807
  P      10.421597     36.335326     10.960980
  O      13.464518     36.880884     13.442564
  O      15.577175     38.863833     13.015981
  O      16.416381     36.836125     11.579648
  O      11.117392     37.326634     12.068535
  O      15.684347     34.156916     11.347287
  O       9.686340     35.304988     11.713034
  O      11.547004     35.952869     10.021016
  O       9.354769     37.293403     10.250418
  N      13.764724     34.844484     12.372890
  N      13.821045     32.891326     11.132015
  N      11.917202     31.668858     10.663440
  C      14.653787     38.359175     12.091720
  C      15.028745     36.931565     11.677807
  C      13.312667     38.132632     12.755427
  C      14.421772     36.103742     12.829986
  C      12.207042     38.126473     11.694382
  C      12.466703     34.602445     12.643542
  C      14.511976     33.985639     11.611243
  C      11.809499     33.511890     12.176756
  C      12.498274     32.667155     11.310419
  H      14.569139     39.009159     11.212808
  H      14.531628     36.670810     10.735935
  H      13.113089     38.864254     13.537764
  H      15.204354     35.809860     13.536969
  H      12.607339     37.770998     10.740666
  H      11.887189     39.167646     11.561089
  H      16.440434     38.522867     12.748851
  H      16.619484     35.902738     11.428995
  H      11.964173     35.363598     13.223045
  H      10.739158     33.461950     12.309135
  H      10.914136     31.599496     10.704476
  H      12.382200     31.135623      9.943195
  H       9.714598     37.861431      9.559179
  H      14.334648     32.357198     10.439377
161
Coordinates from ORCA-job /data/Seafile/cmp/protonated/frames/frame11/dry/cmp_prot11 E -13392.470813151482
  Si      3.523561     33.929835      7.835833
  Si      3.456709     30.835988      7.869779
  O       2.306137     34.869403      8.363478
  O       2.108327     30.131094      8.449253
  O       3.452548     32.387470      8.375959
  O       3.584383     33.864472      6.191057
  O       3.494507     30.879523      6.225567
  Si      6.136990     26.172415      7.852890
  Si      8.786712     24.562226      7.841630
  O       4.732111     25.582469      8.415159
  O       7.437276     25.322137      8.363489
  O       8.756155     23.042518      8.418606
  O       6.189144     26.210679      6.207544
  O       8.745886     24.623934      6.198737
  Si      6.095798     29.242299      7.788637
  Si      6.155851     35.500930      7.764131
  Si      8.876947     33.879507      7.784264
  Si      8.845678     30.813592      7.750255
  O       4.812622     30.059098      8.373730
  O       4.888734     34.657933      8.343820
  O       7.522512     34.701649      8.116470
  O       7.467499     30.053006      8.134123
  O       6.216547     27.723675      8.365695
  O       8.812442     32.327045      8.343751
  O       5.855185     29.158722      6.165248
  O       5.965427     35.652959      6.135540
  O       9.099245     33.781829      6.155175
  O       9.008526     30.931981      6.122390
  Si      6.233949     38.584341      7.803776
  Si      8.963455     40.066977      7.766061
  O       4.977765     39.465297      8.352787
  O       7.603119     39.345155      8.290047
  O       6.213128     37.032415      8.318915
  O       9.216522     41.562922      8.347324
  O       6.309997     38.554894      6.159391
  O       8.950662     40.043964      6.121324
  Si     11.479357     26.066378      7.745356
  Si     14.148493     24.546367      7.815691
  O      10.123162     25.381908      8.332624
  O      12.839664     25.387263      8.330003
  O      13.932927     23.022909      8.339302
  O      11.432749     25.820412      6.122976
  O      14.156841     24.644142      6.172562
  Si     11.490605     29.245767      7.716329
  Si     11.581250     35.393784      8.044325
  Si     14.211018     33.816748      7.809961
  Si     14.184954     30.744457      7.712367
  O      10.155581     29.979183      8.317182
  O      10.141056     34.657132      8.408619
  O      13.001475     34.632320      8.522169
  O      12.851354     29.972154      8.314482
  O      11.477526     27.668169      8.083407
  O      14.281620     32.242558      8.378211
  O      11.474771     29.484130      6.097648
  O      11.658945     34.975866      6.408708
  O      13.935221     33.657212      6.206116
  O      13.953410     30.890640      6.104164
  Si     11.670346     38.608593      7.649446
  Si     14.355883     40.065630      7.843106
  O      10.269502     39.200623      8.266029
  O      13.003403     39.279061      8.315627
  O      11.675776     37.032483      7.883061
  O      14.380398     41.572430      8.453489
  O      11.736110     39.040679      6.063532
  O      14.423558     40.023955      6.201851
  Si     16.868265     26.024932      7.847650
  O      15.528357     25.235334      8.353886
  O      18.164563     25.245639      8.443130
  O      16.808977     26.021286      6.204471
  Si     16.912293     29.105940      7.753256
  Si     17.014398     35.350002      7.772731
  Si     19.652427     33.760996      7.850843
  Si     19.550191     30.666887      7.837664
  O      15.505063     29.880091      8.072481
  O      15.646627     34.522058      8.089003
  O      18.295224     34.524640      8.362262
  O      18.154007     29.970209      8.351578
  O      16.827952     27.588405      8.344224
  O      19.667301     32.206086      8.370590
  O      17.122555     28.934868      6.134632
  O      17.272884     35.440487      6.151941
  O      19.589803     33.683724      6.208839
  O      19.470866     30.716015      6.194122
  Si     16.976577     38.422614      7.843360
  O      15.688538     39.277436      8.377237
  O      18.405185     39.009866      8.357173
  O      16.911530     36.867249      8.355934
  O      16.890282     38.380115      6.199826
  O      20.738430     29.690726      8.365819
  O      21.013961     34.461273      8.402283
  H       4.074657     24.986772      8.036591
  H       1.410409     29.602015      8.036749
  H       1.410409     35.007985      8.036749
  H       4.074657     39.623228      8.036591
  H       8.948181     22.173255      8.038302
  H       8.948181     42.436745      8.038302
  H      14.277762     22.173204      8.038282
  H      14.277762     42.436796      8.038282
  H      18.960557     24.876228      8.036406
  H      18.960557     39.733772      8.036406
  H      21.624717     29.491420      8.036583
  H      21.624717     35.118580      8.036583
  H      13.094930     34.133518      5.986457
  H      10.823076     34.622510      6.065740
  H       9.015372     32.882517      5.804706
  H       9.768812     30.447162      5.767947
  H      12.283336     29.899466      5.755608
  H      13.965424     31.828455      5.821833
  H      13.571093     39.791096      5.798348
  H      10.882574     39.313776      5.695418
  H       8.172501     39.590817      5.762784
  H       6.160413     37.669686      5.792778
  H       5.280756     35.076540      5.769141
  H       3.542743     32.961036      5.846017
  H       4.185782     30.316777      5.845583
  H       6.006868     28.278685      5.793459
  H       6.929648     25.708399      5.838775
  H       9.574431     24.935246      5.805688
  H      12.270515     25.508619      5.752225
  H      14.965853     25.041713      5.819177
  H      16.974267     26.892908      5.814575
  H      17.805330     29.515717      5.768501
  H      19.525803     31.616703      5.841246
  H      18.919654     34.270321      5.825606
  H      17.096967     36.315596      5.778499
  H      16.137196     38.874544      5.844496
  P      10.419666     36.307120     10.931484
  O      13.442194     36.864638     13.439472
  O      15.553614     38.851985     13.020385
  O      16.407935     36.818735     11.599881
  O      11.109271     37.297108     12.038799
  O      15.674985     34.139702     11.363463
  O       9.683266     35.274797     11.674138
  O      11.560757     35.924161      9.999195
  O       9.358809     37.263472     10.216558
  N      13.752704     34.829355     12.381333
  N      13.811979     32.873163     11.145725
  N      11.909383     31.650045     10.676795
  C      14.639604     38.341503     12.091299
  C      15.019943     36.913746     11.686242
  C      13.293662     38.112607     12.744665
  C      14.405905     36.090190     12.836778
  C      12.200213     38.099836     11.671694
  C      12.453249     34.588498     12.650374
  C      14.502641     33.968512     11.624024
  C      11.797627     33.496970     12.186104
  C      12.489264     32.649056     11.321729
  H      14.560694     38.987903     11.209514
  H      14.530720     36.648474     10.741340
  H      13.084177     38.846737     13.521930
  H      15.185098     35.800897     13.549186
  H      12.609577     37.744285     10.721731
  H      11.877584     39.139461     11.533239
  H      16.419698     38.511648     12.760777
  H      16.612190     35.884560     11.454098
  H      11.950331     35.352243     13.226362
  H      10.727248     33.444331     12.315389
  H      10.906125     31.580515     10.715298
  H      12.376711     31.115637      9.958128
  H       9.715432     37.838170      9.529963
  H      14.328072     32.338591     10.454924
161
Coordinates from ORCA-job /data/Seafile/cmp/protonated/frames/frame11/dry/cmp_prot11 E -13392.474301173952
  Si      3.522479     33.930684      7.834660
  Si      3.458968     30.836923      7.869289
  O       2.305526     34.869914      8.364230
  O       2.109521     30.130805      8.449456
  O       3.453266     32.388270      8.375032
  O       3.581689     33.865757      6.190059
  O       3.496207     30.881132      6.224916
  Si      6.136357     26.170627      7.853892
  Si      8.785936     24.560611      7.842799
  O       4.731256     25.581956      8.416798
  O       7.436713     25.320641      8.364693
  O       8.755484     23.041188      8.420968
  O       6.187681     26.207361      6.208523
  O       8.744927     24.621574      6.199854
  Si      6.094575     29.239560      7.788215
  Si      6.151972     35.501558      7.761666
  Si      8.869324     33.876013      7.796570
  Si      8.843205     30.810389      7.752975
  O       4.813079     30.058414      8.373773
  O       4.885705     34.658689      8.342436
  O       7.512716     34.700215      8.117758
  O       7.465063     30.049052      8.133303
  O       6.215860     27.721490      8.366662
  O       8.803081     32.320296      8.350625
  O       5.852755     29.155155      6.164924
  O       5.960978     35.655981      6.133285
  O       9.104077     33.783161      6.168442
  O       9.011012     30.932982      6.126354
  Si      6.231720     38.586101      7.800613
  Si      8.961449     40.068342      7.762735
  O       4.976796     39.466998      8.353797
  O       7.600652     39.345683      8.284550
  O       6.210280     37.034258      8.314800
  O       9.216619     41.563636      8.347902
  O       6.305756     38.558143      6.155825
  O       8.947425     40.047437      6.118204
  Si     11.478989     26.062934      7.746188
  Si     14.148025     24.542777      7.816969
  O      10.122566     25.379474      8.333883
  O      12.839219     25.383855      8.331401
  O      13.931672     23.020541      8.341278
  O      11.432672     25.816646      6.124044
  O      14.156783     24.640142      6.173967
  Si     11.489552     29.242326      7.720480
  Si     11.577453     35.399042      8.121389
  Si     14.211325     33.813701      7.839646
  Si     14.184626     30.742094      7.723846
  O      10.153162     29.973802      8.322156
  O      10.119346     34.647943      8.440936
  O      13.012579     34.622423      8.568714
  O      12.849751     29.965714      8.323311
  O      11.476528     27.664138      8.084956
  O      14.284541     32.233876      8.399066
  O      11.475898     29.484318      6.102599
  O      11.659553     34.985437      6.474559
  O      13.929459     33.662506      6.236134
  O      13.950245     30.896478      6.117781
  Si     11.671380     38.615950      7.655326
  Si     14.358304     40.068514      7.846174
  O      10.267992     39.209523      8.264237
  O      13.004883     39.288356      8.318269
  O      11.673135     37.050842      7.921038
  O      14.382075     41.574702      8.456312
  O      11.737158     39.042593      6.069135
  O      14.426688     40.022805      6.204688
  Si     16.867765     26.022250      7.850256
  O      15.527734     25.231958      8.355766
  O      18.165061     25.243993      8.445210
  O      16.808041     26.019225      6.206935
  Si     16.912016     29.103185      7.758976
  Si     17.014077     35.347432      7.786653
  Si     19.652976     33.759648      7.857179
  Si     19.549744     30.665383      7.842847
  O      15.505352     29.876201      8.080127
  O      15.651616     34.518961      8.115596
  O      18.298033     34.523558      8.373149
  O      18.154190     29.967686      8.358018
  O      16.827744     27.584951      8.348999
  O      19.668584     32.204371      8.377094
  O      17.121525     28.933084      6.140192
  O      17.266754     35.435473      6.164461
  O      19.586086     33.682447      6.215271
  O      19.468487     30.715395      6.199554
  Si     16.977824     38.421846      7.847993
  O      15.690783     39.279409      8.382286
  O      18.407143     39.009898      8.360763
  O      16.913583     36.868208      8.364884
  O      16.889954     38.376083      6.205079
  O      20.739326     29.689040      8.368751
  O      21.016321     34.460552      8.404938
  H       4.074657     24.986772      8.036591
  H       1.410409     29.602015      8.036749
  H       1.410409     35.007985      8.036749
  H       4.074657     39.623228      8.036591
  H       8.948181     22.173255      8.038302
  H       8.948181     42.436745      8.038302
  H      14.277762     22.173204      8.038282
  H      14.277762     42.436796      8.038282
  H      18.960557     24.876228      8.036406
  H      18.960557     39.733772      8.036406
  H      21.624717     29.491420      8.036583
  H      21.624717     35.118580      8.036583
  H      13.085268     34.143516      6.032724
  H      10.825378     34.634146      6.125915
  H       9.023090     32.885513      5.813806
  H       9.772231     30.450183      5.772001
  H      12.284422     29.901161      5.762669
  H      13.961124     31.836743      5.841956
  H      13.574005     39.789646      5.801773
  H      10.882251     39.314074      5.702041
  H       8.168751     39.593874      5.760549
  H       6.155362     37.672332      5.790422
  H       5.275656     35.080692      5.766455
  H       3.540257     32.962312      5.845087
  H       4.187260     30.318187      5.844917
  H       6.003884     28.274924      5.793562
  H       6.927911     25.704698      5.839822
  H       9.573738     24.932576      5.807104
  H      12.270480     25.504855      5.753474
  H      14.966009     25.037790      5.821082
  H      16.972977     26.891377      5.818002
  H      17.803784     29.514374      5.773996
  H      19.522551     31.616143      5.846790
  H      18.914205     34.268805      5.834459
  H      17.088708     36.309648      5.790062
  H      16.137031     38.869971      5.848950
  P      10.421089     36.275124     10.883703
  O      13.424416     36.846820     13.432945
  O      15.535098     38.835323     13.026584
  O      16.409776     36.794304     11.627661
  O      11.111426     37.256746     11.990929
  O      15.669805     34.118461     11.378559
  O       9.685067     35.238386     11.613475
  O      11.574110     35.892362      9.950284
  O       9.368497     37.231416     10.166528
  N      13.746674     34.808119     12.393484
  N      13.807404     32.850529     11.160093
  N      11.905953     31.626298     10.694140
  C      14.634513     38.318004     12.089147
  C      15.021316     36.888993     11.696572
  C      13.280792     38.088072     12.725829
  C      14.395952     36.071677     12.845246
  C      12.204445     38.064391     11.635402
  C      12.446825     34.566175     12.664663
  C      14.498177     33.946352     11.638171
  C      11.793414     33.472836     12.204786
  C      12.485931     32.624513     11.337477
  H      14.565634     38.959639     11.203748
  H      14.543680     36.617737     10.747270
  H      13.056717     38.827094     13.494214
  H      15.169356     35.788753     13.566381
  H      12.627890     37.708639     10.691890
  H      11.877751     39.101513     11.489363
  H      16.405004     38.495046     12.779226
  H      16.615036     35.859163     11.488548
  H      11.944311     35.331577     13.238675
  H      10.723707     33.413722     12.335390
  H      10.902576     31.555779     10.733052
  H      12.373623     31.093387      9.973597
  H       9.723379     37.815965      9.487077
  H      14.324075     32.318760     10.467090
161
Coordinates from ORCA-job /data/Seafile/cmp/protonated/frames/frame11/dry/cmp_prot11 E -13392.473553680811
  Si      3.522011     33.934288      7.835293
  Si      3.465802     30.840768      7.870176
  O       2.304028     34.871758      8.366290
  O       2.111548     30.131106      8.451180
  O       3.455996     32.391599      8.375353
  O       3.579878     33.870549      6.191507
  O       3.503431     30.886791      6.225352
  Si      6.135071     26.168576      7.858242
  Si      8.784270     24.557561      7.848469
  O       4.728940     25.581246      8.420870
  O       7.434993     25.318163      8.369829
  O       8.753743     23.037697      8.427424
  O       6.186348     26.203632      6.212991
  O       8.743552     24.618909      6.205490
  Si      6.094140     29.236945      7.791967
  Si      6.142165     35.505161      7.761557
  Si      8.849301     33.874433      7.808255
  Si      8.835477     30.807562      7.759823
  O       4.815486     30.059472      8.377055
  O       4.879332     34.661436      8.344049
  O       7.491879     34.702689      8.119437
  O       7.459505     30.045359      8.137517
  O       6.214878     27.718836      8.371904
  O       8.785294     32.313491      8.358780
  O       5.852582     29.151480      6.168323
  O       5.951204     35.665326      6.133867
  O       9.092190     33.784693      6.179710
  O       9.011726     30.933637      6.135705
  Si      6.223151     38.591527      7.797482
  Si      8.953629     40.069218      7.760540
  O       4.972308     39.473562      8.356812
  O       7.588829     39.345619      8.279788
  O       6.201309     37.040417      8.312186
  O       9.217103     41.564763      8.350949
  O       6.292784     38.564932      6.151469
  O       8.931492     40.055048      6.116903
  Si     11.477525     26.056858      7.754573
  Si     14.145890     24.531978      7.822274
  O      10.120640     25.374369      8.342029
  O      12.837686     25.374797      8.338504
  O      13.928440     23.013587      8.346789
  O      11.432056     25.812723      6.132728
  O      14.154173     24.630414      6.179786
  Si     11.485833     29.236012      7.735305
  Si     11.572393     35.404840      8.179726
  Si     14.217711     33.805117      7.854286
  Si     14.184232     30.733851      7.740340
  O      10.146693     29.967489      8.336740
  O      10.081313     34.634244      8.462073
  O      13.034561     34.605769      8.591128
  O      12.844971     29.956343      8.343556
  O      11.473647     27.656823      8.097992
  O      14.290146     32.219952      8.415667
  O      11.472803     29.478967      6.118005
  O      11.652777     34.986278      6.509050
  O      13.929884     33.657769      6.251176
  O      13.945663     30.889351      6.137559
  Si     11.670157     38.640619      7.650966
  Si     14.361390     40.076572      7.846489
  O      10.262291     39.226863      8.251778
  O      13.007659     39.307196      8.312660
  O      11.670794     37.096528      7.942311
  O      14.383334     41.578801      8.460694
  O      11.735798     39.080040      6.071558
  O      14.435834     40.029898      6.204038
  Si     16.866334     26.014432      7.857289
  O      15.525908     25.221996      8.361867
  O      18.166626     25.239725      8.450765
  O      16.804455     26.011652      6.213533
  Si     16.910253     29.095517      7.770663
  Si     17.018191     35.343686      7.790596
  Si     19.655621     33.755804      7.861578
  Si     19.548944     30.660626      7.850132
  O      15.505669     29.866995      8.095815
  O      15.665140     34.514474      8.132193
  O      18.303304     34.520690      8.378768
  O      18.154375     29.961862      8.369379
  O      16.826685     27.575991      8.360466
  O      19.670674     32.200419      8.384612
  O      17.117364     28.925812      6.151648
  O      17.270673     35.433801      6.167556
  O      19.587202     33.676251      6.219613
  O      19.463213     30.710060      6.207447
  Si     16.980903     38.422686      7.847565
  O      15.694279     39.283044      8.384726
  O      18.411543     39.008593      8.363920
  O      16.917921     36.869745      8.364283
  O      16.892643     38.376147      6.205765
  O      20.741179     29.685080      8.374257
  O      21.019687     34.459613      8.408545
  H       4.074657     24.986772      8.036591
  H       1.410409     29.602015      8.036749
  H       1.410409     35.007985      8.036749
  H       4.074657     39.623228      8.036591
  H       8.948181     22.173255      8.038302
  H       8.948181     42.436745      8.038302
  H      14.277762     22.173204      8.038282
  H      14.277762     42.436796      8.038282
  H      18.960557     24.876228      8.036406
  H      18.960557     39.733772      8.036406
  H      21.624717     29.491420      8.036583
  H      21.624717     35.118580      8.036583
  H      13.079251     34.147041      6.072205
  H      10.817241     34.636733      6.160706
  H       9.013393     32.888969      5.821183
  H       9.774618     30.454170      5.782168
  H      12.280070     29.896929      5.778534
  H      13.955701     31.831094      5.864501
  H      13.584537     39.798175      5.798099
  H      10.878985     39.352850      5.708526
  H       8.152088     39.602590      5.760641
  H       6.139891     37.679028      5.788281
  H       5.266337     35.092653      5.763906
  H       3.539741     32.967592      5.846164
  H       4.194383     30.323987      5.845812
  H       6.003499     28.271152      5.797710
  H       6.926112     25.700568      5.844492
  H       9.572999     24.929566      5.814073
  H      12.269943     25.501357      5.762334
  H      14.963599     25.028344      5.827774
  H      16.968058     26.884691      5.826038
  H      17.798591     29.507431      5.784738
  H      19.515307     31.610238      5.853474
  H      18.913924     34.261860      5.839947
  H      17.090996     36.308030      5.794750
  H      16.140774     38.869611      5.848179
  P      10.259775     36.221620     10.958427
  O      13.262669     36.786066     13.495415
  O      15.367020     38.784807     13.101958
  O      16.258963     36.751606     11.704303
  O      10.950612     37.204938     12.041989
  O      15.524836     34.082854     11.430083
  O       9.493741     35.215588     11.679754
  O      11.448497     35.783784     10.050702
  O       9.271119     37.187383     10.190767
  N      13.596086     34.757254     12.442143
  N      13.667436     32.813221     11.185526
  N      11.774152     31.589663     10.695911
  C      14.475900     38.265008     12.158565
  C      14.869854     36.840597     11.765586
  C      13.120718     38.028472     12.788540
  C      14.238715     36.018969     12.907385
  C      12.055092     38.002723     11.691592
  C      12.294164     34.507946     12.707570
  C      14.354312     33.905348     11.680123
  C      11.647231     33.418742     12.233184
  C      12.347337     32.579888     11.353655
  H      14.408504     38.909448     11.274179
  H      14.399495     36.570797     10.811938
  H      12.890808     38.769100     13.553453
  H      15.009764     35.733886     13.630071
  H      12.486257     37.642863     10.753200
  H      11.734504     39.039857     11.533429
  H      16.240434     38.449764     12.858787
  H      16.471037     35.818507     11.561170
  H      11.788250     35.266798     13.288226
  H      10.578196     33.347899     12.355605
  H      10.771020     31.512875     10.729395
  H      12.248085     31.067207      9.968704
  H       9.660146     37.755946      9.511875
  H      14.190060     32.294256     10.486457
161
Coordinates from ORCA-job /data/Seafile/cmp/protonated/frames/frame11/dry/cmp_prot11 E -13392.477664861721
  Si      3.517261     33.924744      7.834277
  Si      3.455806     30.831150      7.863718
  O       2.303970     34.866056      8.368166
  O       2.109910     30.123113      8.447359
  O       3.450685     32.381119      8.372108
  O       3.569966     33.861907      6.189272
  O       3.486320     30.877875      6.219542
  Si      6.136908     26.164006      7.848092
  Si      8.788456     24.559503      7.841993
  O       4.731513     25.581531      8.415595
  O       7.438331     25.318139      8.361729
  O       8.755949     23.040631      8.422321
  O       6.185489     26.192552      6.202665
  O       8.748512     24.617269      6.199082
  Si      6.087147     29.229247      7.768601
  Si      6.145616     35.498783      7.759331
  Si      8.866504     33.863763      7.792156
  Si      8.841165     30.798963      7.726451
  O       4.810477     30.050895      8.361667
  O       4.880443     34.653253      8.341363
  O       7.502714     34.687355      8.101302
  O       7.461000     30.036687      8.101363
  O       6.214860     27.715431      8.355233
  O       8.787893     32.302127      8.330047
  O       5.831543     29.137059      6.148182
  O       5.940235     35.667461      6.133806
  O       9.137192     33.788050      6.169958
  O       9.023466     30.924090      6.101873
  Si      6.235971     38.581396      7.818684
  Si      8.963199     40.070827      7.788849
  O       4.978376     39.464088      8.362644
  O       7.603425     39.345037      8.305355
  O       6.209051     37.028127      8.325430
  O       9.217721     41.571384      8.361298
  O       6.316062     38.560483      6.174702
  O       8.957353     40.035790      6.144846
  Si     11.481261     26.062318      7.744918
  Si     14.149290     24.543125      7.819234
  O      10.124477     25.379142      8.332695
  O      12.840764     25.384750      8.332667
  O      13.929655     23.021688      8.344210
  O      11.435710     25.811599      6.123467
  O      14.160304     24.638040      6.176181
  Si     11.494830     29.243172      7.716812
  Si     11.579080     35.399944      8.320070
  Si     14.216761     33.810103      7.888705
  Si     14.188891     30.744139      7.741273
  O      10.149952     29.967215      8.306502
  O      10.088963     34.618648      8.496730
  O      13.045914     34.593202      8.670099
  O      12.851497     29.962910      8.334746
  O      11.478468     27.664134      8.078656
  O      14.299619     32.223520      8.432882
  O      11.495343     29.487392      6.100035
  O      11.685487     35.017038      6.650977
  O      13.906421     33.680718      6.289307
  O      13.952034     30.918386      6.137716
  Si     11.678443     38.613394      7.679678
  Si     14.368831     40.069229      7.852738
  O      10.275074     39.219289      8.292644
  O      13.013618     39.298027      8.330780
  O      11.667309     37.064447      8.019323
  O      14.394341     41.576587      8.461443
  O      11.742753     39.014168      6.086518
  O      14.430288     40.018533      6.211482
  Si     16.868625     26.021823      7.854305
  O      15.528626     25.231581      8.359140
  O      18.166542     25.243762      8.447770
  O      16.808490     26.019977      6.211290
  Si     16.915105     29.101336      7.765686
  Si     17.016576     35.343618      7.807870
  Si     19.656469     33.758744      7.864883
  Si     19.550604     30.665467      7.847605
  O      15.509625     29.873649      8.087963
  O      15.664019     34.512622      8.156375
  O      18.306528     34.523894      8.388729
  O      18.156987     29.965989      8.364636
  O      16.830367     27.583008      8.355178
  O      19.672538     32.203194      8.384444
  O      17.125403     28.931891      6.147199
  O      17.260164     35.426778      6.184250
  O      19.582661     33.683148      6.223569
  O      19.468929     30.717673      6.204530
  Si     16.982524     38.417312      7.852544
  O      15.699625     39.279527      8.389736
  O      18.411183     39.008968      8.363650
  O      16.919513     36.868407      8.378868
  O      16.890713     38.369887      6.210941
  O      20.740127     29.687916      8.370347
  O      21.022357     34.458304      8.407175
  H       4.074657     24.986772      8.036591
  H       1.410409     29.602015      8.036749
  H       1.410409     35.007985      8.036749
  H       4.074657     39.623228      8.036591
  H       8.948181     22.173255      8.038302
  H       8.948181     42.436745      8.038302
  H      14.277762     22.173204      8.038282
  H      14.277762     42.436796      8.038282
  H      18.960557     24.876228      8.036406
  H      18.960557     39.733772      8.036406
  H      21.624717     29.491420      8.036583
  H      21.624717     35.118580      8.036583
  H      13.054484     34.167674      6.126299
  H      10.859988     34.671560      6.280107
  H       9.065975     32.892006      5.805598
  H       9.789111     30.441759      5.752519
  H      12.303961     29.910444      5.766480
  H      13.958759     31.863585      5.877247
  H      13.575237     39.784691      5.813520
  H      10.889702     39.278614      5.715871
  H       8.183383     39.577599      5.785832
  H       6.168369     37.677409      5.804366
  H       5.252930     35.094585      5.767588
  H       3.528093     32.959284      5.842159
  H       4.174408     30.314191      5.834905
  H       5.979820     28.255626      5.778231
  H       6.925740     25.689735      5.834241
  H       9.576871     24.927307      5.804956
  H      12.273193     25.499549      5.752567
  H      14.968939     25.035769      5.822571
  H      16.973960     26.891553      5.822050
  H      17.807056     29.514419      5.780794
  H      19.521477     31.619186      5.852723
  H      18.907308     34.267425      5.846216
  H      17.079033     36.299224      5.806164
  H      16.136982     38.865044      5.855596
  P      10.407783     36.341282     11.017595
  O      13.473170     36.935609     13.458106
  O      15.601752     38.890449     13.016104
  O      16.457180     36.828755     11.636624
  O      11.160724     37.336052     12.053348
  O      15.681573     34.183785     11.364847
  O       9.664646     35.356014     11.801347
  O      11.583339     35.870028     10.136709
  O       9.395578     37.256605     10.202602
  N      13.770876     34.863701     12.416788
  N      13.818914     32.931397     11.132369
  N      11.919963     31.717048     10.651680
  C      14.694935     38.367711     12.086136
  C      15.067846     36.928538     11.710224
  C      13.341197     38.164994     12.731025
  C      14.432663     36.127992     12.872632
  C      12.259983     38.118029     11.649068
  C      12.476607     34.603881     12.705003
  C      14.512442     34.014011     11.633846
  C      11.826118     33.512925     12.230664
  C      12.505112     32.694527     11.321123
  H      14.627178     38.996942     11.190768
  H      14.587532     36.654101     10.763640
  H      13.125092     38.929385     13.476348
  H      15.202364     35.843522     13.597064
  H      12.678853     37.727551     10.718493
  H      11.941537     39.149046     11.456780
  H      16.469253     38.541661     12.774856
  H      16.664170     35.896167     11.495023
  H      11.980666     35.354067     13.302643
  H      10.762427     33.425475     12.380263
  H      10.917461     31.642853     10.701587
  H      12.376217     31.213476      9.899550
  H       9.757145     37.821947      9.501315
  H      14.324884     32.429643     10.408260
161
Coordinates from ORCA-job /data/Seafile/cmp/protonated/frames/frame11/dry/cmp_prot11 E -13392.465659813794
  Si      3.518316     33.928496      7.840351
  Si      3.459518     30.834580      7.871895
  O       2.301604     34.866860      8.372985
  O       2.111031     30.124756      8.452635
  O       3.451488     32.384897      8.379364
  O       3.572622     33.865324      6.195636
  O       3.493024     30.882215      6.227199
  Si      6.136427     26.163093      7.857130
  Si      8.787454     24.557690      7.846397
  O       4.731062     25.577758      8.422515
  O       7.438110     25.316238      8.368827
  O       8.755928     23.038636      8.427322
  O       6.184716     26.194649      6.211483
  O       8.744724     24.615686      6.203221
  Si      6.088391     29.228401      7.783325
  Si      6.145754     35.500867      7.764924
  Si      8.863087     33.863260      7.817770
  Si      8.839981     30.798042      7.743463
  O       4.812073     30.052898      8.374019
  O       4.878996     34.658819      8.348625
  O       7.497631     34.688338      8.117756
  O       7.461973     30.033211      8.118804
  O       6.213563     27.713394      8.368087
  O       8.783788     32.299142      8.352465
  O       5.834802     29.139095      6.161944
  O       5.945547     35.664801      6.138416
  O       9.128178     33.791462      6.193616
  O       9.018522     30.926453      6.119274
  Si      6.230864     38.588026      7.807330
  Si      8.961851     40.071678      7.782110
  O       4.975607     39.470395      8.361101
  O       7.596347     39.350251      8.295405
  O       6.206660     37.035240      8.320216
  O       9.214483     41.570062      8.364651
  O       6.308442     38.560765      6.162458
  O       8.950689     40.044393      6.138029
  Si     11.480037     26.059461      7.745626
  Si     14.147817     24.539195      7.818123
  O      10.124070     25.377020      8.336201
  O      12.840167     25.381870      8.331923
  O      13.928213     23.018937      8.346144
  O      11.432442     25.808547      6.124370
  O      14.157737     24.633594      6.174858
  Si     11.493004     29.239485      7.720365
  Si     11.583033     35.395107      8.338769
  Si     14.223885     33.806236      7.891239
  Si     14.189729     30.738577      7.733956
  O      10.151586     29.963999      8.319965
  O      10.089117     34.610332      8.515186
  O      13.057969     34.587773      8.680037
  O      12.852520     29.958378      8.332914
  O      11.478511     27.660541      8.081819
  O      14.307766     32.215269      8.431762
  O      11.486206     29.484238      6.103276
  O      11.689379     35.007820      6.662627
  O      13.906748     33.680054      6.292745
  O      13.944047     30.916811      6.132839
  Si     11.678957     38.613071      7.695896
  Si     14.370887     40.071058      7.859962
  O      10.271572     39.226498      8.291050
  O      13.017491     39.301250      8.341778
  O      11.673637     37.067110      8.038701
  O      14.401408     41.580273      8.464950
  O      11.742420     39.018780      6.104808
  O      14.434921     40.017012      6.217748
  Si     16.868136     26.016749      7.850866
  O      15.528040     25.227221      8.356587
  O      18.165973     25.241477      8.448577
  O      16.809437     26.010663      6.207160
  Si     16.915861     29.095572      7.755918
  Si     17.022531     35.340122      7.800175
  Si     19.660262     33.754692      7.862116
  Si     19.550469     30.661845      7.844270
  O      15.510200     29.867037      8.077348
  O      15.672738     34.508461      8.153017
  O      18.311448     34.521466      8.384436
  O      18.155905     29.961861      8.357644
  O      16.829766     27.578778      8.349171
  O      19.673482     32.199220      8.381823
  O      17.129585     28.923191      6.137920
  O      17.270665     35.425809      6.176829
  O      19.588928     33.679228      6.220086
  O      19.470834     30.714845      6.201070
  Si     16.985160     38.416891      7.852800
  O      15.703795     39.279805      8.394174
  O      18.415932     39.004907      8.364123
  O      16.922812     36.865346      8.372731
  O      16.891316     38.369337      6.210882
  O      20.739863     29.685558      8.371759
  O      21.024985     34.454940      8.407873
  H       4.074657     24.986772      8.036591
  H       1.410409     29.602015      8.036749
  H       1.410409     35.007985      8.036749
  H       4.074657     39.623228      8.036591
  H       8.948181     22.173255      8.038302
  H       8.948181     42.436745      8.038302
  H      14.277762     22.173204      8.038282
  H      14.277762     42.436796      8.038282
  H      18.960557     24.876228      8.036406
  H      18.960557     39.733772      8.036406
  H      21.624717     29.491420      8.036583
  H      21.624717     35.118580      8.036583
  H      13.053332     34.175816      6.145920
  H      10.861150     34.671321      6.291098
  H       9.054757     32.899882      5.824287
  H       9.782068     30.446489      5.766449
  H      12.291434     29.912020      5.768673
  H      13.938618     31.863679      5.875784
  H      13.582019     39.777813      5.819759
  H      10.885865     39.282341      5.736103
  H       8.169572     39.593363      5.781257
  H       6.157586     37.672821      5.800382
  H       5.260600     35.088551      5.771342
  H       3.533577     32.961565      5.850385
  H       4.180734     30.316263      5.845162
  H       5.985044     28.258194      5.791837
  H       6.926163     25.693374      5.843177
  H       9.573910     24.925557      5.810031
  H      12.270769     25.497584      5.754084
  H      14.966672     25.033176      5.823029
  H      16.975988     26.882748      5.818339
  H      17.811308     29.506516      5.773194
  H      19.521227     31.617306      5.851084
  H      18.911765     34.263463      5.844104
  H      17.088687     36.299211      5.802153
  H      16.137810     38.864094      5.856678
  P      10.427580     36.205945     10.845403
  O      13.414776     36.803305     13.431525
  O      15.530464     38.773417     13.036963
  O      16.435646     36.702775     11.693991
  O      11.151793     37.157886     11.934699
  O      15.661791     34.033013     11.427064
  O       9.716287     35.142316     11.554136
  O      11.590947     35.826514      9.894150
  O       9.392901     37.143154     10.104632
  N      13.741717     34.743862     12.434439
  N      13.782377     32.791957     11.188161
  N      11.863985     31.600973     10.702122
  C      14.655300     38.243030     12.084405
  C      15.047558     36.804355     11.727217
  C      13.285572     38.025805     12.690392
  C      14.392179     36.009491     12.876932
  C      12.239244     37.972961     11.574048
  C      12.445088     34.500859     12.720656
  C      14.485992     33.876388     11.676912
  C      11.781722     33.417215     12.254999
  C      12.460118     32.577515     11.363882
  H      14.608151     38.872130     11.187404
  H      14.594740     36.517620     10.770821
  H      13.037026     38.782262     13.433616
  H      15.147630     35.736458     13.619746
  H      12.678900     37.608124     10.643258
  H      11.898303     39.000696     11.401869
  H      16.406445     38.429152     12.818484
  H      16.639399     35.767492     11.553195
  H      11.953039     35.266490     13.303248
  H      10.713333     33.350310     12.397610
  H      10.859260     31.543130     10.737995
  H      12.323211     31.079759      9.967394
  H       9.749960     37.750435      9.447645
  H      14.289145     32.274123     10.474775
161
Coordinates from ORCA-job /data/Seafile/cmp/protonated/frames/frame11/dry/cmp_prot11 E -13392.481450577865
  Si      3.518550     33.926029      7.847223
  Si      3.456899     30.832341      7.874434
  O       2.300674     34.864808      8.375857
  O       2.109607     30.122857      8.454626
  O       3.449943     32.382101      8.384375
  O       3.575036     33.863138      6.202598
  O       3.490360     30.880381      6.229980
  Si      6.137473     26.163900      7.855978
  Si      8.789003     24.559363      7.845459
  O       4.732315     25.577593      8.420963
  O       7.439148     25.317252      8.368073
  O       8.757069     23.039897      8.424945
  O       6.186511     26.196758      6.210488
  O       8.745835     24.617862      6.202472
  Si      6.088442     29.229601      7.782399
  Si      6.147165     35.498322      7.776605
  Si      8.867324     33.864130      7.800296
  Si      8.839950     30.798854      7.734098
  O       4.811369     30.052080      8.374362
  O       4.879536     34.656350      8.358033
  O       7.504131     34.685873      8.118131
  O       7.463296     30.034535      8.115104
  O       6.214100     27.714532      8.366862
  O       8.789500     32.302668      8.338645
  O       5.833407     29.139981      6.161509
  O       5.946714     35.662366      6.150476
  O       9.117831     33.790649      6.174966
  O       9.013499     30.921852      6.108841
  Si      6.232825     38.583235      7.821503
  Si      8.963310     40.069393      7.801018
  O       4.974348     39.467533      8.362211
  O       7.595709     39.348501      8.317559
  O       6.207311     37.030986      8.337745
  O       9.214504     41.572036      8.369876
  O       6.316373     38.553321      6.177450
  O       8.955336     40.033172      6.157247
  Si     11.480926     26.062726      7.743522
  Si     14.148605     24.541197      7.816438
  O      10.125420     25.379610      8.334731
  O      12.841069     25.384850      8.329771
  O      13.929809     23.020655      8.343633
  O      11.432890     25.809623      6.122601
  O      14.158570     24.635408      6.173129
  Si     11.495183     29.243861      7.710757
  Si     11.590880     35.387558      8.258838
  Si     14.228967     33.807880      7.848313
  Si     14.192311     30.740688      7.714070
  O      10.153642     29.969247      8.307899
  O      10.107261     34.611685      8.476382
  O      13.057069     34.593034      8.622753
  O      12.855649     29.965663      8.318822
  O      11.480238     27.665297      8.076094
  O      14.310642     32.222719      8.400159
  O      11.486875     29.484006      6.092885
  O      11.691934     34.997281      6.586346
  O      13.912552     33.675700      6.250616
  O      13.949796     30.911217      6.111020
  Si     11.679397     38.610153      7.687358
  Si     14.370765     40.070262      7.854104
  O      10.276401     39.219593      8.301047
  O      13.018842     39.295274      8.336476
  O      11.674588     37.055677      7.994096
  O      14.403946     41.578425      8.461536
  O      11.743074     39.021500      6.097317
  O      14.434354     40.023640      6.211935
  Si     16.869029     26.018172      7.847331
  O      15.528947     25.229335      8.354581
  O      18.165833     25.242945      8.446390
  O      16.810973     26.009891      6.203839
  Si     16.917257     29.096617      7.745248
  Si     17.026978     35.342733      7.778452
  Si     19.661556     33.755605      7.852625
  Si     19.551693     30.663016      7.835600
  O      15.511402     29.869824      8.061980
  O      15.673357     34.510968      8.115433
  O      18.311479     34.523227      8.368964
  O      18.156217     29.963777      8.346695
  O      16.830461     27.581405      8.342034
  O      19.672862     32.200491      8.372419
  O      17.134811     28.920993      6.128223
  O      17.284301     35.432327      6.157128
  O      19.596094     33.679747      6.210559
  O      19.475552     30.715226      6.192210
  Si     16.985336     38.417394      7.842118
  O      15.703388     39.277705      8.385064
  O      18.414333     39.004107      8.357599
  O      16.922613     36.864427      8.356557
  O      16.892709     38.375782      6.199894
  O      20.738894     29.687247      8.367420
  O      21.023864     34.454665      8.404147
  H       4.074657     24.986772      8.036591
  H       1.410409     29.602015      8.036749
  H       1.410409     35.007985      8.036749
  H       4.074657     39.623228      8.036591
  H       8.948181     22.173255      8.038302
  H       8.948181     42.436745      8.038302
  H      14.277762     22.173204      8.038282
  H      14.277762     42.436796      8.038282
  H      18.960557     24.876228      8.036406
  H      18.960557     39.733772      8.036406
  H      21.624717     29.491420      8.036583
  H      21.624717     35.118580      8.036583
  H      13.060461     34.170421      6.095132
  H      10.862176     34.660960      6.218101
  H       9.041279     32.897533      5.808836
  H       9.776913     30.439157      5.757341
  H      12.290964     29.913030      5.756457
  H      13.942931     31.856478      5.848937
  H      13.582778     39.784676      5.811797
  H      10.890297     39.286810      5.725246
  H       8.176856     39.582780      5.797955
  H       6.167653     37.667569      5.811989
  H       5.263902     35.085670      5.781910
  H       3.536604     32.960033      5.856246
  H       4.177271     30.314473      5.846788
  H       5.984305     28.259521      5.790700
  H       6.928426     25.696793      5.841602
  H       9.574166     24.927862      5.807937
  H      12.271078     25.498429      5.752154
  H      14.966813     25.035209      5.820235
  H      16.977922     26.880683      5.812592
  H      17.817421     29.504138      5.764220
  H      19.526284     31.617906      5.842466
  H      18.920313     34.262981      5.831043
  H      17.104562     36.307163      5.783789
  H      16.138857     38.872238      5.847877
  P      10.359059     36.228608     10.966540
  O      13.384622     36.812223     13.477301
  O      15.505254     38.769514     13.054028
  O      16.381088     36.706322     11.685320
  O      11.092021     37.191549     12.039592
  O      15.607178     34.044447     11.424865
  O       9.620103     35.198156     11.697145
  O      11.527219     35.803264     10.048859
  O       9.351707     37.168600     10.186182
  N      13.689100     34.749833     12.444567
  N      13.726725     32.818305     11.161795
  N      11.807820     31.642498     10.643781
  C      14.612390     38.245343     12.112893
  C      14.992658     36.806769     11.745376
  C      13.252894     38.039309     12.742786
  C      14.347870     36.009026     12.902379
  C      12.183889     37.986510     11.652180
  C      12.393395     34.500619     12.727285
  C      14.430447     33.891769     11.671793
  C      11.728480     33.426369     12.237257
  C      12.403976     32.604108     11.330184
  H      14.552265     38.876813     11.216004
  H      14.523155     36.526252     10.795363
  H      13.025626     38.802143     13.486421
  H      15.106913     35.724045     13.636766
  H      12.611926     37.606372     10.721880
  H      11.853420     39.015194     11.464626
  H      16.377114     38.423899     12.823792
  H      16.587318     35.775014     11.529371
  H      11.899700     35.255626     13.322437
  H      10.659976     33.361387     12.376816
  H      10.803012     31.588378     10.675867
  H      12.266061     31.135138      9.897616
  H       9.733570     37.758706      9.521390
  H      14.231072     32.314050     10.437449
161
Coordinates from ORCA-job /data/Seafile/cmp/protonated/frames/frame11/dry/cmp_prot11 E -13392.482352712103
  Si      3.518112     33.925597      7.849548
  Si      3.455765     30.831765      7.875561
  O       2.299787     34.863891      8.378250
  O       2.109190     30.122334      8.456094
  O       3.449322     32.381535      8.386543
  O       3.574743     33.862882      6.204912
  O       3.489084     30.880212      6.231294
  Si      6.137202     26.163465      7.856368
  Si      8.788841     24.559279      7.845563
  O       4.732304     25.576988      8.422042
  O       7.438880     25.317018      8.368679
  O       8.757014     23.039763      8.425279
  O       6.185972     26.196056      6.210980
  O       8.745612     24.617812      6.202715
  Si      6.087411     29.228808      7.782108
  Si      6.147251     35.497690      7.779214
  Si      8.867715     33.863008      7.800651
  Si      8.839537     30.797600      7.732293
  O       4.810610     30.051504      8.374882
  O       4.878965     34.656750      8.361320
  O       7.504079     34.683957      8.119623
  O       7.463164     30.032807      8.113763
  O       6.213283     27.714187      8.367371
  O       8.787932     32.301398      8.337191
  O       5.831013     29.138729      6.161600
  O       5.946131     35.662648      6.153390
  O       9.118349     33.791677      6.176049
  O       9.013538     30.919832      6.107234
  Si      6.234000     38.582068      7.824383
  Si      8.963801     40.070220      7.800741
  O       4.974941     39.467345      8.363183
  O       7.597328     39.349849      8.318674
  O       6.208528     37.030013      8.341989
  O       9.214058     41.572294      8.370281
  O       6.317828     38.551248      6.180634
  O       8.956526     40.031723      6.156957
  Si     11.480710     26.062755      7.743186
  Si     14.148659     24.542188      7.817481
  O      10.125181     25.379616      8.334769
  O      12.840678     25.385400      8.330472
  O      13.929787     23.020732      8.343836
  O      11.432799     25.808743      6.122352
  O      14.159296     24.637064      6.174278
  Si     11.495699     29.244105      7.709733
  Si     11.592678     35.386133      8.273230
  Si     14.231909     33.806825      7.859752
  Si     14.193052     30.740875      7.720854
  O      10.153415     29.968865      8.305720
  O      10.107716     34.609493      8.479110
  O      13.060083     34.592221      8.634210
  O      12.855069     29.964917      8.321372
  O      11.479991     27.665388      8.074973
  O      14.312891     32.221405      8.410378
  O      11.490633     29.485615      6.092073
  O      11.697966     34.995547      6.598523
  O      13.914127     33.676152      6.263024
  O      13.953045     30.914862      6.117588
  Si     11.679015     38.607519      7.689695
  Si     14.370282     40.070095      7.855616
  O      10.275969     39.218851      8.304090
  O      13.017192     39.295826      8.337913
  O      11.672205     37.053229      7.999711
  O      14.406719     41.579041      8.462018
  O      11.743214     39.016172      6.099175
  O      14.434261     40.022697      6.213770
  Si     16.869211     26.018097      7.849973
  O      15.529004     25.229242      8.356902
  O      18.165796     25.241536      8.447906
  O      16.811032     26.011464      6.206667
  Si     16.917224     29.096229      7.750795
  Si     17.028330     35.342064      7.787141
  Si     19.662663     33.755204      7.857830
  Si     19.551523     30.662764      7.839821
  O      15.511139     29.868454      8.068182
  O      15.676316     34.509181      8.127509
  O      18.314300     34.524322      8.377130
  O      18.156582     29.963082      8.352089
  O      16.830982     27.580653      8.346552
  O      19.674177     32.199954      8.377637
  O      17.133973     28.921530      6.133632
  O      17.283126     35.429154      6.165397
  O      19.594512     33.679198      6.216032
  O      19.473688     30.716002      6.196622
  Si     16.984679     38.416803      7.845374
  O      15.702640     39.277660      8.388057
  O      18.414207     39.004224      8.358973
  O      16.923163     36.864649      8.362603
  O      16.890612     38.372871      6.203486
  O      20.739308     29.686414      8.369332
  O      21.026476     34.453408      8.406391
  H       4.074657     24.986772      8.036591
  H       1.410409     29.602015      8.036749
  H       1.410409     35.007985      8.036749
  H       4.074657     39.623228      8.036591
  H       8.948181     22.173255      8.038302
  H       8.948181     42.436745      8.038302
  H      14.277762     22.173204      8.038282
  H      14.277762     42.436796      8.038282
  H      18.960557     24.876228      8.036406
  H      18.960557     39.733772      8.036406
  H      21.624717     29.491420      8.036583
  H      21.624717     35.118580      8.036583
  H      13.059858     34.172035      6.112867
  H      10.868969     34.662785      6.226217
  H       9.042333     32.899033      5.808594
  H       9.777445     30.436923      5.756824
  H      12.294559     29.917235      5.758076
  H      13.944300     31.860752      5.858122
  H      13.583139     39.782069      5.813345
  H      10.890975     39.279948      5.724790
  H       8.177554     39.582500      5.796604
  H       6.169115     37.665976      5.814083
  H       5.263774     35.085813      5.784138
  H       3.537088     32.959932      5.858031
  H       4.175221     30.313692      5.847487
  H       5.982410     28.258427      5.790368
  H       6.928166     25.696793      5.841587
  H       9.573764     24.927706      5.807714
  H      12.270882     25.497822      5.751592
  H      14.967271     25.037090      5.821293
  H      16.978501     26.882098      5.815575
  H      17.815398     29.505281      5.768953
  H      19.523744     31.618528      5.846873
  H      18.917988     34.261649      5.837020
  H      17.101740     36.302580      5.790041
  H      16.136622     38.868745      5.851110
  P      10.373910     36.251194     10.963265
  O      13.432956     36.836165     13.454325
  O      15.551521     38.790476     13.028506
  O      16.432631     36.724189     11.670701
  O      11.130765     37.214944     12.017746
  O      15.649040     34.072598     11.395070
  O       9.610294     35.254474     11.712907
  O      11.532200     35.777910     10.053615
  O       9.386906     37.197572     10.164482
  N      13.736412     34.770389     12.429434
  N      13.768086     32.846991     11.135255
  N      11.846447     31.677215     10.621869
  C      14.661690     38.262476     12.086095
  C      15.044313     36.823300     11.725280
  C      13.300389     38.059059     12.713935
  C      14.396541     36.029725     12.883158
  C      12.228307     38.002042     11.623500
  C      12.443716     34.516713     12.723088
  C      14.474037     33.916879     11.648338
  C      11.778351     33.442971     12.233364
  C      12.447253     32.630751     11.313044
  H      14.605786     38.890039     11.187826
  H      14.577867     36.538168     10.774960
  H      13.073757     38.825857     13.453778
  H      15.153975     35.746199     13.619913
  H      12.654849     37.611871     10.696350
  H      11.902931     39.030589     11.427171
  H      16.424714     38.445948     12.801863
  H      16.639027     35.792745     11.515919
  H      11.952939     35.267376     13.325940
  H      10.712480     33.371264     12.380825
  H      10.841845     31.623118     10.660254
  H      12.299889     31.178343      9.867398
  H       9.776124     37.779297      9.496704
  H      14.265770     32.351706     10.400062
161
Coordinates from ORCA-job /data/Seafile/cmp/protonated/frames/frame11/dry/cmp_prot11 E -13392.483119784591
  Si      3.518253     33.926064      7.854637
  Si      3.454425     30.831498      7.879747
  O       2.298381     34.863333      8.382547
  O       2.108919     30.120722      8.459036
  O       3.448693     32.381623      8.391464
  O       3.575675     33.863585      6.209893
  O       3.488349     30.881222      6.235615
  Si      6.137061     26.163165      7.860200
  Si      8.788918     24.559433      7.848914
  O       4.731940     25.575896      8.424894
  O       7.438690     25.316693      8.372620
  O       8.756887     23.039117      8.427065
  O       6.185797     26.195849      6.214773
  O       8.746297     24.619212      6.206070
  Si      6.086474     29.228122      7.786493
  Si      6.148269     35.499431      7.784978
  Si      8.870381     33.863123      7.805115
  Si      8.840213     30.796988      7.736162
  O       4.809567     30.051102      8.379617
  O       4.879099     34.658984      8.368024
  O       7.505644     34.683571      8.123865
  O       7.463870     30.031203      8.116857
  O       6.212570     27.713832      8.372357
  O       8.787092     32.301635      8.341125
  O       5.828276     29.137850      6.166284
  O       5.945439     35.665940      6.159408
  O       9.119567     33.795140      6.181239
  O       9.014830     30.918340      6.111222
  Si      6.234693     38.584011      7.828561
  Si      8.964179     40.070587      7.805191
  O       4.974200     39.468742      8.364845
  O       7.596313     39.354875      8.324585
  O       6.209463     37.032076      8.348749
  O       9.212932     41.572798      8.373574
  O       6.320793     38.551602      6.185130
  O       8.957548     40.028340      6.161001
  Si     11.480758     26.063582      7.748348
  Si     14.148381     24.543147      7.820565
  O      10.125161     25.379459      8.339426
  O      12.840886     25.385955      8.334996
  O      13.929634     23.020202      8.345655
  O      11.432186     25.810648      6.127122
  O      14.158475     24.638741      6.177398
  Si     11.496904     29.244722      7.715336
  Si     11.599630     35.381720      8.297029
  Si     14.239493     33.803921      7.865247
  Si     14.195439     30.738822      7.726298
  O      10.154276     29.969723      8.310056
  O      10.115027     34.604841      8.484051
  O      13.068752     34.587473      8.644572
  O      12.856283     29.966007      8.327164
  O      11.480577     27.665905      8.080731
  O      14.320768     32.219411      8.417543
  O      11.493455     29.484923      6.097252
  O      11.710068     34.996195      6.617870
  O      13.915947     33.673594      6.270978
  O      13.954424     30.915058      6.122990
  Si     11.679052     38.600538      7.700619
  Si     14.370183     40.069230      7.859776
  O      10.275866     39.217564      8.314194
  O      13.016781     39.294581      8.345646
  O      11.674555     37.044749      8.016632
  O      14.412385     41.580192      8.463297
  O      11.741641     39.003702      6.108680
  O      14.431812     40.019890      6.217956
  Si     16.869488     26.016948      7.853050
  O      15.529307     25.228688      8.360128
  O      18.166411     25.240356      8.450115
  O      16.810816     26.010573      6.209774
  Si     16.918854     29.094029      7.754625
  Si     17.032578     35.341373      7.791260
  Si     19.665625     33.754055      7.861204
  Si     19.552124     30.661928      7.842907
  O      15.512555     29.865325      8.071433
  O      15.682243     34.506254      8.132887
  O      18.318840     34.525263      8.381864
  O      18.157769     29.961613      8.355451
  O      16.832486     27.578946      8.350470
  O      19.675978     32.198954      8.380968
  O      17.136174     28.919128      6.137460
  O      17.287006     35.427636      6.169554
  O      19.596495     33.678508      6.219285
  O      19.474271     30.715793      6.199683
  Si     16.984789     38.416083      7.848328
  O      15.702904     39.277065      8.391723
  O      18.415102     39.003583      8.360069
  O      16.925092     36.863808      8.366430
  O      16.888651     38.371389      6.206573
  O      20.740002     29.685412      8.371507
  O      21.030119     34.451153      8.408376
  H       4.074657     24.986772      8.036591
  H       1.410409     29.602015      8.036749
  H       1.410409     35.007985      8.036749
  H       4.074657     39.623228      8.036591
  H       8.948181     22.173255      8.038302
  H       8.948181     42.436745      8.038302
  H      14.277762     22.173204      8.038282
  H      14.277762     42.436796      8.038282
  H      18.960557     24.876228      8.036406
  H      18.960557     39.733772      8.036406
  H      21.624717     29.491420      8.036583
  H      21.624717     35.118580      8.036583
  H      13.058007     34.171102      6.131718
  H      10.881884     34.670111      6.240321
  H       9.043761     32.903765      5.811286
  H       9.779522     30.435787      5.761939
  H      12.296645     29.919058      5.764399
  H      13.943664     31.861155      5.864543
  H      13.580273     39.776859      5.819607
  H      10.889025     39.263520      5.732296
  H       8.177336     39.580386      5.800927
  H       6.172415     37.665998      5.818955
  H       5.264082     35.088263      5.789474
  H       3.539732     32.960656      5.862834
  H       4.173623     30.313769      5.851625
  H       5.980794     28.257893      5.794459
  H       6.928801     25.697762      5.845294
  H       9.574633     24.929223      5.811576
  H      12.270255     25.500755      5.755477
  H      14.966227     25.039348      5.824525
  H      16.979200     26.880959      5.818600
  H      17.816579     29.503705      5.772454
  H      19.524016     31.618504      5.850425
  H      18.919603     34.261062      5.841147
  H      17.103758     36.300051      5.793014
  H      16.134259     38.867609      5.855278
  P      10.374399     36.265488     10.973341
  O      13.449572     36.858635     13.437852
  O      15.569958     38.809311     13.016462
  O      16.456384     36.736780     11.669872
  O      11.152534     37.230298     12.009337
  O      15.664936     34.087006     11.388028
  O       9.615065     35.277946     11.739672
  O      11.516151     35.778334     10.049829
  O       9.387031     37.204722     10.169827
  N      13.753758     34.789737     12.420730
  N      13.781288     32.862966     11.132045
  N      11.857212     31.695542     10.626929
  C      14.684832     38.279789     12.070745
  C      15.068336     36.839200     11.716016
  C      13.319680     38.078678     12.693804
  C      14.413855     36.049893     12.872393
  C      12.248056     38.016211     11.602389
  C      12.462421     34.535892     12.721266
  C      14.489507     33.932942     11.641433
  C      11.795014     33.461876     12.235894
  C      12.460487     32.649225     11.314043
  H      14.635400     38.905457     11.172231
  H      14.606348     36.552109     10.764084
  H      13.091704     38.847638     13.431033
  H      15.168115     35.768216     13.613293
  H      12.673307     37.617083     10.678131
  H      11.921240     39.042099     11.396426
  H      16.444325     38.464332     12.794897
  H      16.660738     35.805584     11.509666
  H      11.974826     35.285978     13.327038
  H      10.730496     33.386500     12.390896
  H      10.852634     31.642230     10.666080
  H      12.310990     31.191112      9.876406
  H       9.777539     37.786531      9.501647
  H      14.274928     32.367208     10.393771
161
Coordinates from ORCA-job /data/Seafile/cmp/protonated/frames/frame11/dry/cmp_prot11 E -13392.483617562968
  Si      3.517374     33.924756      7.861577
  Si      3.452062     30.829704      7.883941
  O       2.296218     34.861451      8.387918
  O       2.107596     30.118006      8.462129
  O       3.447118     32.379711      8.397073
  O       3.575428     33.863143      6.216689
  O       3.485794     30.880775      6.239880
  Si      6.137276     26.162024      7.862707
  Si      8.789999     24.559902      7.850502
  O       4.732623     25.573377      8.427602
  O       7.439570     25.316505      8.374827
  O       8.758018     23.039134      8.427718
  O       6.184913     26.194485      6.217175
  O       8.746607     24.619753      6.207638
  Si      6.085353     29.226683      7.788726
  Si      6.148029     35.498946      7.793926
  Si      8.872175     33.861981      7.806951
  Si      8.840739     30.795637      7.735398
  O       4.808397     30.049602      8.382765
  O       4.877573     34.659629      8.376993
  O       7.506165     34.680316      8.128291
  O       7.465085     30.028099      8.116415
  O       6.211808     27.712711      8.375017
  O       8.786182     32.300396      8.340905
  O       5.824351     29.136037      6.168988
  O       5.944015     35.667268      6.168744
  O       9.118347     33.799538      6.183341
  O       9.014042     30.915768      6.110190
  Si      6.236465     38.583264      7.836838
  Si      8.965728     40.070314      7.815776
  O       4.974194     39.468723      8.367179
  O       7.596878     39.356574      8.336815
  O       6.210154     37.031509      8.359513
  O       9.209644     41.574218      8.379783
  O       6.327104     38.548672      6.194060
  O       8.962852     40.021540      6.171735
  Si     11.481428     26.065524      7.748937
  Si     14.148757     24.545036      7.820935
  O      10.126198     25.380582      8.340431
  O      12.841756     25.388125      8.335261
  O      13.929493     23.021248      8.345750
  O      11.431942     25.811382      6.127746
  O      14.159193     24.639484      6.177578
  Si     11.499522     29.247045      7.714140
  Si     11.603726     35.377625      8.315283
  Si     14.243458     33.804319      7.865439
  Si     14.198313     30.739919      7.722407
  O      10.156523     29.971472      8.307957
  O      10.121134     34.599592      8.483656
  O      13.074759     34.585543      8.651604
  O      12.859408     29.969447      8.324464
  O      11.482568     27.668144      8.079775
  O      14.328031     32.219586      8.417237
  O      11.497541     29.485532      6.095781
  O      11.724885     34.992533      6.631668
  O      13.908705     33.676554      6.274293
  O      13.955844     30.921835      6.119468
  Si     11.681033     38.593751      7.712435
  Si     14.372379     40.068265      7.863747
  O      10.278516     39.216404      8.328759
  O      13.019401     39.293159      8.354403
  O      11.674243     37.036448      8.029246
  O      14.421273     41.581096      8.464063
  O      11.742992     38.990157      6.118654
  O      14.431145     40.019355      6.221845
  Si     16.870409     26.016930      7.852186
  O      15.530080     25.229858      8.359815
  O      18.166444     25.239850      8.450580
  O      16.812537     26.009118      6.208862
  Si     16.921091     29.093283      7.749634
  Si     17.035919     35.340725      7.790222
  Si     19.668037     33.753640      7.860669
  Si     19.553457     30.661983      7.840626
  O      15.514248     29.864315      8.063765
  O      15.685479     34.504788      8.130087
  O      18.322605     34.526688      8.381543
  O      18.158720     29.961664      8.350711
  O      16.834184     27.579359      8.347300
  O      19.677118     32.198543      8.379283
  O      17.141350     28.916838      6.132913
  O      17.291132     35.426732      6.168884
  O      19.598991     33.679344      6.218548
  O      19.478655     30.716841      6.197236
  Si     16.986121     38.414913      7.849243
  O      15.705066     39.275897      8.393959
  O      18.417167     39.001933      8.358823
  O      16.926437     36.862294      8.366683
  O      16.888331     38.370917      6.207484
  O      20.739638     29.684526      8.371017
  O      21.033036     34.448782      8.408437
  H       4.074657     24.986772      8.036591
  H       1.410409     29.602015      8.036749
  H       1.410409     35.007985      8.036749
  H       4.074657     39.623228      8.036591
  H       8.948181     22.173255      8.038302
  H       8.948181     42.436745      8.038302
  H      14.277762     22.173204      8.038282
  H      14.277762     42.436796      8.038282
  H      18.960557     24.876228      8.036406
  H      18.960557     39.733772      8.036406
  H      21.624717     29.491420      8.036583
  H      21.624717     35.118580      8.036583
  H      13.047356     34.175828      6.147856
  H      10.897870     34.673009      6.248023
  H       9.045054     32.909631      5.809588
  H       9.779838     30.434191      5.760969
  H      12.299215     29.924157      5.764115
  H      13.940522     31.869212      5.864593
  H      13.580346     39.773802      5.824259
  H      10.891920     39.246496      5.738666
  H       8.183725     39.573632      5.811224
  H       6.179011     37.663408      5.827861
  H       5.264799     35.088166      5.797506
  H       3.541742     32.960338      5.869095
  H       4.169780     30.312271      5.855073
  H       5.978503     28.256589      5.796469
  H       6.929101     25.698334      5.847360
  H       9.574593     24.930038      5.812493
  H      12.270210     25.502169      5.755708
  H      14.966800     25.040578      5.824710
  H      16.982306     26.878957      5.816754
  H      17.821401     29.502488      5.768283
  H      19.528117     31.620394      5.849451
  H      18.921252     34.261507      5.841118
  H      17.106516     36.298466      5.791267
  H      16.133618     38.867854      5.857494
  P      10.372157     36.221539     10.970130
  O      13.440204     36.818643     13.436976
  O      15.571437     38.750754     13.010850
  O      16.458234     36.656930     11.694452
  O      11.154864     37.182484     12.002191
  O      15.646570     34.012829     11.420034
  O       9.603782     35.239239     11.735237
  O      11.517523     35.718218     10.058722
  O       9.404833     37.166191     10.152842
  N      13.734391     34.734572     12.436063
  N      13.754125     32.802191     11.154740
  N      11.820589     31.651987     10.639824
  C      14.690458     38.216915     12.063307
  C      15.070009     36.769041     11.727195
  C      13.320001     38.031728     12.680217
  C      14.399876     35.994246     12.884814
  C      12.252948     37.959847     11.586340
  C      12.441608     34.487655     12.735006
  C      14.467733     33.868532     11.664860
  C      11.767085     33.419351     12.246694
  C      12.429828     32.600980     11.329241
  H      14.650683     38.834605     11.157601
  H      14.615708     36.475867     10.773718
  H      13.091315     38.809165     13.408322
  H      15.145583     35.712584     13.634621
  H      12.677971     37.543151     10.670074
  H      11.929079     38.982664     11.363168
  H      16.446082     38.401090     12.799030
  H      16.658801     35.724407     11.536031
  H      11.958177     35.240399     13.339907
  H      10.701086     33.352075     12.398377
  H      10.815666     31.607059     10.674496
  H      12.274177     31.135927      9.897753
  H       9.807693     37.761311      9.500844
  H      14.244311     32.303234     10.415880
161
Coordinates from ORCA-job /data/Seafile/cmp/protonated/frames/frame11/dry/cmp_prot11 E -13392.483975107456
  Si      3.516816     33.925316      7.859673
  Si      3.451515     30.829290      7.880486
  O       2.293752     34.856921      8.392116
  O       2.109635     30.115222      8.462231
  O       3.449370     32.379545      8.393780
  O       3.571002     33.865719      6.214663
  O       3.481792     30.881181      6.236292
  Si      6.136868     26.161355      7.861504
  Si      8.789798     24.559443      7.850667
  O       4.731308     25.574960      8.427114
  O       7.439279     25.316384      8.374531
  O       8.756500     23.038545      8.428781
  O       6.183781     26.190686      6.215832
  O       8.747743     24.618714      6.207716
  Si      6.083866     29.225084      7.781805
  Si      6.146242     35.502180      7.784805
  Si      8.871308     33.863674      7.789575
  Si      8.839830     30.795200      7.722522
  O       4.808948     30.049820      8.377565
  O       4.876686     34.663376      8.372481
  O       7.503704     34.680486      8.111545
  O       7.465267     30.025956      8.104383
  O       6.211505     27.712684      8.372542
  O       8.780404     32.301664      8.324647
  O       5.817555     29.130891      6.162994
  O       5.933080     35.678723      6.161419
  O       9.115136     33.805356      6.165997
  O       9.015762     30.910392      6.097394
  Si      6.237089     38.585599      7.834753
  Si      8.964668     40.070679      7.811745
  O       4.973078     39.467001      8.368969
  O       7.594715     39.361170      8.336242
  O       6.213883     37.033018      8.354988
  O       9.212761     41.573959      8.378754
  O       6.327302     38.553543      6.191775
  O       8.954429     40.024469      6.167628
  Si     11.480711     26.065981      7.749679
  Si     14.147958     24.545347      7.822267
  O      10.125837     25.380191      8.341462
  O      12.841222     25.388861      8.336608
  O      13.929431     23.020878      8.347747
  O      11.430848     25.811031      6.128504
  O      14.158844     24.639275      6.179026
  Si     11.499532     29.247353      7.712317
  Si     11.608251     35.379952      8.336533
  Si     14.250141     33.802077      7.869775
  Si     14.198699     30.738833      7.725476
  O      10.155588     29.974143      8.301174
  O      10.121111     34.595044      8.468777
  O      13.084590     34.583021      8.659317
  O      12.857105     29.971343      8.326194
  O      11.480933     27.668622      8.080399
  O      14.334557     32.217099      8.423489
  O      11.502680     29.482644      6.093337
  O      11.746109     34.999806      6.645065
  O      13.908974     33.676823      6.280604
  O      13.955092     30.925540      6.123529
  Si     11.681790     38.595094      7.705037
  Si     14.375360     40.069808      7.855869
  O      10.279461     39.218850      8.320429
  O      13.018462     39.300573      8.345070
  O      11.677895     37.041143      8.036801
  O      14.438562     41.581539      8.458481
  O      11.740452     38.988029      6.110867
  O      14.434033     40.020866      6.213740
  Si     16.870463     26.015046      7.854215
  O      15.529440     25.229390      8.361687
  O      18.166852     25.238108      8.452562
  O      16.812600     26.006814      6.210765
  Si     16.920943     29.090625      7.751386
  Si     17.041052     35.339068      7.790541
  Si     19.672008     33.751546      7.861648
  Si     19.552998     30.660219      7.842679
  O      15.513211     29.860121      8.064421
  O      15.693367     34.501487      8.135130
  O      18.329718     34.529743      8.383764
  O      18.158031     29.960297      8.352465
  O      16.835477     27.577236      8.350272
  O      19.676644     32.196951      8.381183
  O      17.142536     28.912524      6.134904
  O      17.295937     35.422565      6.168954
  O      19.601595     33.677449      6.219342
  O      19.478841     30.714606      6.199211
  Si     16.987706     38.414151      7.845455
  O      15.703476     39.271268      8.388972
  O      18.416732     39.002866      8.360321
  O      16.928525     36.861842      8.363853
  O      16.892074     38.371180      6.203734
  O      20.740576     29.684551      8.374177
  O      21.039933     34.442578      8.407597
  H       4.074657     24.986772      8.036591
  H       1.410409     29.602015      8.036749
  H       1.410409     35.007985      8.036749
  H       4.074657     39.623228      8.036591
  H       8.948181     22.173255      8.038302
  H       8.948181     42.436745      8.038302
  H      14.277762     22.173204      8.038282
  H      14.277762     42.436796      8.038282
  H      18.960557     24.876228      8.036406
  H      18.960557     39.733772      8.036406
  H      21.624717     29.491420      8.036583
  H      21.624717     35.118580      8.036583
  H      13.045885     34.182744      6.168413
  H      10.918636     34.702619      6.246442
  H       9.044591     32.917165      5.789158
  H       9.783176     30.429569      5.751115
  H      12.301780     29.928597      5.765161
  H      13.932390     31.874421      5.872958
  H      13.584410     39.768252      5.817636
  H      10.886628     39.237508      5.731051
  H       8.170333     39.580354      5.811574
  H       6.174463     37.668160      5.825931
  H       5.256267     35.096632      5.790152
  H       3.539200     32.962728      5.866875
  H       4.162475     30.309134      5.850519
  H       5.975511     28.251957      5.791016
  H       6.930430     25.697507      5.846989
  H       9.576439     24.929299      5.813938
  H      12.269617     25.503846      5.756041
  H      14.966607     25.040946      5.826962
  H      16.985077     26.876303      5.818848
  H      17.820003     29.500714      5.769391
  H      19.527804     31.618046      5.850980
  H      18.921905     34.258483      5.843318
  H      17.106659     36.292208      5.788763
  H      16.137797     38.868895      5.853422
  P      10.382120     36.245566     11.009769
  O      13.494944     36.887826     13.398536
  O      15.614072     38.824066     12.938755
  O      16.513511     36.709629     11.664039
  O      11.207379     37.217996     11.991764
  O      15.690225     34.068913     11.392303
  O       9.637423     35.283650     11.820393
  O      11.500831     35.714040     10.075718
  O       9.395261     37.167001     10.192872
  N      13.783387     34.795997     12.413566
  N      13.795000     32.861130     11.135259
  N      11.857953     31.713836     10.629838
  C      14.737927     38.268315     11.999345
  C      15.125321     36.817308     11.688610
  C      13.368224     38.085805     12.619589
  C      14.452375     36.057007     12.854384
  C      12.298239     37.981194     11.533392
  C      12.494002     34.546739     12.727027
  C      14.512384     33.927109     11.640796
  C      11.815899     33.478747     12.242699
  C      12.472258     32.660629     11.318103
  H      14.697120     38.870530     11.083702
  H      14.677761     36.508435     10.736816
  H      13.135411     38.876131     13.332300
  H      15.197728     35.780291     13.606257
  H      12.716965     37.530089     10.630650
  H      11.971011     38.994139     11.273705
  H      16.491646     38.477625     12.733819
  H      16.717559     35.779222     11.498219
  H      12.015534     35.297866     13.338628
  H      10.752165     33.405815     12.406700
  H      10.852851     31.670975     10.665005
  H      12.310730     31.193822      9.889545
  H       9.780440     37.751288      9.521563
  H      14.278143     32.367023     10.388340
161
Coordinates from ORCA-job /data/Seafile/cmp/protonated/frames/frame11/dry/cmp_prot11 E -13392.484188552298
  Si      3.516890     33.926368      7.866271
  Si      3.451768     30.830305      7.884629
  O       2.290354     34.853472      8.399268
  O       2.107295     30.119190      8.464286
  O       3.451368     32.380320      8.399579
  O       3.572308     33.868811      6.221101
  O       3.484498     30.883289      6.240524
  Si      6.136717     26.160671      7.865888
  Si      8.790710     24.560004      7.853621
  O       4.731909     25.571465      8.431694
  O       7.439686     25.316120      8.378173
  O       8.757590     23.038323      8.430372
  O       6.183086     26.191042      6.220155
  O       8.748764     24.621071      6.210797
  Si      6.084227     29.224935      7.787849
  Si      6.145716     35.504489      7.792525
  Si      8.870345     33.865521      7.786256
  Si      8.839615     30.796243      7.726191
  O       4.808883     30.050069      8.382781
  O       4.875527     34.666877      8.381090
  O       7.504379     34.682190      8.117279
  O       7.466870     30.024247      8.111097
  O       6.209659     27.711974      8.377757
  O       8.777991     32.305029      8.323849
  O       5.818178     29.131996      6.168862
  O       5.932114     35.681346      6.169567
  O       9.101111     33.807057      6.161429
  O       9.012445     30.906427      6.100482
  Si      6.235832     38.586809      7.839422
  Si      8.962951     40.070798      7.822674
  O       4.970589     39.468147      8.371077
  O       7.587970     39.368888      8.346122
  O       6.213934     37.034996      8.363791
  O       9.213090     41.575811      8.382360
  O       6.330878     38.550628      6.196776
  O       8.956617     40.017003      6.179375
  Si     11.480291     26.069143      7.754106
  Si     14.146107     24.544594      7.822155
  O      10.125927     25.381696      8.345657
  O      12.840769     25.389264      8.338011
  O      13.929305     23.019823      8.348453
  O      11.428784     25.816849      6.132491
  O      14.154932     24.639410      6.178788
  Si     11.499360     29.250231      7.717338
  Si     11.615202     35.377313      8.326560
  Si     14.256935     33.800459      7.850580
  Si     14.199189     30.737528      7.716713
  O      10.156744     29.979374      8.305903
  O      10.127801     34.596323      8.453810
  O      13.092303     34.582387      8.641786
  O      12.856920     29.978835      8.325853
  O      11.480939     27.671634      8.087823
  O      14.342657     32.217288      8.410500
  O      11.500869     29.480183      6.097489
  O      11.752485     34.997517      6.631478
  O      13.908248     33.674725      6.263365
  O      13.950340     30.924193      6.115729
  Si     11.680912     38.593711      7.715478
  Si     14.375036     40.069679      7.857836
  O      10.276187     39.213339      8.333821
  O      13.017755     39.302635      8.353233
  O      11.676550     37.035870      8.033182
  O      14.449041     41.582549      8.457577
  O      11.738641     38.992547      6.122842
  O      14.429221     40.021148      6.215764
  Si     16.869922     26.011395      7.851380
  O      15.528258     25.227820      8.360221
  O      18.163372     25.230856      8.451822
  O      16.812894     26.001430      6.207986
  Si     16.920849     29.086827      7.743122
  Si     17.047437     35.338503      7.774745
  Si     19.676279     33.749072      7.853692
  Si     19.552375     30.657563      7.836331
  O      15.511678     29.855071      8.054018
  O      15.699376     34.499177      8.115022
  O      18.335038     34.531324      8.372625
  O      18.156471     29.958428      8.344249
  O      16.836715     27.574546      8.345037
  O      19.677095     32.194583      8.373516
  O      17.144050     28.905753      6.127163
  O      17.308446     35.424382      6.154260
  O      19.609168     33.675228      6.211348
  O      19.479580     30.711390      6.192667
  Si     16.988217     38.414063      7.839681
  O      15.703683     39.268705      8.386365
  O      18.416700     39.001542      8.357298
  O      16.929190     36.859369      8.350778
  O      16.892313     38.374791      6.197590
  O      20.738775     29.681699      8.371350
  O      21.044634     34.436458      8.403940
  H       4.074657     24.986772      8.036591
  H       1.410409     29.602015      8.036749
  H       1.410409     35.007985      8.036749
  H       4.074657     39.623228      8.036591
  H       8.948181     22.173255      8.038302
  H       8.948181     42.436745      8.038302
  H      14.277762     22.173204      8.038282
  H      14.277762     42.436796      8.038282
  H      18.960557     24.876228      8.036406
  H      18.960557     39.733772      8.036406
  H      21.624717     29.491420      8.036583
  H      21.624717     35.118580      8.036583
  H      13.039616     34.181056      6.162232
  H      10.919503     34.724871      6.227180
  H       9.029782     32.919709      5.783903
  H       9.781178     30.428198      5.754830
  H      12.295703     29.932908      5.768911
  H      13.919948     31.874717      5.868388
  H      13.581199     39.762934      5.820938
  H      10.885096     39.236911      5.740415
  H       8.171279     39.575889      5.823233
  H       6.174821     37.665414      5.831955
  H       5.258963     35.095481      5.797473
  H       3.543491     32.966009      5.872680
  H       4.164274     30.309807      5.855626
  H       5.980090     28.254288      5.796002
  H       6.930891     25.700087      5.850946
  H       9.577440     24.932482      5.817725
  H      12.267759     25.511858      5.758769
  H      14.962804     25.040336      5.826075
  H      16.986344     26.870524      5.815392
  H      17.819702     29.495490      5.760896
  H      19.528479     31.614826      5.844336
  H      18.929611     34.256298      5.834326
  H      17.115853     36.293088      5.774047
  H      16.139261     38.873982      5.847973
  P      10.368850     36.288835     10.980443
  O      13.469285     36.871873     13.406998
  O      15.598835     38.808267     12.966634
  O      16.488371     36.702334     11.673157
  O      11.180829     37.248262     11.984539
  O      15.663053     34.061023     11.390567
  O       9.592973     35.328681     11.763595
  O      11.498167     35.750415     10.063369
  O       9.414330     37.227138     10.146870
  N      13.759789     34.787333     12.419401
  N      13.768116     32.849304     11.145824
  N      11.829431     31.697003     10.650664
  C      14.719443     38.263707     12.022798
  C      15.101074     36.814574     11.699816
  C      13.350573     38.080466     12.641887
  C      14.428807     36.046959     12.860100
  C      12.285231     38.002045     11.549501
  C      12.475375     34.532612     12.746738
  C      14.486249     33.918606     11.644342
  C      11.796184     33.461301     12.269184
  C      12.446599     32.645821     11.337366
  H      14.680594     38.873238     11.110764
  H      14.650732     36.514265     10.746775
  H      13.121689     38.862171     13.365345
  H      15.174557     35.767620     13.610227
  H      12.703697     37.553732     10.645643
  H      11.973623     39.022923     11.301728
  H      16.475979     38.466090     12.752997
  H      16.686782     35.774963     11.484837
  H      12.000017     35.279734     13.366569
  H      10.733960     33.386068     12.442846
  H      10.824380     31.653332     10.690314
  H      12.278203     31.180509      9.904359
  H       9.823783     37.823473      9.504608
  H      14.245326     32.358399     10.392837
161
Coordinates from ORCA-job /data/Seafile/cmp/protonated/frames/frame11/dry/cmp_prot11 E -13392.484218500844
  Si      3.517863     33.924771      7.871704
  Si      3.452616     30.828866      7.887291
  O       2.288381     34.849059      8.402382
  O       2.110146     30.114668      8.465835
  O       3.451298     32.378533      8.403565
  O       3.577833     33.867242      6.226689
  O       3.486280     30.882871      6.243444
  Si      6.138193     26.161338      7.866430
  Si      8.791988     24.561155      7.852847
  O       4.735288     25.567914      8.431740
  O       7.441699     25.317547      8.378680
  O       8.758658     23.039354      8.428304
  O       6.186771     26.194229      6.220877
  O       8.749249     24.623460      6.210196
  Si      6.086453     29.225811      7.790237
  Si      6.147716     35.503055      7.803308
  Si      8.873505     33.867310      7.782735
  Si      8.841056     30.797696      7.725448
  O       4.811603     30.051522      8.384836
  O       4.874843     34.667874      8.388895
  O       7.507206     34.678500      8.123057
  O       7.470858     30.022746      8.112434
  O       6.209607     27.712399      8.379724
  O       8.781765     32.308050      8.321198
  O       5.819676     29.132984      6.171585
  O       5.935259     35.682202      6.180369
  O       9.091430     33.809773      6.156421
  O       9.008041     30.905108      6.098789
  Si      6.237755     38.583099      7.847773
  Si      8.963093     40.069565      7.835472
  O       4.969735     39.464408      8.371900
  O       7.587484     39.367716      8.359902
  O       6.217721     37.032537      8.375938
  O       9.204489     41.577004      8.390121
  O       6.338618     38.544641      6.205916
  O       8.958662     40.010437      6.192195
  Si     11.481046     26.070844      7.751646
  Si     14.146893     24.546537      7.820307
  O      10.127411     25.383068      8.344144
  O      12.841766     25.391676      8.336075
  O      13.929802     23.021232      8.344949
  O      11.428791     25.816370      6.130351
  O      14.156453     24.643665      6.177150
  Si     11.500691     29.252547      7.711964
  Si     11.619377     35.374530      8.271269
  Si     14.256738     33.800635      7.833982
  Si     14.199847     30.739562      7.709837
  O      10.160266     29.983906      8.301593
  O      10.142618     34.597777      8.434054
  O      13.088317     34.592557      8.613816
  O      12.858681     29.981490      8.318926
  O      11.482600     27.673946      8.082874
  O      14.342259     32.221750      8.400454
  O      11.502137     29.481354      6.091915
  O      11.755170     34.991265      6.581802
  O      13.904723     33.668374      6.248360
  O      13.954610     30.925718      6.108015
  Si     11.679316     38.593493      7.718367
  Si     14.375459     40.067827      7.854235
  O      10.279766     39.214842      8.344623
  O      13.017020     39.302487      8.354248
  O      11.677909     37.027948      8.009227
  O      14.460789     41.581321      8.450673
  O      11.735353     38.994761      6.125887
  O      14.427516     40.019004      6.212472
  Si     16.870316     26.012380      7.849972
  O      15.529031     25.228921      8.359631
  O      18.163119     25.231535      8.450466
  O      16.812936     26.002496      6.206778
  Si     16.921045     29.087669      7.739098
  Si     17.048978     35.339077      7.765158
  Si     19.676347     33.748877      7.849824
  Si     19.552678     30.658287      7.833456
  O      15.510928     29.855386      8.047296
  O      15.697985     34.499350      8.096097
  O      18.336158     34.534916      8.366549
  O      18.155832     29.960123      8.339912
  O      16.837142     27.576080      8.342363
  O      19.673996     32.195325      8.371004
  O      17.145947     28.904267      6.123667
  O      17.315209     35.424855      6.145745
  O      19.609706     33.673493      6.207678
  O      19.481361     30.712301      6.189793
  Si     16.987765     38.412741      7.833013
  O      15.702138     39.264014      8.381716
  O      18.416386     38.998481      8.350835
  O      16.926395     36.857960      8.343456
  O      16.891042     38.375706      6.190885
  O      20.739488     29.684963      8.371122
  O      21.045460     34.433672      8.400336
  H       4.074657     24.986772      8.036591
  H       1.410409     29.602015      8.036749
  H       1.410409     35.007985      8.036749
  H       4.074657     39.623228      8.036591
  H       8.948181     22.173255      8.038302
  H       8.948181     42.436745      8.038302
  H      14.277762     22.173204      8.038282
  H      14.277762     42.436796      8.038282
  H      18.960557     24.876228      8.036406
  H      18.960557     39.733772      8.036406
  H      21.624717     29.491420      8.036583
  H      21.624717     35.118580      8.036583
  H      13.036693     34.176357      6.138717
  H      10.918443     34.730131      6.177802
  H       9.019847     32.922391      5.779607
  H       9.776374     30.426995      5.752294
  H      12.296215     29.935858      5.763481
  H      13.923364     31.876316      5.860711
  H      13.579712     39.760745      5.817747
  H      10.882130     39.239500      5.743129
  H       8.172738     39.570418      5.835279
  H       6.181898     37.660025      5.839884
  H       5.266635     35.092995      5.805701
  H       3.548874     32.964610      5.878115
  H       4.164503     30.307989      5.858153
  H       5.984273     28.256182      5.797777
  H       6.935551     25.704294      5.852194
  H       9.577793     24.934503      5.816702
  H      12.267966     25.512899      5.755998
  H      14.963856     25.045848      5.824989
  H      16.987406     26.870948      5.813598
  H      17.820117     29.494872      5.756652
  H      19.528454     31.616016      5.842068
  H      18.929937     34.253403      5.829444
  H      17.122579     36.292759      5.763881
  H      16.136868     38.874236      5.842774
  P      10.437121     36.242124     10.988998
  O      13.582519     36.886740     13.386337
  O      15.678724     38.835891     12.891487
  O      16.582308     36.720659     11.624117
  O      11.268095     37.206157     11.980210
  O      15.765880     34.072706     11.358807
  O       9.693120     35.269798     11.792799
  O      11.531058     35.725007     10.028925
  O       9.437024     37.174047     10.195865
  N      13.867036     34.794598     12.402047
  N      13.866808     32.871248     11.105954
  N      11.919516     31.741911     10.594352
  C      14.798447     38.265158     11.963209
  C      15.194287     36.815919     11.660182
  C      13.437798     38.078195     12.598595
  C      14.536180     36.056281     12.834878
  C      12.360151     37.964000     11.521530
  C      12.586359     34.534432     12.736854
  C      14.589293     33.931821     11.616172
  C      11.902642     33.471195     12.247636
  C      12.544932     32.671340     11.298814
  H      14.745179     38.858520     11.041266
  H      14.741778     36.496230     10.714462
  H      13.207486     38.872188     13.308205
  H      15.286274     35.781630     13.581983
  H      12.778787     37.502136     10.624194
  H      12.036685     38.976731     11.254463
  H      16.559063     38.503095     12.677383
  H      16.790293     35.796085     11.435406
  H      12.111496     35.276732     13.362697
  H      10.840804     33.401811     12.424931
  H      10.914405     31.703049     10.639364
  H      12.361686     31.235398      9.838447
  H       9.829060     37.786620      9.556903
  H      14.336401     32.393014     10.339810
161
Coordinates from ORCA-job /data/Seafile/cmp/protonated/frames/frame11/dry/cmp_prot11 E -13392.484722063502
  Si      3.516764     33.925533      7.865584
  Si      3.452645     30.829068      7.883190
  O       2.288886     34.849319      8.400976
  O       2.109328     30.115711      8.463558
  O       3.453489     32.379152      8.397742
  O       3.570670     33.868355      6.220481
  O       3.484247     30.882856      6.239213
  Si      6.137297     26.160404      7.864846
  Si      8.791273     24.560405      7.853300
  O       4.734117     25.569022      8.431558
  O       7.440968     25.317332      8.377878
  O       8.758331     23.038698      8.429328
  O       6.184078     26.188914      6.219188
  O       8.750016     24.622056      6.210495
  Si      6.085278     29.224679      7.785236
  Si      6.144528     35.505359      7.790615
  Si      8.868318     33.867107      7.774008
  Si      8.840354     30.796441      7.720395
  O       4.811024     30.050824      8.380481
  O       4.873857     34.669171      8.379344
  O       7.502011     34.680703      8.109723
  O       7.469504     30.021702      8.105680
  O       6.209305     27.711917      8.376334
  O       8.776515     32.307081      8.313230
  O       5.816036     29.130279      6.166959
  O       5.927015     35.689109      6.168657
  O       9.088135     33.809454      6.147629
  O       9.013084     30.900758      6.094295
  Si      6.238066     38.586385      7.841324
  Si      8.963611     40.069012      7.822507
  O       4.971127     39.464891      8.372399
  O       7.589954     39.367136      8.350692
  O       6.218055     37.034596      8.364115
  O       9.209066     41.574607      8.383738
  O       6.335260     38.553962      6.198961
  O       8.953775     40.015285      6.178922
  Si     11.480372     26.069806      7.754211
  Si     14.145940     24.545579      7.823061
  O      10.126307     25.382123      8.345555
  O      12.840771     25.390290      8.339137
  O      13.927624     23.020414      8.346804
  O      11.428716     25.816540      6.132795
  O      14.156716     24.641573      6.179997
  Si     11.500999     29.250883      7.716618
  Si     11.614061     35.381349      8.301813
  Si     14.255958     33.799454      7.851057
  Si     14.199890     30.738497      7.723836
  O      10.158389     29.982216      8.302394
  O      10.130019     34.598899      8.432042
  O      13.088113     34.590478      8.631591
  O      12.856412     29.979901      8.329267
  O      11.481761     27.672262      8.087105
  O      14.342377     32.219194      8.417807
  O      11.508587     29.479393      6.096610
  O      11.759678     35.000031      6.606151
  O      13.909214     33.664398      6.264876
  O      13.955910     30.926588      6.122369
  Si     11.681281     38.599349      7.706275
  Si     14.378583     40.069926      7.849149
  O      10.279037     39.215521      8.330324
  O      13.017360     39.309191      8.343940
  O      11.678053     37.040261      8.018013
  O      14.466450     41.581892      8.448321
  O      11.736003     39.000525      6.114532
  O      14.431307     40.021048      6.207206
  Si     16.869890     26.011178      7.854885
  O      15.527761     25.228365      8.363016
  O      18.162614     25.228046      8.453116
  O      16.811436     26.003527      6.211540
  Si     16.920737     29.086588      7.749322
  Si     17.047669     35.336980      7.776378
  Si     19.676796     33.747975      7.855030
  Si     19.552674     30.657189      7.839325
  O      15.510026     29.851903      8.059457
  O      15.699533     34.497098      8.115359
  O      18.338058     34.534898      8.374594
  O      18.156213     29.959835      8.348503
  O      16.839124     27.573888      8.350294
  O      19.674886     32.194512      8.376631
  O      17.143199     28.904782      6.133331
  O      17.308502     35.418611      6.155798
  O      19.607129     33.672754      6.212794
  O      19.480783     30.710648      6.195837
  Si     16.989370     38.411791      7.835202
  O      15.702239     39.263295      8.380340
  O      18.417681     38.998751      8.353196
  O      16.927445     36.858506      8.350387
  O      16.895293     38.373446      6.193380
  O      20.739767     29.681922      8.373417
  O      21.048570     34.431459      8.401268
  H       4.074657     24.986772      8.036591
  H       1.410409     29.602015      8.036749
  H       1.410409     35.007985      8.036749
  H       4.074657     39.623228      8.036591
  H       8.948181     22.173255      8.038302
  H       8.948181     42.436745      8.038302
  H      14.277762     22.173204      8.038282
  H      14.277762     42.436796      8.038282
  H      18.960557     24.876228      8.036406
  H      18.960557     39.733772      8.036406
  H      21.624717     29.491420      8.036583
  H      21.624717     35.118580      8.036583
  H      13.039468     34.171412      6.155960
  H      10.925019     34.744993      6.196114
  H       9.020447     32.921814      5.770343
  H       9.782362     30.421522      5.750224
  H      12.305289     29.931842      5.770609
  H      13.929767     31.877078      5.874877
  H      13.582245     39.764977      5.812459
  H      10.880917     39.242668      5.733274
  H       8.167021     39.573912      5.824556
  H       6.175519     37.670238      5.832158
  H       5.256799     35.101583      5.794336
  H       3.539711     32.965836      5.871960
  H       4.162308     30.308057      5.853362
  H       5.979334     28.252991      5.793524
  H       6.932349     25.697523      5.851183
  H       9.578796     24.934050      5.818094
  H      12.267575     25.512233      5.758402
  H      14.965258     25.042070      5.828589
  H      16.985272     26.872735      5.819892
  H      17.816865     29.495050      5.765249
  H      19.530890     31.613774      5.847356
  H      18.928305     34.254321      5.836154
  H      17.114390     36.284566      5.770862
  H      16.142214     38.872564      5.843230
  P      10.404412     36.223291     10.994789
  O      13.527406     36.867441     13.398464
  O      15.639846     38.811042     12.913910
  O      16.539640     36.683579     11.659175
  O      11.228350     37.192860     11.983453
  O      15.702224     34.038837     11.379923
  O       9.656932     35.255435     11.797321
  O      11.516747     35.694254     10.054570
  O       9.415083     37.150609     10.186676
  N      13.805193     34.774069     12.415535
  N      13.798898     32.840062     11.135585
  N      11.849901     31.708253     10.643548
  C      14.760048     38.242677     11.985001
  C      15.151403     36.789961     11.683465
  C      13.394679     38.060858     12.613759
  C      14.480461     36.032869     12.852595
  C      12.326495     37.948423     11.527362
  C      12.520603     34.524496     12.746235
  C      14.525473     33.902185     11.637307
  C      11.834912     33.458920     12.268388
  C      12.477017     32.645434     11.331096
  H      14.710381     38.835185     11.063601
  H      14.704635     36.474932     10.733478
  H      13.160980     38.853229     13.323957
  H      15.226447     35.754622     13.603176
  H      12.747606     37.481974     10.633492
  H      12.007171     38.960923     11.256219
  H      16.519048     38.473787     12.701451
  H      16.743087     35.756680     11.475054
  H      12.051073     35.272277     13.368077
  H      10.773573     33.388227     12.447180
  H      10.845545     31.667220     10.694080
  H      12.291501     31.183954      9.900880
  H       9.806373     37.765868      9.545904
  H      14.269949     32.347528     10.378887
161
Coordinates from ORCA-job /data/Seafile/cmp/protonated/frames/frame11/dry/cmp_prot11 E -13392.484938642168
  Si      3.516407     33.925550      7.867075
  Si      3.453535     30.828878      7.883809
  O       2.287156     34.846791      8.404016
  O       2.110890     30.113874      8.464437
  O       3.454373     32.378936      8.398693
  O       3.569811     33.869436      6.221917
  O       3.484915     30.883347      6.239888
  Si      6.137279     26.159428      7.866143
  Si      8.792120     24.560568      7.854263
  O       4.735211     25.566063      8.434156
  O       7.441809     25.317577      8.378851
  O       8.759785     23.038747      8.430299
  O       6.183002     26.187314      6.220488
  O       8.750556     24.622253      6.211549
  Si      6.085930     29.224096      7.785477
  Si      6.144221     35.505749      7.791385
  Si      8.867846     33.867645      7.770197
  Si      8.840714     30.796612      7.718627
  O       4.812562     30.051601      8.380696
  O       4.873097     34.670449      8.380688
  O       7.501759     34.680687      8.109849
  O       7.471176     30.019579      8.105290
  O       6.208320     27.711255      8.376915
  O       8.774875     32.307817      8.309420
  O       5.815895     29.129534      6.167333
  O       5.926064     35.689996      6.169685
  O       9.083174     33.811088      6.143486
  O       9.012811     30.899432      6.092541
  Si      6.237139     38.586385      7.842036
  Si      8.962093     40.069121      7.826604
  O       4.970117     39.464716      8.372879
  O       7.586863     39.369261      8.353775
  O       6.218173     37.034800      8.365067
  O       9.207015     41.575238      8.386413
  O       6.337131     38.553317      6.199879
  O       8.953389     40.012948      6.183493
  Si     11.480498     26.071134      7.755355
  Si     14.145376     24.544827      7.822618
  O      10.126763     25.382770      8.346669
  O      12.840898     25.390479      8.338985
  O      13.927037     23.019801      8.346745
  O      11.428201     25.819013      6.133824
  O      14.155782     24.640806      6.179527
  Si     11.501431     29.251853      7.717120
  Si     11.617497     35.379812      8.304306
  Si     14.259754     33.798283      7.843814
  Si     14.199984     30.737833      7.719542
  O      10.159366     29.984770      8.301819
  O      10.131781     34.597899      8.425532
  O      13.093957     34.589667      8.626230
  O      12.856293     29.982706      8.328389
  O      11.481903     27.673508      8.089575
  O      14.345792     32.218386      8.412473
  O      11.509304     29.476815      6.096785
  O      11.765144     34.998745      6.606290
  O      13.909270     33.664922      6.258312
  O      13.954224     30.926296      6.118525
  Si     11.680351     38.599252      7.710628
  Si     14.377995     40.070064      7.849484
  O      10.277821     39.215069      8.335620
  O      13.016298     39.311367      8.346591
  O      11.678077     37.039531      8.020275
  O      14.472006     41.582380      8.447006
  O      11.733898     39.000650      6.119156
  O      14.427648     40.021146      6.207646
  Si     16.869804     26.009575      7.853709
  O      15.527498     25.227207      8.362240
  O      18.161956     25.226255      8.453255
  O      16.811757     26.000766      6.210417
  Si     16.920529     29.084831      7.745260
  Si     17.050960     35.336791      7.769835
  Si     19.679113     33.746799      7.851115
  Si     19.552300     30.655945      7.836191
  O      15.508896     29.848881      8.054373
  O      15.703925     34.495006      8.108077
  O      18.342022     34.537054      8.369821
  O      18.155352     29.958984      8.344452
  O      16.839456     27.572684      8.347902
  O      19.674339     32.193448      8.373019
  O      17.143795     28.901739      6.129547
  O      17.313497     35.419155      6.149592
  O      19.609775     33.671876      6.209027
  O      19.481797     30.709311      6.192663
  Si     16.989385     38.411918      7.831834
  O      15.701663     39.261731      8.378170
  O      18.417552     38.998101      8.351250
  O      16.927588     36.857819      8.344017
  O      16.895401     38.375498      6.190023
  O      20.738645     29.680263      8.371753
  O      21.052585     34.426637      8.398323
  H       4.074657     24.986772      8.036591
  H       1.410409     29.602015      8.036749
  H       1.410409     35.007985      8.036749
  H       4.074657     39.623228      8.036591
  H       8.948181     22.173255      8.038302
  H       8.948181     42.436745      8.038302
  H      14.277762     22.173204      8.038282
  H      14.277762     42.436796      8.038282
  H      18.960557     24.876228      8.036406
  H      18.960556     39.733772      8.036406
  H      21.624717     29.491420      8.036583
  H      21.624717     35.118580      8.036583
  H      13.041364     34.177532      6.152908
  H      10.929596     34.751136      6.193311
  H       9.018701     32.923853      5.765221
  H       9.782977     30.422075      5.748530
  H      12.304213     29.932093      5.770728
  H      13.925130     31.877884      5.872521
  H      13.579005     39.763558      5.813505
  H      10.878695     39.241368      5.737626
  H       8.166299     39.572108      5.829448
  H       6.176881     37.669546      5.832976
  H       5.257684     35.100667      5.794821
  H       3.539143     32.966956      5.872932
  H       4.162479     30.308111      5.853653
  H       5.980106     28.252608      5.793661
  H       6.931412     25.696398      5.852175
  H       9.579082     24.934834      5.818951
  H      12.267018     25.515553      5.758673
  H      14.964221     25.041401      5.827807
  H      16.985663     26.869761      5.818016
  H      17.817152     29.492221      5.760959
  H      19.531728     31.612522      5.844083
  H      18.930576     34.253286      5.832236
  H      17.117907     36.284572      5.764103
  H      16.141777     38.873845      5.840223
  P      10.393880     36.243934     10.984406
  O      13.517415     36.875226     13.399557
  O      15.628997     38.820084     12.915909
  O      16.531517     36.693090     11.663750
  O      11.216873     37.208211     11.977267
  O      15.692692     34.051722     11.377267
  O       9.636381     35.278236     11.779217
  O      11.510098     35.710082     10.050503
  O       9.417092     37.176585     10.168602
  N      13.796658     34.781929     12.417528
  N      13.791742     32.849492     11.134686
  N      11.844502     31.713625     10.642028
  C      14.751077     38.250242     11.985927
  C      15.143156     36.798011     11.686243
  C      13.385300     38.068157     12.613071
  C      14.471227     36.040869     12.854356
  C      12.319959     37.957044     11.524138
  C      12.514127     34.527413     12.753765
  C      14.516891     33.912732     11.636459
  C      11.829982     33.459940     12.276557
  C      12.470963     32.650468     11.332998
  H      14.703230     38.840962     11.062574
  H      14.698087     36.482031     10.735944
  H      13.150208     38.861120     13.322110
  H      15.216431     35.762813     13.605518
  H      12.740917     37.486091     10.632858
  H      12.006291     38.970387     11.249416
  H      16.509266     38.485844     12.703237
  H      16.736010     35.767999     11.472219
  H      12.044481     35.272834     13.378935
  H      10.769888     33.384044     12.460159
  H      10.840314     31.669156     10.695097
  H      12.285955     31.193465      9.894469
  H       9.815559     37.795969      9.538725
  H      14.261259     32.361943     10.373901
161
Coordinates from ORCA-job /data/Seafile/cmp/protonated/frames/frame11/dry/cmp_prot11 E -13392.485068265833
  Si      3.516324     33.925619      7.866448
  Si      3.454292     30.828660      7.882764
  O       2.286088     34.844349      8.405618
  O       2.112257     30.112689      8.464003
  O       3.456075     32.378791      8.397511
  O       3.568323     33.870245      6.221241
  O       3.484633     30.883426      6.238891
  Si      6.137161     26.159147      7.865475
  Si      8.792265     24.560597      7.853619
  O       4.736081     25.564662      8.434881
  O       7.442255     25.318131      8.378081
  O       8.760686     23.039001      8.430140
  O       6.182008     26.185791      6.219817
  O       8.750671     24.621695      6.210910
  Si      6.086865     29.224254      7.783750
  Si      6.144173     35.506667      7.789319
  Si      8.867440     33.868949      7.762049
  Si      8.841508     30.797132      7.714898
  O       4.813955     30.052267      8.379114
  O       4.872848     34.671890      8.379054
  O       7.501861     34.681264      8.106225
  O       7.473023     30.018483      8.102841
  O       6.208056     27.711311      8.375369
  O       8.774731     32.309590      8.302509
  O       5.815758     29.129576      6.165769
  O       5.924462     35.692945      6.167989
  O       9.075796     33.812216      6.134678
  O       9.013018     30.896876      6.088623
  Si      6.237409     38.587040      7.842003
  Si      8.961795     40.068935      7.826121
  O       4.969796     39.464082      8.373216
  O       7.586427     39.370455      8.354755
  O       6.219606     37.035277      8.363896
  O       9.207049     41.575037      8.385969
  O       6.338575     38.555376      6.199858
  O       8.951923     40.012022      6.183080
  Si     11.480205     26.071734      7.754367
  Si     14.144839     24.544608      7.821607
  O      10.126712     25.383169      8.345805
  O      12.840543     25.390646      8.337697
  O      13.925972     23.019690      8.345774
  O      11.427507     25.820127      6.132758
  O      14.155825     24.640437      6.178567
  Si     11.501832     29.252060      7.715670
  Si     11.619777     35.380507      8.294132
  Si     14.261855     33.796860      7.838635
  Si     14.200105     30.736998      7.718233
  O      10.160366     29.986747      8.299360
  O      10.134066     34.600082      8.411983
  O      13.095291     34.591445      8.617454
  O      12.855894     29.983712      8.327512
  O      11.481716     27.673944      8.089501
  O      14.347154     32.218176      8.410454
  O      11.511160     29.474773      6.095050
  O      11.771148     35.000703      6.595241
  O      13.911885     33.660732      6.253473
  O      13.954888     30.924961      6.117123
  Si     11.679855     38.600650      7.708174
  Si     14.378573     40.070190      7.845977
  O      10.277158     39.213952      8.335099
  O      13.014785     39.314874      8.343515
  O      11.679708     37.039857      8.014504
  O      14.480907     41.582305      8.442626
  O      11.731766     39.003319      6.117056
  O      14.426509     40.021180      6.204286
  Si     16.869721     26.008371      7.853381
  O      15.526773     25.227086      8.361683
  O      18.160769     25.223429      8.453289
  O      16.811965     25.999531      6.210109
  Si     16.920410     29.083577      7.744204
  Si     17.052769     35.335993      7.766086
  Si     19.680736     33.745625      7.848561
  Si     19.552111     30.654939      7.834617
  O      15.507446     29.845424      8.052609
  O      15.706416     34.492714      8.103622
  O      18.345015     34.538821      8.366830
  O      18.154578     29.959059      8.342787
  O      16.840957     27.571577      8.347439
  O      19.673595     32.192641      8.371072
  O      17.143758     28.899764      6.128557
  O      17.315903     35.417513      6.145906
  O      19.611145     33.670543      6.206568
  O      19.482655     30.707852      6.191092
  Si     16.989654     38.411247      7.828589
  O      15.700170     39.258593      8.374485
  O      18.417354     38.997302      8.349342
  O      16.927535     36.856863      8.339871
  O      16.897085     38.376545      6.186765
  O      20.737806     29.678632      8.370588
  O      21.056292     34.421885      8.395202
  H       4.074657     24.986772      8.036591
  H       1.410409     29.602015      8.036749
  H       1.410409     35.007985      8.036749
  H       4.074657     39.623228      8.036591
  H       8.948181     22.173255      8.038302
  H       8.948181     42.436745      8.038302
  H      14.277762     22.173204      8.038282
  H      14.277762     42.436796      8.038282
  H      18.960557     24.876228      8.036406
  H      18.960557     39.733772      8.036406
  H      21.624717     29.491420      8.036583
  H      21.624717     35.118580      8.036583
  H      13.042490     34.171187      6.146740
  H      10.935121     34.761460      6.178861
  H       9.014243     32.924775      5.756901
  H       9.782920     30.418995      5.745016
  H      12.305793     29.930932      5.769386
  H      13.925662     31.876717      5.870903
  H      13.577669     39.763729      5.810544
  H      10.876030     39.242484      5.735695
  H       8.164391     39.570738      5.830152
  H       6.176618     37.672270      5.832079
  H       5.257381     35.102756      5.792337
  H       3.537248     32.967916      5.871968
  H       4.161906     30.308239      5.852130
  H       5.980307     28.252967      5.791660
  H       6.930641     25.695115      5.851647
  H       9.578823     24.935332      5.818336
  H      12.266041     25.516679      5.757044
  H      14.964553     25.040735      5.827123
  H      16.985666     26.868568      5.817652
  H      17.816671     29.490120      5.759118
  H      19.533050     31.610845      5.842068
  H      18.931932     34.251893      5.829640
  H      17.119675     36.281915      5.758813
  H      16.143310     38.874290      5.836652
  P      10.403144     36.243688     10.979366
  O      13.533318     36.880824     13.394794
  O      15.640349     38.829350     12.904134
  O      16.545226     36.699934     11.656826
  O      11.229314     37.208023     11.971178
  O      15.702249     34.056498     11.365963
  O       9.647217     35.277783     11.775764
  O      11.514546     35.709238     10.041420
  O       9.423174     37.176865     10.166895
  N      13.809990     34.788213     12.412353
  N      13.798902     32.857163     11.127939
  N      11.848936     31.723800     10.641475
  C      14.762744     38.255265     11.976667
  C      15.156873     36.803147     11.679318
  C      13.397729     38.071437     12.605439
  C      14.486204     36.046235     12.848318
  C      12.332814     37.955775     11.516384
  C      12.528759     34.534102     12.753747
  C      14.527050     33.918849     11.628593
  C      11.842368     33.467034     12.279309
  C      12.478929     32.658583     11.331726
  H      14.712764     38.843151     11.051766
  H      14.712420     36.485439     10.729417
  H      13.160929     38.865281     13.312889
  H      15.231919     35.767758     13.598691
  H      12.754495     37.481129     10.627469
  H      12.019353     38.968116     11.237715
  H      16.521339     38.497445     12.690985
  H      16.750522     35.776005     11.461207
  H      12.062280     35.279456     13.381472
  H      10.783493     33.389721     12.469325
  H      10.845138     31.677938     10.700334
  H      12.287599     31.202196      9.893716
  H       9.820610     37.803760      9.543765
  H      14.265491     32.369238     10.365434
161
Coordinates from ORCA-job /data/Seafile/cmp/protonated/frames/frame11/dry/cmp_prot11 E -13392.485213474831
  Si      3.515569     33.924714      7.864723
  Si      3.456327     30.827308      7.881078
  O       2.283950     34.839073      8.408155
  O       2.117311     30.105903      8.463929
  O       3.457758     32.377578      8.395005
  O       3.564979     33.870502      6.219465
  O       3.484421     30.882735      6.237256
  Si      6.137232     26.157627      7.864904
  Si      8.793489     24.560536      7.853277
  O       4.739054     25.559339      8.437786
  O       7.443795     25.318800      8.377022
  O       8.764222     23.039412      8.430784
  O       6.179766     26.182249      6.219247
  O       8.751662     24.620224      6.210601
  Si      6.088943     29.223888      7.780899
  Si      6.143472     35.506806      7.784739
  Si      8.865428     33.870265      7.749411
  Si      8.842918     30.797451      7.709205
  O       4.817578     30.053745      8.376309
  O       4.871976     34.672676      8.374745
  O       7.501183     34.681885      8.101005
  O       7.476707     30.015147      8.098992
  O       6.207348     27.710549      8.372449
  O       8.773708     32.311425      8.291726
  O       5.816310     29.128981      6.163133
  O       5.922437     35.694844      6.163713
  O       9.062931     33.812059      6.120975
  O       9.014430     30.893041      6.082927
  Si      6.237410     38.587057      7.840102
  Si      8.960679     40.068421      7.823107
  O       4.970202     39.463599      8.372228
  O       7.586266     39.369914      8.354178
  O       6.219814     37.035063      8.359216
  O       9.205232     41.574044      8.385504
  O       6.340820     38.557296      6.198005
  O       8.948271     40.012539      6.180372
  Si     11.480406     26.072841      7.753881
  Si     14.144791     24.544176      7.820815
  O      10.127340     25.383859      8.345145
  O      12.840744     25.390982      8.336303
  O      13.924676     23.019595      8.344601
  O      11.427413     25.822757      6.132152
  O      14.156674     24.640081      6.177859
  Si     11.502828     29.252184      7.714373
  Si     11.621896     35.380798      8.276675
  Si     14.265182     33.795118      7.831527
  Si     14.199871     30.736143      7.717220
  O      10.162187     29.989845      8.296113
  O      10.135389     34.603008      8.390557
  O      13.097337     34.595224      8.602518
  O      12.855005     29.985560      8.327505
  O      11.481567     27.674722      8.091162
  O      14.347759     32.218048      8.408074
  O      11.514756     29.470290      6.093401
  O      11.776935     35.000876      6.576734
  O      13.918220     33.655801      6.245929
  O      13.956370     30.922253      6.115755
  Si     11.678547     38.602754      7.701244
  Si     14.378150     40.070516      7.839703
  O      10.276891     39.213928      8.330490
  O      13.012020     39.319224      8.336082
  O      11.682592     37.041274      8.004221
  O      14.490193     41.581696      8.436254
  O      11.727959     39.005474      6.110291
  O      14.423587     40.022318      6.198289
  Si     16.870008     26.007359      7.853889
  O      15.526729     25.226281      8.361705
  O      18.160539     25.221759      8.454325
  O      16.812472     25.998507      6.210670
  Si     16.919785     29.082334      7.743672
  Si     17.055572     35.335289      7.760941
  Si     19.683179     33.744039      7.844391
  Si     19.551587     30.653590      7.832208
  O      15.504521     29.840155      8.051322
  O      15.711183     34.488865      8.098191
  O      18.350581     34.542977      8.362588
  O      18.153408     29.959391      8.341013
  O      16.842515     27.570552      8.347999
  O      19.672461     32.191634      8.367947
  O      17.142809     28.897897      6.128068
  O      17.318785     35.415426      6.140753
  O      19.611736     33.668750      6.202773
  O      19.482896     30.705925      6.188778
  Si     16.989621     38.410972      7.823164
  O      15.697625     39.255187      8.367229
  O      18.416501     38.996617      8.346339
  O      16.926953     36.856248      8.332857
  O      16.900103     38.378719      6.181334
  O      20.735978     29.675328      8.367711
  O      21.063866     34.412415      8.388900
  H       4.074657     24.986772      8.036591
  H       1.410409     29.602015      8.036749
  H       1.410409     35.007985      8.036749
  H       4.074657     39.623228      8.036591
  H       8.948181     22.173255      8.038302
  H       8.948181     42.436745      8.038302
  H      14.277762     22.173204      8.038282
  H      14.277762     42.436796      8.038282
  H      18.960557     24.876228      8.036406
  H      18.960557     39.733772      8.036406
  H      21.624717     29.491420      8.036583
  H      21.624717     35.118580      8.036583
  H      13.053777     34.172567      6.132112
  H      10.939167     34.774490      6.157202
  H       9.006817     32.924113      5.744135
  H       9.783880     30.414412      5.739721
  H      12.308294     29.929110      5.768515
  H      13.927161     31.874049      5.868572
  H      13.575170     39.764102      5.804251
  H      10.871488     39.244795      5.730416
  H       8.160323     39.570064      5.829060
  H       6.177236     37.674824      5.829116
  H       5.256653     35.103881      5.787133
  H       3.533054     32.968322      5.869839
  H       4.160930     30.307440      5.849280
  H       5.980568     28.252589      5.788591
  H       6.928163     25.691380      5.850865
  H       9.579156     24.935190      5.817697
  H      12.265554     25.519458      5.755603
  H      14.965558     25.040343      5.826771
  H      16.985800     26.867516      5.817992
  H      17.815456     29.487640      5.757417
  H      19.533376     31.608588      5.839045
  H      18.932082     34.249527      5.825784
  H      17.122048     36.278590      5.751426
  H      16.145962     38.875052      5.830206
  P      10.404475     36.234589     10.964300
  O      13.536110     36.885002     13.390687
  O      15.638229     38.835435     12.889778
  O      16.548614     36.699100     11.656059
  O      11.231794     37.197341     11.958793
  O      15.698608     34.055733     11.360161
  O       9.648608     35.267016     11.758749
  O      11.514101     35.699549     10.025760
  O       9.423647     37.170550     10.154884
  N      13.809149     34.789769     12.410301
  N      13.793145     32.860101     11.124080
  N      11.841579     31.730325     10.639430
  C      14.763078     38.253688     11.965279
  C      15.159933     36.800674     11.675619
  C      13.397556     38.070108     12.593513
  C      14.487540     36.046790     12.845720
  C      12.335906     37.944197     11.502390
  C      12.528488     34.536094     12.755135
  C      14.523851     33.919975     11.624852
  C      11.840433     33.469731     12.282142
  C      12.473856     32.662319     11.330915
  H      14.712627     38.834443     11.035996
  H      14.718546     36.478789     10.725898
  H      13.156138     38.867408     13.295446
  H      15.231419     35.768253     13.597733
  H      12.760367     37.463479     10.618150
  H      12.022647     38.954357     11.215327
  H      16.520805     38.507239     12.677694
  H      16.755784     35.776730     11.456089
  H      12.064308     35.282231     13.383436
  H      10.782871     33.389861     12.477521
  H      10.838099     31.683522     10.702217
  H      12.278575     31.208937      9.890739
  H       9.820238     37.809015      9.542604
  H      14.258361     32.371704     10.360759
161
Coordinates from ORCA-job /data/Seafile/cmp/protonated/frames/frame11/dry/cmp_prot11 E -13392.485315045293
  Si      3.515139     33.923807      7.866081
  Si      3.458235     30.826199      7.881639
  O       2.281320     34.833896      8.411959
  O       2.120788     30.100744      8.464137
  O       3.459049     32.376323      8.395588
  O       3.564365     33.870931      6.220845
  O       3.485473     30.882692      6.237850
  Si      6.137453     26.156221      7.866313
  Si      8.794356     24.560481      7.854813
  O       4.741590     25.554058      8.441016
  O       7.444864     25.318819      8.378435
  O       8.766701     23.039302      8.432013
  O       6.178978     26.180277      6.220655
  O       8.752675     24.620030      6.212121
  Si      6.090613     29.223311      7.781774
  Si      6.143137     35.507200      7.786878
  Si      8.863938     33.871037      7.745726
  Si      8.844228     30.797322      7.709617
  O       4.820112     30.054332      8.377145
  O       4.870831     34.673257      8.375700
  O       7.500258     34.681824      8.103189
  O       7.479753     30.011724      8.100071
  O       6.206444     27.709453      8.372882
  O       8.773217     32.312109      8.289065
  O       5.817324     29.128885      6.164002
  O       5.921725     35.697836      6.166048
  O       9.053581     33.812354      6.116588
  O       9.016397     30.890384      6.083398
  Si      6.238033     38.587156      7.844212
  Si      8.959669     40.067683      7.826263
  O       4.969359     39.462920      8.374179
  O       7.585638     39.370862      8.360133
  O       6.219911     37.035173      8.362279
  O       9.203726     41.574387      8.387075
  O       6.344898     38.557878      6.202142
  O       8.947004     40.008227      6.183833
  Si     11.480482     26.073529      7.756533
  Si     14.144461     24.543844      7.821507
  O      10.127703     25.384008      8.347427
  O      12.840799     25.390702      8.337694
  O      13.923525     23.019200      8.344224
  O      11.427024     25.825846      6.134520
  O      14.156516     24.641132      6.178721
  Si     11.503686     29.251938      7.718390
  Si     11.624480     35.380993      8.277626
  Si     14.268009     33.793123      7.832410
  Si     14.200031     30.734641      7.721250
  O      10.163536     29.991362      8.298981
  O      10.135813     34.604842      8.381382
  O      13.101175     34.596346      8.600814
  O      12.854230     29.986902      8.333271
  O      11.481524     27.674844      8.096698
  O      14.350178     32.216868      8.411753
  O      11.517703     29.466963      6.097150
  O      11.784926     35.004586      6.576086
  O      13.920204     33.651092      6.247113
  O      13.957038     30.920144      6.119774
  Si     11.677825     38.604742      7.704083
  Si     14.378785     40.070555      7.838186
  O      10.276655     39.215031      8.335105
  O      13.010042     39.325353      8.336764
  O      11.686718     37.043285      8.007893
  O      14.502414     41.582267      8.430829
  O      11.724140     39.005498      6.112636
  O      14.420527     40.019015      6.196987
  Si     16.870061     26.005737      7.855509
  O      15.526397     25.225423      8.363272
  O      18.159247     25.217255      8.455301
  O      16.812353     25.998061      6.212304
  Si     16.919660     29.080467      7.746052
  Si     17.058017     35.334330      7.760213
  Si     19.685354     33.742223      7.842489
  Si     19.551063     30.652387      7.832070
  O      15.502323     29.834355      8.053766
  O      15.715863     34.484929      8.098504
  O      18.355688     34.545839      8.361677
  O      18.152677     29.959291      8.342149
  O      16.845068     27.568630      8.350821
  O      19.672106     32.190548      8.367628
  O      17.141798     28.896120      6.130281
  O      17.320180     35.413688      6.139763
  O      19.610921     33.666232      6.201196
  O      19.481789     30.704382      6.188814
  Si     16.989742     38.410211      7.821862
  O      15.696207     39.251987      8.365697
  O      18.416416     38.996177      8.345197
  O      16.927306     36.855372      8.331360
  O      16.901260     38.378942      6.180137
  O      20.735049     29.672989      8.366566
  O      21.070895     34.404213      8.383628
  H       4.074657     24.986772      8.036591
  H       1.410409     29.602015      8.036749
  H       1.410409     35.007985      8.036749
  H       4.074657     39.623228      8.036591
  H       8.948181     22.173255      8.038302
  H       8.948181     42.436745      8.038302
  H      14.277762     22.173204      8.038282
  H      14.277762     42.436796      8.038282
  H      18.960557     24.876228      8.036406
  H      18.960557     39.733772      8.036406
  H      21.624717     29.491420      8.036583
  H      21.624717     35.118580      8.036583
  H      13.052728     34.160922      6.133006
  H      10.946925     34.787455      6.152918
  H       9.002172     32.923934      5.740483
  H       9.785372     30.410975      5.740505
  H      12.310686     29.927188      5.772881
  H      13.929084     31.871963      5.872251
  H      13.571702     39.760078      5.804502
  H      10.866995     39.244305      5.734027
  H       8.158873     39.564627      5.834132
  H       6.179273     37.676058      5.832899
  H       5.258353     35.105578      5.787634
  H       3.531999     32.969078      5.870671
  H       4.161664     30.307628      5.849225
  H       5.982172     28.252994      5.788744
  H       6.927081     25.689096      5.852215
  H       9.579804     24.936032      5.819423
  H      12.264963     25.523482      5.756935
  H      14.965610     25.041362      5.828101
  H      16.985230     26.867455      5.820235
  H      17.813831     29.485671      5.758444
  H      19.531297     31.606815      5.838474
  H      18.930893     34.246786      5.824561
  H      17.122512     36.275720      5.748906
  H      16.146552     38.873584      5.828311
  P      10.409202     36.227279     10.964924
  O      13.539704     36.890141     13.391088
  O      15.638049     38.844415     12.886380
  O      16.555165     36.705121     11.662350
  O      11.236730     37.193738     11.956439
  O      15.702772     34.063692     11.356627
  O       9.655900     35.259088     11.760689
  O      11.519228     35.692873     10.026718
  O       9.425271     37.161429     10.156776
  N      13.815160     34.794547     12.412572
  N      13.797620     32.866955     11.123768
  N      11.847229     31.733799     10.645563
  C      14.766285     38.257074     11.962830
  C      15.166318     36.804106     11.678435
  C      13.399900     38.071808     12.589655
  C      14.492432     36.051900     12.848526
  C      12.340870     37.939384     11.497295
  C      12.536463     34.537290     12.763134
  C      14.528868     33.926695     11.624101
  C      11.849427     33.469167     12.293169
  C      12.480139     32.665385     11.336593
  H      14.716541     38.833506     11.030780
  H      14.727754     36.479346     10.728419
  H      13.155001     38.870996     13.288188
  H      15.235020     35.775057     13.602386
  H      12.767051     37.455171     10.615724
  H      12.027486     38.947982     11.204785
  H      16.522402     38.520240     12.675594
  H      16.765223     35.785148     11.455140
  H      12.073186     35.282268     13.393493
  H      10.793886     33.383121     12.495680
  H      10.844176     31.683940     10.712245
  H      12.283473     31.214910      9.894594
  H       9.819622     37.815008      9.558149
  H      14.261925     32.379441     10.359285
161
Coordinates from ORCA-job /data/Seafile/cmp/protonated/frames/frame11/dry/cmp_prot11 E -13392.485399963311
  Si      3.513310     33.920958      7.864056
  Si      3.461367     30.822727      7.879213
  O       2.277548     34.824673      8.416263
  O       2.130149     30.087253      8.464221
  O       3.460021     32.372906      8.392344
  O       3.558250     33.869870      6.218709
  O       3.484433     30.880159      6.235335
  Si      6.138083     26.152811      7.865667
  Si      8.797084     24.560251      7.854325
  O       4.746636     25.544879      8.445590
  O       7.447806     25.318928      8.377070
  O       8.773421     23.039930      8.433678
  O       6.175751     26.173755      6.219864
  O       8.754403     24.616791      6.211513
  Si      6.093831     29.221550      7.776866
  Si      6.141788     35.506681      7.780938
  Si      8.861218     33.872106      7.728800
  Si      8.846263     30.797050      7.699948
  O       4.826094     30.055678      8.372892
  O       4.869402     34.672412      8.369561
  O       7.499469     34.682357      8.096894
  O       7.485525     30.005737      8.093534
  O       6.205700     27.707308      8.368123
  O       8.772380     32.313334      8.274261
  O       5.818133     29.126727      6.159329
  O       5.918676     35.699895      6.160523
  O       9.037113     33.811437      6.098620
  O       9.018005     30.886043      6.073670
  Si      6.238106     38.587290      7.843094
  Si      8.958215     40.066963      7.823262
  O       4.969546     39.462701      8.373396
  O       7.585855     39.369675      8.360722
  O       6.218344     37.034423      8.356665
  O       9.202807     41.573355      8.386420
  O       6.347846     38.560588      6.200722
  O       8.941509     40.008596      6.181221
  Si     11.481557     26.075349      7.754454
  Si     14.144893     24.543323      7.819226
  O      10.129506     25.385485      8.345827
  O      12.841937     25.391794      8.334218
  O      13.921910     23.019249      8.342344
  O      11.427399     25.829157      6.132309
  O      14.158353     24.639973      6.176446
  Si     11.505485     29.252189      7.713441
  Si     11.628215     35.379726      8.259662
  Si     14.274684     33.791604      7.818580
  Si     14.200994     30.733173      7.713178
  O      10.166577     29.995181      8.292309
  O      10.137088     34.607620      8.353700
  O      13.107249     34.599348      8.579910
  O      12.854088     29.990438      8.328320
  O      11.481859     27.676354      8.097211
  O      14.353463     32.216481      8.401867
  O      11.521172     29.460043      6.091451
  O      11.792913     35.008662      6.556245
  O      13.930370     33.646772      6.232521
  O      13.959213     30.915733      6.111233
  Si     11.676453     38.605913      7.697517
  Si     14.378736     40.070743      7.829817
  O      10.276445     39.215264      8.330506
  O      13.006567     39.332071      8.328121
  O      11.693769     37.044048      7.999726
  O      14.517347     41.581709      8.420841
  O      11.718662     39.005085      6.105537
  O      14.417371     40.018533      6.188774
  Si     16.870886     26.003984      7.854278
  O      15.526822     25.224376      8.361731
  O      18.158877     25.214944      8.456220
  O      16.814645     25.994810      6.210999
  Si     16.919577     29.078027      7.740605
  Si     17.063764     35.333445      7.749685
  Si     19.689989     33.739306      7.833581
  Si     19.550404     30.650157      7.825883
  O      15.498924     29.826562      8.045896
  O      15.725009     34.478574      8.087018
  O      18.364999     34.551225      8.352393
  O      18.150797     29.959592      8.335933
  O      16.847524     27.567198      8.348368
  O      19.671085     32.188566      8.360601
  O      17.142984     28.892090      6.125152
  O      17.326409     35.412726      6.129270
  O      19.613111     33.663012      6.192623
  O      19.482995     30.701388      6.182636
  Si     16.990049     38.409942      7.814568
  O      15.692938     39.246647      8.356397
  O      18.415223     38.995732      8.341997
  O      16.928217     36.853892      8.320122
  O      16.906041     38.382978      6.172604
  O      20.731670     29.667498      8.360600
  O      21.083145     34.389078      8.371474
  H       4.074657     24.986772      8.036591
  H       1.410409     29.602015      8.036749
  H       1.410409     35.007985      8.036749
  H       4.074657     39.623228      8.036591
  H       8.948181     22.173255      8.038302
  H       8.948181     42.436745      8.038302
  H      14.277762     22.173204      8.038282
  H      14.277762     42.436796      8.038282
  H      18.960557     24.876228      8.036406
  H      18.960557     39.733772      8.036406
  H      21.624717     29.491420      8.036583
  H      21.624717     35.118580      8.036583
  H      13.067045     34.160112      6.112306
  H      10.953201     34.807659      6.129332
  H       8.993800     32.922004      5.724282
  H       9.784555     30.403291      5.730292
  H      12.312805     29.922550      5.766863
  H      13.932478     31.866935      5.861304
  H      13.569390     39.756111      5.796731
  H      10.861116     39.248234      5.730189
  H       8.151854     39.564425      5.834451
  H       6.180070     37.679365      5.830368
  H       5.256658     35.106904      5.780916
  H       3.523463     32.968155      5.868143
  H       4.159488     30.304831      5.844985
  H       5.981954     28.250734      5.784053
  H       6.922920     25.681479      5.851002
  H       9.580325     24.935032      5.818031
  H      12.264829     25.526402      5.754004
  H      14.968083     25.039649      5.826530
  H      16.986936     26.864153      5.818383
  H      17.816687     29.479485      5.752908
  H      19.532008     31.603595      5.831551
  H      18.932038     34.242437      5.816040
  H      17.130709     36.274740      5.737588
  H      16.150322     38.875225      5.819685
  P      10.408038     36.217283     10.948568
  O      13.544035     36.890166     13.380288
  O      15.636556     38.845876     12.866716
  O      16.560299     36.699790     11.658942
  O      11.241672     37.178191     11.941449
  O      15.694492     34.056032     11.340321
  O       9.651112     35.250655     11.742723
  O      11.515013     35.677243     10.010492
  O       9.428118     37.155341     10.141356
  N      13.812814     34.792048     12.403894
  N      13.784849     32.865091     11.114362
  N      11.830379     31.734685     10.646933
  C      14.767979     38.251186     11.945287
  C      15.171329     36.797188     11.668912
  C      13.401124     38.066250     12.571182
  C      14.494047     36.047782     12.838898
  C      12.344403     37.923479     11.477998
  C      12.536578     34.534823     12.763899
  C      14.521274     33.922480     11.612366
  C      11.845509     33.467621     12.298007
  C      12.468758     32.664430     11.335619
  H      14.718457     38.821487     11.009535
  H      14.737806     36.468305     10.718199
  H      13.152264     38.868814     13.264433
  H      15.234418     35.769628     13.594342
  H      12.772381     37.433756     10.600481
  H      12.029471     38.929074     11.176793
  H      16.522796     38.526246     12.657216
  H      16.772366     35.781843     11.444967
  H      12.078423     35.280927     13.396848
  H      10.791862     33.379406     12.509228
  H      10.827675     31.685553     10.719121
  H      12.262770     31.214832      9.894123
  H       9.821598     37.820681      9.556141
  H      14.245323     32.375929     10.348564
161
Coordinates from ORCA-job /data/Seafile/cmp/protonated/frames/frame11/dry/cmp_prot11 E -13392.485395476564
  Si      3.513804     33.921394      7.867570
  Si      3.461954     30.823143      7.880959
  O       2.275319     34.821522      8.419822
  O       2.129251     30.089055      8.463671
  O       3.461963     32.373044      8.394970
  O       3.560477     33.871365      6.222292
  O       3.485868     30.880849      6.237064
  Si      6.137722     26.154378      7.866858
  Si      8.795417     24.560314      7.855760
  O       4.744634     25.548124      8.444294
  O       7.446038     25.318413      8.378910
  O       8.771375     23.039471      8.433794
  O       6.177582     26.176550      6.221058
  O       8.753708     24.617965      6.212818
  Si      6.094983     29.222965      7.780845
  Si      6.142509     35.508758      7.787897
  Si      8.861579     33.873869      7.732230
  Si      8.846943     30.798721      7.706599
  O       4.825743     30.055347      8.376386
  O       4.868581     34.674846      8.374426
  O       7.499364     34.683083      8.103775
  O       7.486341     30.006995      8.099968
  O       6.206350     27.708234      8.370997
  O       8.775199     32.315464      8.280054
  O       5.821071     29.129788      6.162856
  O       5.919650     35.704745      6.167618
  O       9.031437     33.811681      6.101805
  O       9.017973     30.887364      6.079948
  Si      6.239674     38.589247      7.850309
  Si      8.959943     40.066147      7.827110
  O       4.967911     39.462416      8.377044
  O       7.586112     39.373686      8.368313
  O       6.220835     37.036513      8.365583
  O       9.211356     41.574456      8.382999
  O       6.350087     38.562058      6.207705
  O       8.942245     40.002092      6.185025
  Si     11.479697     26.075819      7.757538
  Si     14.142853     24.543875      7.819683
  O      10.127660     25.385354      8.348555
  O      12.839970     25.391274      8.336201
  O      13.920670     23.019067      8.341844
  O      11.424825     25.831827      6.134957
  O      14.155670     24.642222      6.177104
  Si     11.504601     29.252246      7.719110
  Si     11.632009     35.380900      8.263865
  Si     14.277779     33.790673      7.819793
  Si     14.201370     30.730969      7.715563
  O      10.166895     29.996055      8.299277
  O      10.138262     34.611994      8.352124
  O      13.111110     34.598038      8.581877
  O      12.854175     29.990246      8.333122
  O      11.480261     27.676205      8.102579
  O      14.356327     32.215307      8.402901
  O      11.518540     29.460041      6.096820
  O      11.798888     35.011389      6.560334
  O      13.933940     33.646835      6.233791
  O      13.957320     30.913251      6.114016
  Si     11.678015     38.607698      7.700789
  Si     14.382716     40.070577      7.827159
  O      10.275846     39.212245      8.335612
  O      13.005352     39.342117      8.328748
  O      11.699982     37.045995      8.003914
  O      14.538536     41.583227      8.410943
  O      11.717864     39.006490      6.108192
  O      14.420284     40.011314      6.186253
  Si     16.869883     26.001616      7.854387
  O      15.524179     25.225761      8.362416
  O      18.154154     25.205375      8.454816
  O      16.813696     25.994086      6.211055
  Si     16.920213     29.075732      7.742009
  Si     17.066703     35.331670      7.752849
  Si     19.692215     33.736734      7.833984
  Si     19.550136     30.648783      7.826868
  O      15.498260     29.822143      8.046602
  O      15.728928     34.475239      8.089034
  O      18.369020     34.550536      8.354368
  O      18.150077     29.959285      8.337262
  O      16.851300     27.564701      8.349651
  O      19.671704     32.186727      8.362531
  O      17.143795     28.889998      6.126461
  O      17.328221     35.411002      6.132097
  O      19.612507     33.659588      6.193004
  O      19.482084     30.700210      6.183692
  Si     16.991313     38.407836      7.817486
  O      15.690881     39.239969      8.359080
  O      18.414998     38.997221      8.345259
  O      16.931432     36.851873      8.324642
  O      16.908715     38.380531      6.175557
  O      20.731492     29.666063      8.360777
  O      21.087991     34.383981      8.367747
  H       4.074657     24.986772      8.036591
  H       1.410409     29.602015      8.036749
  H       1.410409     35.007985      8.036749
  H       4.074657     39.623228      8.036591
  H       8.948181     22.173255      8.038302
  H       8.948181     42.436745      8.038302
  H      14.277762     22.173204      8.038282
  H      14.277762     42.436796      8.038282
  H      18.960557     24.876228      8.036406
  H      18.960557     39.733772      8.036406
  H      21.624717     29.491420      8.036583
  H      21.624717     35.118580      8.036583
  H      13.079564     34.173628      6.112504
  H      10.958850     34.816412      6.131748
  H       8.991236     32.920827      5.730315
  H       9.783328     30.403326      5.735936
  H      12.309818     29.921703      5.770744
  H      13.929719     31.864100      5.863647
  H      13.570799     39.749011      5.796919
  H      10.859741     39.247139      5.732491
  H       8.153054     39.555902      5.840235
  H       6.180390     37.681507      5.837327
  H       5.261452     35.109269      5.785704
  H       3.524725     32.970129      5.870974
  H       4.162174     30.306873      5.847199
  H       5.986256     28.254519      5.786597
  H       6.924838     25.683843      5.852980
  H       9.579808     24.936974      5.820381
  H      12.262091     25.529830      5.755805
  H      14.966065     25.040797      5.827453
  H      16.985714     26.864084      5.819658
  H      17.817308     29.477496      5.754100
  H      19.530893     31.602321      5.832442
  H      18.932200     34.240251      5.817198
  H      17.132918     36.272655      5.740025
  H      16.151928     38.870308      5.821578
  P      10.421258     36.213132     10.957834
  O      13.560195     36.900235     13.386811
  O      15.643676     38.862759     12.875604
  O      16.578093     36.719996     11.669163
  O      11.255614     37.179422     11.945030
  O      15.712151     34.079464     11.332705
  O       9.670619     35.245323     11.756656
  O      11.525191     35.676836     10.014061
  O       9.433645     37.146875     10.154045
  N      13.834115     34.805029     12.409404
  N      13.803114     32.886106     11.108863
  N      11.849141     31.750807     10.651390
  C      14.779511     38.264916     11.952129
  C      15.189028     36.812627     11.676230
  C      13.412227     38.074006     12.575698
  C      14.512633     36.061432     12.845589
  C      12.357954     37.924595     11.480960
  C      12.561894     34.541061     12.778144
  C      14.540458     33.941483     11.609521
  C      11.871723     33.472867     12.313548
  C      12.489889     32.678352     11.340549
  H      14.729588     38.836895     11.017785
  H      14.758116     36.482505     10.724662
  H      13.159311     38.876733     13.267314
  H      15.253936     35.784462     13.600626
  H      12.789776     37.433524     10.605749
  H      12.040798     38.928305     11.175992
  H      16.531829     38.546641     12.669092
  H      16.794433     35.805184     11.446433
  H      12.105875     35.281862     13.418786
  H      10.820504     33.378564     12.534211
  H      10.847277     31.697008     10.730733
  H      12.278804     31.234750      9.894550
  H       9.825587     37.824988      9.580765
  H      14.260486     32.401062     10.338543
161
Coordinates from ORCA-job /data/Seafile/cmp/protonated/frames/frame11/dry/cmp_prot11 E -13392.485456966637
  Si      3.512406     33.918517      7.867787
  Si      3.463270     30.820274      7.881900
  O       2.274391     34.818830      8.420377
  O       2.134878     30.079323      8.465152
  O       3.459117     32.370212      8.395598
  O       3.558438     33.868184      6.222487
  O       3.486720     30.878231      6.237963
  Si      6.138959     26.151762      7.868930
  Si      8.798170     24.560299      7.857502
  O       4.748798     25.540384      8.448050
  O       7.448667     25.318007      8.380571
  O       8.776140     23.039513      8.435636
  O       6.177538     26.174214      6.223065
  O       8.755879     24.617506      6.214562
  Si      6.096379     29.221020      7.781870
  Si      6.141510     35.506050      7.787911
  Si      8.860844     33.872691      7.734694
  Si      8.847596     30.797805      7.708460
  O       4.828734     30.055710      8.377081
  O       4.867834     34.671228      8.373506
  O       7.499136     34.682321      8.106350
  O       7.488341     30.003709      8.101424
  O       6.205337     27.706071      8.371820
  O       8.774936     32.314145      8.282519
  O       5.823250     29.127909      6.163758
  O       5.921101     35.699698      6.167140
  O       9.031202     33.808801      6.104407
  O       9.019336     30.887629      6.081979
  Si      6.238922     38.587051      7.849042
  Si      8.959145     40.065768      7.829119
  O       4.968931     39.463105      8.375019
  O       7.586560     39.369410      8.367927
  O       6.216535     37.034361      8.363930
  O       9.205810     41.574201      8.386447
  O       6.350880     38.559485      6.206432
  O       8.943603     40.002853      6.187182
  Si     11.481660     26.076828      7.759668
  Si     14.144222     24.544142      7.821025
  O      10.129767     25.386044      8.350232
  O      12.841907     25.392158      8.337773
  O      13.921092     23.019105      8.341987
  O      11.427088     25.833811      6.136987
  O      14.157184     24.643450      6.178426
  Si     11.505804     29.252895      7.721556
  Si     11.631739     35.379065      8.265286
  Si     14.278317     33.791077      7.821727
  Si     14.202167     30.731501      7.717693
  O      10.167850     29.996367      8.301307
  O      10.137133     34.611714      8.354808
  O      13.112140     34.598363      8.583756
  O      12.854885     29.991529      8.335675
  O      11.481670     27.677130      8.105470
  O      14.356833     32.215636      8.404006
  O      11.520162     29.460294      6.099356
  O      11.798045     35.011715      6.563148
  O      13.933925     33.646645      6.235373
  O      13.958680     30.913276      6.115870
  Si     11.677842     38.606252      7.705096
  Si     14.381686     40.070317      7.830033
  O      10.276541     39.213766      8.338855
  O      13.005502     39.341137      8.332616
  O      11.702393     37.044824      8.009015
  O      14.533589     41.583275      8.413565
  O      11.717205     39.002042      6.111670
  O      14.418672     40.010755      6.189052
  Si     16.870670     26.002354      7.856029
  O      15.525972     25.224722      8.364075
  O      18.156018     25.207838      8.456138
  O      16.814206     25.995269      6.212723
  Si     16.920191     29.076010      7.743596
  Si     17.067026     35.332436      7.751853
  Si     19.692210     33.736562      7.832545
  Si     19.549650     30.648790      7.826589
  O      15.498144     29.821832      8.048855
  O      15.730451     34.474152      8.088670
  O      18.370489     34.552394      8.353102
  O      18.150084     29.959438      8.338325
  O      16.851029     27.565157      8.351544
  O      19.671609     32.186708      8.361959
  O      17.142886     28.890944      6.127926
  O      17.327292     35.412692      6.131016
  O      19.610733     33.658577      6.191763
  O      19.479906     30.700214      6.183458
  Si     16.990833     38.408360      7.817632
  O      15.691972     39.241912      8.360053
  O      18.415150     38.996710      8.344503
  O      16.930724     36.852223      8.324005
  O      16.907704     38.380944      6.175586
  O      20.730632     29.664897      8.359001
  O      21.089925     34.381211      8.364680
  H       4.074657     24.986772      8.036591
  H       1.410409     29.602015      8.036749
  H       1.410409     35.007985      8.036749
  H       4.074657     39.623228      8.036591
  H       8.948181     22.173255      8.038302
  H       8.948181     42.436745      8.038302
  H      14.277762     22.173204      8.038282
  H      14.277762     42.436796      8.038282
  H      18.960557     24.876228      8.036406
  H      18.960557     39.733772      8.036406
  H      21.624717     29.491420      8.036583
  H      21.624717     35.118580      8.036583
  H      13.073557     34.162036      6.114654
  H      10.958253     34.814237      6.135096
  H       8.993031     32.917241      5.734261
  H       9.783712     30.402351      5.737630
  H      12.311842     29.921121      5.773138
  H      13.934280     31.863632      5.864490
  H      13.569528     39.748119      5.799676
  H      10.859474     39.246299      5.737508
  H       8.154892     39.556534      5.840954
  H       6.182728     37.678589      5.835937
  H       5.262761     35.104241      5.785415
  H       3.522780     32.966839      5.871348
  H       4.162548     30.303856      5.847785
  H       5.987483     28.252184      5.788151
  H       6.923818     25.680719      5.854145
  H       9.581583     24.936536      5.821444
  H      12.264451     25.531934      5.757989
  H      14.967449     25.042222      5.828850
  H      16.986267     26.865221      5.821404
  H      17.817080     29.478038      5.756082
  H      19.527453     31.602482      5.832340
  H      18.930295     34.239183      5.816054
  H      17.133270     36.275650      5.740616
  H      16.150338     38.870147      5.821950
  P      10.411385     36.207062     10.954628
  O      13.545363     36.891383     13.391686
  O      15.631030     38.850760     12.882275
  O      16.564061     36.707946     11.674403
  O      11.242230     37.170164     11.947212
  O      15.698527     34.065172     11.343917
  O       9.654751     35.239311     11.747712
  O      11.519842     35.670165     10.016120
  O       9.430688     37.143462     10.146673
  N      13.818920     34.794363     12.415688
  N      13.789454     32.873559     11.117063
  N      11.835565     31.740304     10.654226
  C      14.766459     38.254282     11.957684
  C      15.174748     36.801608     11.681924
  C      13.398943     38.065483     12.580642
  C      14.497620     36.051105     12.851422
  C      12.344114     37.917450     11.486014
  C      12.545572     34.531764     12.781456
  C      14.526272     33.928980     11.618439
  C      11.855462     33.464040     12.315095
  C      12.475278     32.668023     11.344518
  H      14.717947     38.826257     11.022986
  H      14.743373     36.471435     10.730653
  H      13.147022     38.868740     13.272031
  H      15.237994     35.774243     13.607421
  H      12.776055     37.428923     10.609486
  H      12.026645     38.921756     11.183063
  H      16.518980     38.534779     12.674883
  H      16.779747     35.792341     11.455195
  H      12.088697     35.273007     13.420782
  H      10.803447     33.371456     12.532140
  H      10.833185     31.689805     10.729386
  H      12.265560     31.226201      9.896063
  H       9.824377     37.820636      9.574768
  H      14.248247     32.387768     10.347934
161
Coordinates from ORCA-job /data/Seafile/cmp/protonated/frames/frame11/dry/cmp_prot11 E -13392.485491412694
  Si      3.511465     33.916752      7.866831
  Si      3.463668     30.818535      7.881407
  O       2.274065     34.817124      8.420319
  O       2.138111     30.073950      8.465544
  O       3.457521     32.368501      8.395009
  O       3.556086     33.866292      6.221475
  O       3.486051     30.876433      6.237407
  Si      6.139696     26.150639      7.868751
  Si      8.799292     24.560024      7.856989
  O       4.751185     25.536803      8.449005
  O       7.450083     25.318011      8.380211
  O       8.778111     23.039636      8.436231
  O       6.177384     26.173051      6.222794
  O       8.756232     24.615855      6.214002
  Si      6.097122     29.220128      7.780360
  Si      6.140858     35.504633      7.785683
  Si      8.860866     33.872259      7.733951
  Si      8.848005     30.797631      7.706699
  O       4.830392     30.055814      8.375875
  O       4.867696     34.668921      8.371084
  O       7.499161     34.681953      8.104856
  O       7.489208     30.003029      8.099812
  O       6.205136     27.705307      8.370630
  O       8.776233     32.313614      8.282187
  O       5.824264     29.126731      6.162264
  O       5.921117     35.697346      6.164809
  O       9.032426     33.807081      6.103814
  O       9.019295     30.889217      6.080142
  Si      6.238205     38.585959      7.846679
  Si      8.958959     40.065758      7.827962
  O       4.969372     39.462864      8.373889
  O       7.587133     39.366750      8.365018
  O       6.214350     37.033114      8.361349
  O       9.203974     41.573770      8.386678
  O       6.349000     38.558887      6.203937
  O       8.944067     40.005242      6.185898
  Si     11.482521     26.076787      7.757622
  Si     14.144863     24.544214      7.820363
  O      10.130727     25.386401      8.348663
  O      12.842545     25.392502      8.336302
  O      13.922045     23.019379      8.342116
  O      11.428171     25.832837      6.135040
  O      14.158128     24.642524      6.177641
  Si     11.506261     29.252845      7.718143
  Si     11.631557     35.378766      8.263664
  Si     14.278529     33.791654      7.818649
  Si     14.203067     30.731371      7.714086
  O      10.168431     29.995952      8.298465
  O      10.136028     34.613046      8.355049
  O      13.112333     34.597489      8.581963
  O      12.855833     29.991116      8.331448
  O      11.482274     27.677272      8.102407
  O      14.356542     32.215738      8.399242
  O      11.519584     29.460834      6.095994
  O      11.795342     35.013165      6.563188
  O      13.935416     33.648070      6.231608
  O      13.959899     30.912416      6.111952
  Si     11.678361     38.605716      7.704941
  Si     14.381917     40.070178      7.830939
  O      10.276488     39.213416      8.337708
  O      13.005368     39.341837      8.333269
  O      11.705510     37.044687      8.010088
  O      14.532268     41.583305      8.414377
  O      11.717944     39.000546      6.111128
  O      14.420117     40.010160      6.189802
  Si     16.870961     26.002591      7.855172
  O      15.526180     25.225369      8.363363
  O      18.155622     25.207469      8.455669
  O      16.815093     25.995152      6.211840
  Si     16.920873     29.076124      7.741797
  Si     17.067056     35.333137      7.749785
  Si     19.691820     33.736539      7.831578
  Si     19.549790     30.649012      7.826077
  O      15.498987     29.822438      8.046454
  O      15.730643     34.473935      8.085344
  O      18.370041     34.552340      8.351294
  O      18.150279     29.959389      8.337261
  O      16.851376     27.565499      8.350051
  O      19.671332     32.186800      8.361511
  O      17.144173     28.891253      6.126208
  O      17.327625     35.415300      6.129135
  O      19.610786     33.657875      6.190710
  O      19.480339     30.700024      6.182838
  Si     16.990851     38.408765      7.818326
  O      15.692289     39.242201      8.361420
  O      18.414755     38.997485      8.345801
  O      16.930790     36.852223      8.323745
  O      16.908314     38.381873      6.176108
  O      20.730887     29.665805      8.359054
  O      21.089239     34.381369      8.363832
  H       4.074657     24.986772      8.036591
  H       1.410409     29.602015      8.036749
  H       1.410409     35.007985      8.036749
  H       4.074657     39.623228      8.036591
  H       8.948181     22.173255      8.038302
  H       8.948181     42.436745      8.038302
  H      14.277762     22.173204      8.038282
  H      14.277762     42.436796      8.038282
  H      18.960557     24.876228      8.036406
  H      18.960557     39.733772      8.036406
  H      21.624717     29.491420      8.036583
  H      21.624717     35.118580      8.036583
  H      13.074205     34.161023      6.110439
  H      10.955650     34.812706      6.136240
  H       8.994904     32.914688      5.735164
  H       9.783444     30.403904      5.735090
  H      12.311590     29.920580      5.768893
  H      13.935308     31.862306      5.859561
  H      13.571103     39.747415      5.800264
  H      10.860502     39.247175      5.737856
  H       8.155148     39.560181      5.838567
  H       6.182112     37.677766      5.833284
  H       5.261824     35.102506      5.783663
  H       3.520636     32.964917      5.870296
  H       4.162200     30.302639      5.846828
  H       5.986953     28.250263      5.787561
  H       6.922973     25.678970      5.853255
  H       9.581417     24.935338      5.820127
  H      12.265573     25.530089      5.756670
  H      14.968403     25.041103      5.827802
  H      16.986482     26.865233      5.820388
  H      17.819484     29.478002      5.755523
  H      19.528112     31.602339      5.831645
  H      18.930485     34.238462      5.814625
  H      17.135993     36.280044      5.741055
  H      16.150907     38.871338      5.822624
  P      10.408221     36.204596     10.953221
  O      13.540148     36.886441     13.388451
  O      15.626125     38.846139     12.882496
  O      16.558051     36.706584     11.668683
  O      11.237522     37.166727     11.947379
  O      15.694920     34.061798     11.338890
  O       9.650393     35.236312     11.744600
  O      11.518317     35.668510     10.015953
  O       9.429232     37.140918     10.143682
  N      13.814920     34.790373     12.410395
  N      13.786749     32.868475     11.112911
  N      11.833555     31.733071     10.651490
  C      14.760738     38.252180     11.956654
  C      15.168679     36.800108     11.677721
  C      13.393773     38.062689     12.580419
  C      14.492840     36.047607     12.846702
  C      12.337087     37.917736     11.487137
  C      12.541524     34.527525     12.775637
  C      14.522743     33.924989     11.613357
  C      11.851770     33.459644     12.308999
  C      12.472463     32.662791     11.339943
  H      14.712070     38.826720     11.023448
  H      14.736359     36.471431     10.726401
  H      13.143319     38.864428     13.274109
  H      15.234075     35.770650     13.601825
  H      12.767852     37.433622     10.607679
  H      12.017398     38.922847     11.189125
  H      16.513732     38.530206     12.673496
  H      16.773611     35.790197     11.452644
  H      12.084390     35.268091     13.415489
  H      10.799465     33.367558     12.525144
  H      10.830956     31.683622     10.725236
  H      12.263377     31.219437      9.893109
  H       9.822612     37.815891      9.569947
  H      14.245919     32.381807     10.344515
161
Coordinates from ORCA-job /data/Seafile/cmp/protonated/frames/frame11/dry/cmp_prot11 E -13392.485502899750
  Si      3.510272     33.914484      7.866809
  Si      3.464498     30.816263      7.881738
  O       2.272849     34.813938      8.421347
  O       2.142662     30.066159      8.466142
  O       3.455658     32.366270      8.395311
  O       3.553804     33.864020      6.221437
  O       3.486257     30.874331      6.237673
  Si      6.140565     26.149714      7.869487
  Si      8.800304     24.559739      7.857459
  O       4.753884     25.532549      8.450226
  O       7.451414     25.317968      8.380896
  O       8.780222     23.039538      8.437363
  O       6.177998     26.172918      6.223445
  O       8.756857     24.614535      6.214408
  Si      6.098680     29.219544      7.780685
  Si      6.140024     35.503230      7.785205
  Si      8.860974     33.872512      7.735756
  Si      8.848926     30.798232      7.708452
  O       4.832718     30.056238      8.376049
  O       4.867034     34.666596      8.369637
  O       7.498864     34.681848      8.105829
  O       7.490717     30.002662      8.101084
  O       6.204924     27.704616      8.370851
  O       8.778509     32.313913      8.285313
  O       5.827194     29.126267      6.162411
  O       5.921579     35.695177      6.164153
  O       9.033365     33.805372      6.105838
  O       9.020023     30.891978      6.081775
  Si      6.237510     38.584812      7.845390
  Si      8.959296     40.065160      7.827577
  O       4.969651     39.462711      8.373162
  O       7.587800     39.364078      8.362992
  O       6.211975     37.032018      8.360546
  O       9.203763     41.573275      8.386017
  O       6.347097     38.557855      6.202538
  O       8.945463     40.006094      6.185333
  Si     11.483038     26.077085      7.757504
  Si     14.145011     24.544611      7.820709
  O      10.131314     25.386806      8.348567
  O      12.842705     25.392717      8.336471
  O      13.922945     23.019614      8.342583
  O      11.428948     25.833188      6.134834
  O      14.158197     24.642636      6.177915
  Si     11.506662     29.253068      7.718146
  Si     11.632113     35.378958      8.265245
  Si     14.279068     33.792017      7.818917
  Si     14.204227     30.730787      7.713823
  O      10.169305     29.996042      8.299237
  O      10.134225     34.616768      8.357002
  O      13.113241     34.596057      8.584042
  O      12.856995     29.990453      8.330606
  O      11.482579     27.677519      8.102156
  O      14.356912     32.215441      8.397341
  O      11.518763     29.462308      6.096103
  O      11.794318     35.013791      6.567316
  O      13.935994     33.649684      6.231389
  O      13.961100     30.911548      6.111442
  Si     11.679573     38.605520      7.706580
  Si     14.383109     40.069956      7.831801
  O      10.276092     39.211798      8.338027
  O      13.004551     39.346294      8.335003
  O      11.711881     37.045392      8.014473
  O      14.537039     41.583894      8.412370
  O      11.718983     38.998246      6.112029
  O      14.422324     40.006583      6.190526
  Si     16.871010     26.002275      7.855226
  O      15.525648     25.226628      8.363755
  O      18.153727     25.203662      8.454967
  O      16.815441     25.995618      6.211856
  Si     16.921799     29.075770      7.742261
  Si     17.067425     35.333753      7.749957
  Si     19.691506     33.736036      7.831466
  Si     19.549767     30.649083      7.826938
  O      15.499840     29.822022      8.046745
  O      15.731715     34.472783      8.084154
  O      18.370510     34.552595      8.351068
  O      18.150520     29.959275      8.338275
  O      16.853112     27.565102      8.350277
  O      19.671113     32.186656      8.362609
  O      17.145025     28.891685      6.126575
  O      17.327353     35.417952      6.129363
  O      19.609338     33.655962      6.190516
  O      19.479617     30.699635      6.183610
  Si     16.991031     38.408812      7.820859
  O      15.691906     39.240899      8.364574
  O      18.414145     38.999165      8.348779
  O      16.931430     36.852032      8.326163
  O      16.909275     38.381754      6.178493
  O      20.731295     29.666547      8.359651
  O      21.089640     34.380267      8.361827
  H       4.074657     24.986772      8.036591
  H       1.410409     29.602015      8.036749
  H       1.410409     35.007985      8.036749
  H       4.074657     39.623228      8.036591
  H       8.948181     22.173255      8.038302
  H       8.948181     42.436745      8.038302
  H      14.277762     22.173204      8.038282
  H      14.277762     42.436796      8.038282
  H      18.960557     24.876228      8.036406
  H      18.960557     39.733772      8.036406
  H      21.624717     29.491420      8.036583
  H      21.624717     35.118580      8.036583
  H      13.075557     34.162278      6.110708
  H      10.954904     34.811726      6.140564
  H       8.998212     32.911565      5.739833
  H       9.783624     30.406178      5.736054
  H      12.311594     29.919781      5.767959
  H      13.938154     31.860873      5.857883
  H      13.572960     39.743781      5.801621
  H      10.861616     39.246408      5.739445
  H       8.157386     39.560654      5.836928
  H       6.181363     37.676509      5.831960
  H       5.262095     35.100501      5.783113
  H       3.518612     32.962669      5.870143
  H       4.162868     30.301206      5.846901
  H       5.988332     28.249012      5.788709
  H       6.922822     25.678109      5.853353
  H       9.581713     24.934390      5.820143
  H      12.266355     25.529679      5.757006
  H      14.968422     25.041057      5.827793
  H      16.986506     26.865993      5.820851
  H      17.821138     29.478444      5.757098
  H      19.527089     31.602002      5.832341
  H      18.929919     34.237491      5.814394
  H      17.138310     36.284625      5.744004
  H      16.151198     38.870425      5.825023
  P      10.404853     36.201434     10.953203
  O      13.533282     36.886663     13.391247
  O      15.616496     38.848635     12.888561
  O      16.550350     36.713535     11.668438
  O      11.230759     37.163573     11.949447
  O      15.692191     34.067569     11.338497
  O       9.646378     35.232029     11.742582
  O      11.517857     35.666964     10.017906
  O       9.426971     37.136514     10.141111
  N      13.811798     34.791698     12.412030
  N      13.785824     32.871324     11.112217
  N      11.833926     31.733710     10.650322
  C      14.751408     38.256004     11.961200
  C      15.160841     36.805087     11.679330
  C      13.384952     38.064121     12.585133
  C      14.487411     36.050221     12.848274
  C      12.327684     37.920003     11.491981
  C      12.539034     34.526518     12.777649
  C      14.520447     33.928348     11.613483
  C      11.850333     33.458612     12.309457
  C      12.471836     32.663831     11.339306
  H      14.702127     38.833085     11.029748
  H      14.727858     36.477208     10.728028
  H      13.134337     38.864498     13.280329
  H      15.230031     35.774328     13.602438
  H      12.759500     37.441049     10.610211
  H      12.004424     38.925340     11.198523
  H      16.504248     38.533701     12.678618
  H      16.767127     35.797025     11.453885
  H      12.081178     35.265136     13.419201
  H      10.798054     33.365778     12.525431
  H      10.831194     31.684610     10.722865
  H      12.263697     31.222326      9.890274
  H       9.820079     37.811964      9.568026
  H      14.245009     32.386080     10.342988
161
Coordinates from ORCA-job /data/Seafile/cmp/protonated/frames/frame11/dry/cmp_prot11 E -13392.485513044194
  Si      3.509642     33.913456      7.867188
  Si      3.465013     30.815181      7.882167
  O       2.271936     34.812014      8.422399
  O       2.145229     30.061650      8.466551
  O       3.454850     32.365235      8.395831
  O       3.552739     33.863186      6.221838
  O       3.486526     30.873792      6.238105
  Si      6.140995     26.149460      7.869865
  Si      8.800564     24.559531      7.857649
  O       4.755374     25.530283      8.450771
  O       7.452015     25.318128      8.381335
  O       8.780883     23.039410      8.437902
  O       6.178371     26.173297      6.223803
  O       8.756908     24.613818      6.214591
  Si      6.099604     29.219449      7.781034
  Si      6.139405     35.502838      7.785449
  Si      8.860840     33.872937      7.736031
  Si      8.849719     30.798702      7.709233
  O       4.834118     30.056719      8.376439
  O       4.866471     34.665872      8.369502
  O       7.498327     34.681637      8.105982
  O       7.491727     30.002725      8.101616
  O       6.204834     27.704457      8.371243
  O       8.779876     32.314425      8.286541
  O       5.828534     29.126063      6.162751
  O       5.920949     35.695118      6.164454
  O       9.032814     33.805170      6.106111
  O       9.020701     30.893100      6.082459
  Si      6.237009     38.584246      7.845241
  Si      8.959190     40.064758      7.827235
  O       4.969460     39.462292      8.373427
  O       7.587630     39.363501      8.362283
  O       6.211418     37.031607      8.361117
  O       9.203551     41.572957      8.385271
  O       6.345853     38.557046      6.202493
  O       8.945992     40.005944      6.184885
  Si     11.483108     26.076980      7.757253
  Si     14.144872     24.544647      7.820871
  O      10.131410     25.386888      8.348441
  O      12.842467     25.392444      8.336606
  O      13.923600     23.019681      8.343100
  O      11.429115     25.832876      6.134580
  O      14.157860     24.642181      6.178030
  Si     11.507057     29.253036      7.717986
  Si     11.632399     35.379641      8.265377
  Si     14.279395     33.791943      7.817759
  Si     14.204911     30.730304      7.713573
  O      10.170024     29.996087      8.299479
  O      10.133183     34.619528      8.356520
  O      13.113655     34.595386      8.583835
  O      12.857779     29.989869      8.329982
  O      11.482876     27.677418      8.101614
  O      14.357227     32.215327      8.396056
  O      11.518568     29.463046      6.096024
  O      11.793249     35.014901      6.568283
  O      13.936288     33.649730      6.230141
  O      13.961689     30.910703      6.111048
  Si     11.680091     38.606028      7.707093
  Si     14.383821     40.069909      7.831799
  O      10.275337     39.210438      8.338120
  O      13.003522     39.349991      8.335664
  O      11.715891     37.046264      8.016369
  O      14.542119     41.584328      8.409994
  O      11.719357     38.997873      6.112344
  O      14.423361     40.004066      6.190487
  Si     16.870890     26.001800      7.855004
  O      15.524921     25.227651      8.363898
  O      18.151872     25.200022      8.454199
  O      16.815373     25.995648      6.211628
  Si     16.922548     29.075451      7.742389
  Si     17.067678     35.334241      7.749678
  Si     19.691249     33.735905      7.831546
  Si     19.549995     30.649258      7.827602
  O      15.500547     29.821769      8.046680
  O      15.732213     34.472199      8.082304
  O      18.370548     34.552830      8.350906
  O      18.150885     29.959154      8.338838
  O      16.854540     27.564667      8.350143
  O      19.670934     32.186790      8.363420
  O      17.145829     28.891631      6.126660
  O      17.327988     35.419813      6.129285
  O      19.608782     33.654799      6.190516
  O      19.479929     30.699413      6.184221
  Si     16.991044     38.408881      7.822198
  O      15.691194     39.239705      8.366317
  O      18.413604     39.000322      8.350616
  O      16.931576     36.851951      8.327535
  O      16.909820     38.381893      6.179806
  O      20.731952     29.667592      8.360755
  O      21.089455     34.380175      8.361129
  H       4.074657     24.986772      8.036591
  H       1.410409     29.602015      8.036749
  H       1.410409     35.007985      8.036749
  H       4.074657     39.623228      8.036591
  H       8.948181     22.173255      8.038302
  H       8.948181     42.436745      8.038302
  H      14.277762     22.173204      8.038282
  H      14.277762     42.436796      8.038282
  H      18.960557     24.876228      8.036406
  H      18.960557     39.733772      8.036406
  H      21.624717     29.491420      8.036583
  H      21.624717     35.118580      8.036583
  H      13.077012     34.164082      6.109543
  H      10.953748     34.813954      6.141266
  H       8.998276     32.910827      5.741124
  H       9.784311     30.407266      5.736743
  H      12.311547     29.919970      5.767563
  H      13.936726     31.859853      5.857276
  H      13.573802     39.741355      5.801920
  H      10.862084     39.246311      5.739808
  H       8.158347     39.560467      5.835910
  H       6.180180     37.675626      5.832185
  H       5.261598     35.100424      5.783298
  H       3.517968     32.961904      5.870393
  H       4.163002     30.300748      5.847074
  H       5.989011     28.248418      5.789596
  H       6.922765     25.678084      5.853415
  H       9.581689     24.933680      5.820200
  H      12.266498     25.528874      5.757051
  H      14.967889     25.040719      5.827601
  H      16.986132     26.866181      5.820831
  H      17.822058     29.478587      5.757633
  H      19.527150     31.601774      5.832838
  H      18.930194     34.237034      5.814084
  H      17.139839     36.287249      5.745149
  H      16.151284     38.869962      5.826363
  P      10.403841     36.200275     10.952170
  O      13.530333     36.889088     13.389622
  O      15.611177     38.854292     12.887420
  O      16.546966     36.721304     11.665358
  O      11.227349     37.164037     11.948564
  O      15.693323     34.074543     11.335318
  O       9.646260     35.229763     11.741025
  O      11.518750     35.667215     10.018073
  O       9.425134     37.133600     10.138928
  N      13.812204     34.795121     12.409819
  N      13.788855     32.874598     11.110341
  N      11.838368     31.734102     10.649290
  C      14.746345     38.261188     11.960153
  C      15.157415     36.811007     11.677148
  C      13.380383     38.067062     12.584639
  C      14.485781     36.054644     12.846057
  C      12.323002     37.922760     11.491628
  C      12.539943     34.528039     12.775857
  C      14.521910     33.933117     11.610827
  C      11.852683     33.459167     12.307948
  C      12.475185     32.665287     11.337770
  H      14.695877     38.838846     11.029122
  H      14.724269     36.483152     10.725881
  H      13.129056     38.866375     13.280776
  H      15.229397     35.779968     13.599707
  H      12.755161     37.445349     10.609156
  H      11.998010     38.927976     11.199755
  H      16.499178     38.540554     12.676627
  H      16.764738     35.805029     11.450666
  H      12.081118     35.265838     13.417657
  H      10.800706     33.364619     12.524538
  H      10.835702     31.683763     10.721992
  H      12.268671     31.222639      9.889748
  H       9.817220     37.811148      9.567339
  H      14.248364     32.389499     10.341189
161
Coordinates from ORCA-job /data/Seafile/cmp/protonated/frames/frame11/dry/cmp_prot11 E -13392.485523760644
  Si      3.509044     33.912751      7.867352
  Si      3.465539     30.814347      7.882264
  O       2.271129     34.810552      8.423342
  O       2.148016     30.056870      8.466908
  O       3.454167     32.364491      8.395994
  O       3.551696     33.862717      6.222044
  O       3.486655     30.873924      6.238219
  Si      6.141215     26.149547      7.869760
  Si      8.800502     24.559385      7.857550
  O       4.756346     25.529002      8.450847
  O       7.452263     25.318433      8.381326
  O       8.781207     23.039346      8.438227
  O       6.178577     26.173828      6.223691
  O       8.756729     24.613244      6.214497
  Si      6.100505     29.219665      7.780645
  Si      6.138527     35.502786      7.785107
  Si      8.860597     33.873885      7.734640
  Si      8.850571     30.799510      7.708569
  O       4.835617     30.057553      8.376256
  O       4.865844     34.665565      8.369252
  O       7.497490     34.681643      8.104590
  O       7.492686     30.003281      8.100739
  O       6.205055     27.704672      8.371120
  O       8.780762     32.315441      8.285829
  O       5.829149     29.125713      6.162470
  O       5.919052     35.695884      6.164298
  O       9.032182     33.806396      6.104653
  O       9.021660     30.894030      6.081756
  Si      6.236485     38.583882      7.844823
  Si      8.959119     40.064154      7.826094
  O       4.969323     39.462137      8.373576
  O       7.587195     39.363436      8.361117
  O       6.211318     37.031421      8.361309
  O       9.204252     41.572374      8.383697
  O       6.344537     38.556218      6.202261
  O       8.945980     40.005588      6.183621
  Si     11.482885     26.076892      7.756759
  Si     14.144422     24.544547      7.820984
  O      10.131152     25.387101      8.348061
  O      12.841897     25.392093      8.336703
  O      13.923945     23.019649      8.343590
  O      11.429055     25.832184      6.134147
  O      14.157218     24.641478      6.178094
  Si     11.507513     29.253179      7.717303
  Si     11.632568     35.380676      8.264471
  Si     14.279305     33.791735      7.816679
  Si     14.205539     30.730083      7.713493
  O      10.170784     29.996684      8.298736
  O      10.131956     34.622625      8.354192
  O      13.113636     34.594991      8.583369
  O      12.858436     29.989390      8.329130
  O      11.483115     27.677424      8.100520
  O      14.357607     32.215274      8.395634
  O      11.519025     29.463756      6.095406
  O      11.793930     35.015161      6.567788
  O      13.934788     33.649136      6.229425
  O      13.962709     30.910594      6.110846
  Si     11.680593     38.606804      7.706359
  Si     14.384424     40.070036      7.830684
  O      10.274402     39.208646      8.336880
  O      13.002336     39.353945      8.334964
  O      11.720009     37.047453      8.017016
  O      14.548082     41.584746      8.406655
  O      11.719591     38.998078      6.111623
  O      14.424071     40.001780      6.189374
  Si     16.870578     26.001127      7.854708
  O      15.523884     25.228647      8.363949
  O      18.149784     25.195956      8.453284
  O      16.814909     25.995506      6.211324
  Si     16.923186     29.075065      7.742563
  Si     17.067817     35.334711      7.749028
  Si     19.690921     33.735868      7.831566
  Si     19.550243     30.649352      7.828131
  O      15.501228     29.821628      8.046717
  O      15.732421     34.471863      8.079898
  O      18.370358     34.553093      8.350616
  O      18.151257     29.959005      8.339391
  O      16.855891     27.564077      8.349952
  O      19.670784     32.186960      8.363939
  O      17.146559     28.891281      6.126803
  O      17.328968     35.421353      6.128897
  O      19.608310     33.653722      6.190434
  O      19.480388     30.699227      6.184701
  Si     16.991050     38.408959      7.822761
  O      15.690216     39.238440      8.366860
  O      18.413075     39.001282      8.351957
  O      16.931501     36.851946      8.328148
  O      16.910384     38.382154      6.180369
  O      20.732468     29.668236      8.361752
  O      21.088969     34.380399      8.360710
  H       4.074657     24.986772      8.036591
  H       1.410409     29.602015      8.036749
  H       1.410409     35.007985      8.036749
  H       4.074657     39.623228      8.036591
  H       8.948181     22.173255      8.038302
  H       8.948181     42.436745      8.038302
  H      14.277762     22.173204      8.038282
  H      14.277762     42.436796      8.038282
  H      18.960557     24.876228      8.036406
  H      18.960557     39.733772      8.036406
  H      21.624717     29.491420      8.036583
  H      21.624717     35.118580      8.036583
  H      13.076317     34.165287      6.109696
  H      10.954867     34.814826      6.139684
  H       8.997874     32.912008      5.739747
  H       9.785733     30.408510      5.736531
  H      12.312539     29.919971      5.767189
  H      13.937771     31.859839      5.857131
  H      13.574404     39.738891      5.801058
  H      10.862244     39.246040      5.738825
  H       8.158692     39.559799      5.834452
  H       6.178354     37.674646      5.832458
  H       5.259799     35.101139      5.783096
  H       3.517432     32.961416      5.870577
  H       4.162527     30.300458      5.846787
  H       5.989266     28.247706      5.789934
  H       6.922621     25.678158      5.853213
  H       9.581623     24.932949      5.820181
  H      12.266435     25.527648      5.757002
  H      14.967066     25.040177      5.827442
  H      16.985589     26.866134      5.820711
  H      17.822516     29.478632      5.757898
  H      19.527297     31.601631      5.833339
  H      18.930723     34.236828      5.813644
  H      17.141051     36.289134      5.745426
  H      16.151412     38.869751      5.827073
  P      10.402227     36.200266     10.950183
  O      13.527616     36.893708     13.387822
  O      15.605963     38.862122     12.883533
  O      16.543335     36.729866     11.661814
  O      11.224101     37.165351     11.946647
  O      15.693211     34.083214     11.331755
  O       9.645751     35.229088     11.739223
  O      11.518384     35.667446     10.017076
  O       9.422548     37.131629     10.135625
  N      13.811739     34.800198     12.407906
  N      13.790674     32.879587     11.108695
  N      11.841260     31.737176     10.647507
  C      14.741131     38.267488     11.957515
  C      15.153764     36.817740     11.674434
  C      13.375791     38.071487     12.582921
  C      14.483852     36.060497     12.843686
  C      12.318663     37.925951     11.489776
  C      12.539923     34.531388     12.774385
  C      14.522258     33.939547     11.608324
  C      11.853871     33.461665     12.306766
  C      12.477241     32.668686     11.336270
  H      14.688868     38.844548     11.026289
  H      14.720532     36.489340     10.723366
  H      13.123470     38.870305     13.279248
  H      15.228361     35.786904     13.596846
  H      12.751740     37.449038     10.607485
  H      11.992024     38.930648     11.198114
  H      16.494146     38.549200     12.672196
  H      16.761884     35.813945     11.446064
  H      12.080222     35.268863     13.415994
  H      10.802102     33.365744     12.523838
  H      10.838731     31.685208     10.720847
  H      12.272304     31.224817      9.888926
  H       9.813921     37.810126      9.564284
  H      14.250137     32.395260     10.339068
161
Coordinates from ORCA-job /data/Seafile/cmp/protonated/frames/frame11/dry/cmp_prot11 E -13392.485526543373
  Si      3.508503     33.912097      7.867969
  Si      3.466067     30.813590      7.882768
  O       2.270537     34.809733      8.424207
  O       2.150452     30.052416      8.467439
  O       3.453274     32.363790      8.396582
  O       3.551171     33.862209      6.222703
  O       3.487123     30.874321      6.238770
  Si      6.141445     26.149335      7.870132
  Si      8.800701     24.559341      7.857815
  O       4.757396     25.527223      8.451442
  O       7.452659     25.318614      8.381708
  O       8.781762     23.039289      8.438555
  O       6.178692     26.174149      6.224080
  O       8.756755     24.613175      6.214801
  Si      6.101078     29.219538      7.780885
  Si      6.137646     35.502463      7.785600
  Si      8.860221     33.874213      7.733820
  Si      8.851268     30.799666      7.708211
  O       4.836875     30.058232      8.376688
  O       4.865197     34.665102      8.370006
  O       7.496551     34.681040      8.103743
  O       7.493479     30.003102      8.100143
  O       6.205064     27.704530      8.371616
  O       8.780784     32.315814      8.285100
  O       5.829036     29.125002      6.162874
  O       5.917038     35.696274      6.164950
  O       9.031748     33.807226      6.103765
  O       9.022675     30.893700      6.081447
  Si      6.236076     38.583206      7.845200
  Si      8.958589     40.063698      7.826270
  O       4.969204     39.461972      8.373906
  O       7.586492     39.363517      8.361266
  O       6.211197     37.030934      8.362273
  O       9.203219     41.572037      8.383551
  O       6.344248     38.554869      6.202898
  O       8.946097     40.004508      6.183786
  Si     11.482955     26.076830      7.756940
  Si     14.144204     24.544341      7.821383
  O      10.131186     25.387287      8.348291
  O      12.841697     25.391779      8.337320
  O      13.924184     23.019538      8.344126
  O      11.429242     25.831640      6.134412
  O      14.156758     24.640965      6.178458
  Si     11.508187     29.253366      7.717525
  Si     11.632342     35.381187      8.264650
  Si     14.279037     33.791500      7.816556
  Si     14.205901     30.730259      7.714291
  O      10.171472     29.997078      8.298647
  O      10.131058     34.624236      8.352731
  O      13.113387     34.595131      8.583377
  O      12.858941     29.989365      8.329645
  O      11.483756     27.677469      8.100160
  O      14.357944     32.215401      8.396762
  O      11.520148     29.464270      6.095697
  O      11.793777     35.016062      6.567348
  O      13.933166     33.648030      6.229794
  O      13.963165     30.910799      6.111613
  Si     11.680562     38.607278      7.706862
  Si     14.384474     40.070056      7.830443
  O      10.273731     39.207886      8.337254
  O      13.001573     39.355887      8.335245
  O      11.722202     37.047951      8.018241
  O      14.551154     41.584984      8.404895
  O      11.719100     38.997887      6.112187
  O      14.423568     40.000307      6.189209
  Si     16.870357     26.000723      7.854658
  O      15.523369     25.229064      8.364272
  O      18.148517     25.193398      8.452740
  O      16.814324     25.995528      6.211309
  Si     16.923548     29.074932      7.742958
  Si     17.067867     35.335057      7.748899
  Si     19.690661     33.736005      7.831858
  Si     19.550509     30.649454      7.828510
  O      15.501771     29.821822      8.047305
  O      15.732388     34.471827      8.078412
  O      18.370137     34.553344      8.350869
  O      18.151666     29.958857      8.339932
  O      16.856608     27.563731      8.350005
  O      19.670844     32.187156      8.364294
  O      17.146824     28.891100      6.127173
  O      17.329970     35.422268      6.129016
  O      19.607931     33.653236      6.190714
  O      19.480875     30.699368      6.185097
  Si     16.990918     38.408981      7.822943
  O      15.689845     39.238203      8.367049
  O      18.412921     39.001444      8.352158
  O      16.931097     36.852028      8.328541
  O      16.910161     38.382204      6.180602
  O      20.732850     29.668588      8.362519
  O      21.088402     34.380994      8.361012
  H       4.074657     24.986772      8.036591
  H       1.410409     29.602015      8.036749
  H       1.410409     35.007985      8.036749
  H       4.074657     39.623228      8.036591
  H       8.948181     22.173255      8.038302
  H       8.948181     42.436745      8.038302
  H      14.277762     22.173204      8.038282
  H      14.277762     42.436796      8.038282
  H      18.960557     24.876228      8.036406
  H      18.960557     39.733772      8.036406
  H      21.624717     29.491420      8.036583
  H      21.624717     35.118580      8.036583
  H      13.074918     34.165384      6.110512
  H      10.954758     34.816838      6.138635
  H       8.996871     32.913220      5.738150
  H       9.787412     30.408680      5.736960
  H      12.313715     29.920924      5.768149
  H      13.935956     31.860294      5.858573
  H      13.573921     39.737490      5.800912
  H      10.861803     39.245477      5.739111
  H       8.159094     39.558497      5.834327
  H       6.177355     37.673262      5.833436
  H       5.258007     35.101346      5.783677
  H       3.517259     32.960867      5.871288
  H       4.161851     30.299853      5.846890
  H       5.989413     28.246902      5.790635
  H       6.922477     25.678232      5.853441
  H       9.581767     24.932561      5.820490
  H      12.266665     25.526996      5.757444
  H      14.966361     25.039952      5.827613
  H      16.985001     26.866143      5.820726
  H      17.822307     29.478744      5.757959
  H      19.527457     31.601865      5.833907
  H      18.931231     34.237085      5.813551
  H      17.141503     36.289861      5.745427
  H      16.150768     38.869322      5.827534
  P      10.400282     36.199814     10.948166
  O      13.524149     36.896113     13.386570
  O      15.601555     38.866611     12.879925
  O      16.539579     36.733896     11.659692
  O      11.219996     37.166529     11.945035
  O      15.692201     34.086540     11.331794
  O       9.644115     35.228103     11.736804
  O      11.518184     35.667226     10.016851
  O       9.420472     37.129661     10.131883
  N      13.809943     34.802335     12.407527
  N      13.791190     32.880438     11.110184
  N      11.842646     31.737127     10.647754
  C      14.736440     38.270434     11.955400
  C      15.149950     36.820706     11.672908
  C      13.371554     38.073629     12.581608
  C      14.481046     36.063315     12.842597
  C      12.314568     37.927490     11.488335
  C      12.538111     34.532807     12.773511
  C      14.521424     33.941850     11.608710
  C      11.853219     33.462057     12.306556
  C      12.477712     32.668930     11.336870
  H      14.682750     38.846169     11.023367
  H      14.716467     36.491589     10.722204
  H      13.118675     38.872348     13.277842
  H      15.225827     35.790773     13.595869
  H      12.748121     37.450245     10.606475
  H      11.987680     38.931941     11.196245
  H      16.489825     38.554319     12.668025
  H      16.758371     35.818250     11.443036
  H      12.077441     35.270720     13.413937
  H      10.801468     33.365241     12.523159
  H      10.840238     31.683792     10.721453
  H      12.274516     31.223831      9.890265
  H       9.811722     37.809466      9.561739
  H      14.251120     32.396178     10.340778
161
Coordinates from ORCA-job /data/Seafile/cmp/protonated/frames/frame11/dry/cmp_prot11 E -13392.485517545652
  Si      3.508112     33.911763      7.868077
  Si      3.466468     30.813131      7.882768
  O       2.270398     34.809753      8.424496
  O       2.152502     30.048882      8.467729
  O       3.452471     32.363391      8.396574
  O       3.550631     33.861933      6.222838
  O       3.487194     30.874886      6.238792
  Si      6.141455     26.149398      7.869978
  Si      8.800634     24.559339      7.857674
  O       4.757546     25.527070      8.451398
  O       7.452620     25.318655      8.381547
  O       8.781969     23.039328      8.438581
  O       6.178599     26.174329      6.223929
  O       8.756547     24.613079      6.214671
  Si      6.101424     29.219580      7.780349
  Si      6.136896     35.502259      7.785109
  Si      8.860041     33.874492      7.731674
  Si      8.851755     30.799754      7.706495
  O       4.837819     30.058869      8.376514
  O       4.864844     34.664728      8.370201
  O       7.495842     34.680530      8.101535
  O       7.493914     30.003268      8.098484
  O       6.205423     27.704646      8.371466
  O       8.780658     32.316148      8.282820
  O       5.828280     29.124391      6.162536
  O       5.914738     35.696765      6.164661
  O       9.031927     33.807935      6.101575
  O       9.023380     30.893012      6.079792
  Si      6.235857     38.582878      7.845066
  Si      8.958281     40.063369      7.825674
  O       4.969187     39.462022      8.373933
  O       7.586006     39.363808      8.360887
  O       6.211311     37.030592      8.362258
  O       9.203526     41.571702      8.382678
  O       6.343929     38.554151      6.202885
  O       8.945599     40.003864      6.183191
  Si     11.482848     26.076723      7.756597
  Si     14.143885     24.544074      7.821447
  O      10.131005     25.387533      8.348101
  O      12.841384     25.391547      8.337451
  O      13.924100     23.019387      8.344409
  O      11.429210     25.830846      6.134190
  O      14.156381     24.640333      6.178485
  Si     11.508703     29.253498      7.716752
  Si     11.632143     35.381597      8.263257
  Si     14.278549     33.791248      7.815795
  Si     14.206185     30.730482      7.714168
  O      10.171936     29.997478      8.297459
  O      10.130410     34.625415      8.350161
  O      13.112853     34.595374      8.582322
  O      12.859274     29.989328      8.329282
  O      11.484176     27.677525      8.099090
  O      14.358168     32.215515      8.397330
  O      11.521178     29.464364      6.094900
  O      11.794272     35.016853      6.565070
  O      13.931364     33.646772      6.229549
  O      13.963836     30.910984      6.111465
  Si     11.680634     38.607675      7.705951
  Si     14.384676     40.070186      7.829323
  O      10.273364     39.207237      8.336187
  O      13.001312     39.356876      8.334091
  O      11.723878     37.048335      8.017706
  O      14.553273     41.585060      8.403319
  O      11.718635     38.997877      6.111353
  O      14.423420     39.999948      6.188156
  Si     16.870063     26.000356      7.854338
  O      15.522864     25.229266      8.364219
  O      18.147550     25.191664      8.452176
  O      16.813780     25.995345      6.211013
  Si     16.923728     29.074780      7.742804
  Si     17.067902     35.334997      7.748049
  Si     19.690574     33.735998      7.831831
  Si     19.550708     30.649312      7.828370
  O      15.502245     29.822158      8.047311
  O      15.732057     34.471970      8.076406
  O      18.369680     34.552981      8.350601
  O      18.151924     29.958644      8.339916
  O      16.856900     27.563437      8.349657
  O      19.671069     32.187107      8.364023
  O      17.147052     28.890762      6.127039
  O      17.331167     35.422439      6.128367
  O      19.608223     33.652984      6.190675
  O      19.481415     30.699380      6.184991
  Si     16.991014     38.408828      7.822206
  O      15.689716     39.237972      8.365991
  O      18.412940     39.001224      8.351738
  O      16.930964     36.851884      8.327745
  O      16.910441     38.382345      6.179873
  O      20.732879     29.668305      8.362738
  O      21.087657     34.381816      8.361643
  H       4.074657     24.986772      8.036591
  H       1.410409     29.602015      8.036749
  H       1.410409     35.007985      8.036749
  H       4.074657     39.623228      8.036591
  H       8.948181     22.173255      8.038302
  H       8.948181     42.436745      8.038302
  H      14.277762     22.173204      8.038282
  H      14.277762     42.436796      8.038282
  H      18.960557     24.876228      8.036406
  H      18.960557     39.733772      8.036406
  H      21.624717     29.491420      8.036583
  H      21.624717     35.118580      8.036583
  H      13.072606     34.164021      6.110667
  H      10.955492     34.816770      6.136245
  H       8.996021     32.914442      5.735032
  H       9.788693     30.408389      5.735978
  H      12.314980     29.921179      5.768011
  H      13.936316     31.860713      5.858825
  H      13.573952     39.736962      5.799658
  H      10.861393     39.245293      5.738029
  H       8.158534     39.557792      5.833896
  H       6.176121     37.672592      5.833577
  H       5.255703     35.101746      5.783518
  H       3.517048     32.960488      5.871577
  H       4.160820     30.299453      5.846423
  H       5.988900     28.246251      5.790489
  H       6.922243     25.678200      5.853288
  H       9.581697     24.932137      5.820365
  H      12.266685     25.526115      5.757388
  H      14.965917     25.039418      5.827594
  H      16.984445     26.865938      5.820413
  H      17.822054     29.478629      5.757389
  H      19.527730     31.601993      5.834031
  H      18.932005     34.237164      5.813148
  H      17.142221     36.289723      5.744345
  H      16.150829     38.869208      5.826903
  P      10.398032     36.199466     10.946193
  O      13.521361     36.897443     13.384381
  O      15.598354     38.868896     12.875913
  O      16.536729     36.735408     11.657613
  O      11.216926     37.167055     11.943092
  O      15.689741     34.088448     11.329591
  O       9.641886     35.227879     11.734992
  O      11.516471     35.666511     10.015582
  O       9.418433     37.128568     10.128791
  N      13.807476     34.803441     12.405926
  N      13.789611     32.880797     11.109586
  N      11.841483     31.736666     10.647328
  C      14.733115     38.271637     11.952418
  C      15.147065     36.821800     11.670667
  C      13.368465     38.074609     12.579024
  C      14.478396     36.064611     12.840569
  C      12.311437     37.927800     11.485858
  C      12.535750     34.533538     12.771981
  C      14.519200     33.943106     11.607209
  C      11.851368     33.462140     12.305709
  C      12.476196     32.668763     11.336353
  H      14.678643     38.846394     11.019778
  H      14.713639     36.492065     10.720158
  H      13.115333     38.873534     13.274944
  H      15.223155     35.792364     13.593957
  H      12.745202     37.450015     10.604387
  H      11.984370     38.931972     11.193055
  H      16.486642     38.556536     12.664201
  H      16.755610     35.819969     11.440121
  H      12.074813     35.271817     13.411815
  H      10.799589     33.365010     12.522165
  H      10.839259     31.681791     10.722183
  H      12.273686     31.222530      9.890585
  H       9.810255     37.807748      9.558289
  H      14.249657     32.396673     10.340143
161
Coordinates from ORCA-job /data/Seafile/cmp/protonated/frames/frame11/dry/cmp_prot11 E -13392.485538105233
  Si      3.507700     33.911230      7.868214
  Si      3.466853     30.812504      7.882896
  O       2.270458     34.810028      8.424531
  O       2.154541     30.045269      8.467982
  O       3.451290     32.362799      8.396623
  O       3.550132     33.861292      6.222975
  O       3.487358     30.875089      6.238936
  Si      6.141530     26.149192      7.870096
  Si      8.800829     24.559370      7.857712
  O       4.757813     25.526563      8.451646
  O       7.452743     25.318511      8.381566
  O       8.782550     23.039397      8.438661
  O       6.178514     26.174204      6.224037
  O       8.756567     24.613060      6.214711
  Si      6.101639     29.219329      7.780143
  Si      6.136311     35.501620      7.784740
  Si      8.860050     33.874166      7.730455
  Si      8.852115     30.799370      7.705341
  O       4.838639     30.059291      8.376625
  O       4.864645     34.663818      8.370455
  O       7.495361     34.679624      8.099871
  O       7.494251     30.002909      8.097353
  O       6.205639     27.704460      8.371531
  O       8.780528     32.315865      8.281251
  O       5.827529     29.123697      6.162488
  O       5.913043     35.696385      6.164413
  O       9.033023     33.807516      6.100434
  O       9.023900     30.892029      6.078716
  Si      6.235758     38.582318      7.844957
  Si      8.957984     40.063188      7.825645
  O       4.969285     39.461975      8.373795
  O       7.585796     39.363612      8.360712
  O       6.211043     37.029934      8.362052
  O       9.203175     41.571534      8.382529
  O       6.344008     38.553473      6.202799
  O       8.945423     40.003327      6.183193
  Si     11.482984     26.076661      7.756485
  Si     14.143800     24.543899      7.821549
  O      10.131071     25.387808      8.348135
  O      12.841385     25.391484      8.337637
  O      13.924003     23.019278      8.344600
  O      11.429373     25.830294      6.134173
  O      14.156285     24.640013      6.178554
  Si     11.509200     29.253584      7.716335
  Si     11.631863     35.381541      8.263168
  Si     14.277956     33.791184      7.815807
  Si     14.206356     30.730793      7.714167
  O      10.172292     29.997517      8.296808
  O      10.129922     34.625817      8.349099
  O      13.112313     34.595595      8.582190
  O      12.859519     29.989446      8.329382
  O      11.484720     27.677590      8.098358
  O      14.358181     32.215650      8.398087
  O      11.522027     29.464433      6.094456
  O      11.794304     35.017685      6.564175
  O      13.929928     33.646112      6.229884
  O      13.964177     30.911153      6.111481
  Si     11.680671     38.607635      7.706015
  Si     14.384798     40.070144      7.829094
  O      10.273350     39.207175      8.336033
  O      13.001492     39.356663      8.333844
  O      11.724854     37.048199      8.018089
  O      14.553279     41.585017      8.403073
  O      11.718145     38.997246      6.111358
  O      14.423113     39.999885      6.188002
  Si     16.869884     26.000268      7.854095
  O      15.522729     25.229264      8.364200
  O      18.147073     25.190955      8.451779
  O      16.813435     25.995377      6.210804
  Si     16.923766     29.074821      7.742641
  Si     17.067852     35.334776      7.747730
  Si     19.690536     33.735973      7.831970
  Si     19.550840     30.649144      7.828141
  O      15.502614     29.822630      8.047448
  O      15.731577     34.472178      8.075268
  O      18.369186     34.552340      8.350670
  O      18.152093     29.958492      8.339799
  O      16.856879     27.563376      8.349343
  O      19.671428     32.186953      8.363723
  O      17.146997     28.890755      6.126891
  O      17.332001     35.422313      6.128162
  O      19.608511     33.653079      6.190859
  O      19.481749     30.699542      6.184819
  Si     16.991148     38.408574      7.821720
  O      15.690111     39.238220      8.365266
  O      18.413224     39.000674      8.351018
  O      16.930942     36.851679      8.327205
  O      16.910527     38.382226      6.179375
  O      20.732720     29.667751      8.362610
  O      21.086964     34.382683      8.362505
  H       4.074657     24.986772      8.036591
  H       1.410409     29.602015      8.036749
  H       1.410409     35.007985      8.036749
  H       4.074657     39.623228      8.036591
  H       8.948181     22.173255      8.038302
  H       8.948181     42.436745      8.038302
  H      14.277762     22.173204      8.038282
  H      14.277762     42.436796      8.038282
  H      18.960557     24.876228      8.036406
  H      18.960557     39.733772      8.036406
  H      21.624717     29.491420      8.036583
  H      21.624717     35.118580      8.036583
  H      13.071237     34.163653      6.110713
  H      10.955627     34.815516      6.136063
  H       8.996120     32.914389      5.733218
  H       9.789660     30.407827      5.735267
  H      12.315877     29.921543      5.768003
  H      13.936066     31.861035      5.859176
  H      13.573830     39.736815      5.799292
  H      10.861006     39.245030      5.738080
  H       8.158229     39.557354      5.833940
  H       6.175674     37.672060      5.833325
  H       5.253908     35.101294      5.783507
  H       3.516900     32.959721      5.871919
  H       4.160084     30.298879      5.846146
  H       5.988397     28.245579      5.790480
  H       6.922074     25.678002      5.853323
  H       9.581751     24.931861      5.820264
  H      12.266889     25.525589      5.757427
  H      14.965769     25.039197      5.827651
  H      16.984018     26.865967      5.820174
  H      17.821731     29.478619      5.756819
  H      19.528010     31.602290      5.834158
  H      18.932506     34.237404      5.813126
  H      17.142841     36.289367      5.743727
  H      16.150824     38.868949      5.826439
  P      10.396068     36.198490     10.945069
  O      13.517775     36.897167     13.384088
  O      15.594948     38.868811     12.875870
  O      16.533351     36.735487     11.657358
  O      11.213512     37.166787     11.942662
  O      15.686982     34.087623     11.330051
  O       9.639440     35.226879     11.733400
  O      11.515537     35.665710     10.015633
  O       9.417219     37.127108     10.126264
  N      13.804498     34.802928     12.406044
  N      13.787304     32.879554     11.110579
  N      11.839610     31.735002     10.648041
  C      14.729644     38.271585     11.952422
  C      15.143636     36.821759     11.670512
  C      13.365058     38.074511     12.579019
  C      14.475120     36.064426     12.840444
  C      12.307808     37.928123     11.485927
  C      12.532749     34.532898     12.771861
  C      14.516490     33.942326     11.607776
  C      11.848746     33.461073     12.305925
  C      12.473885     32.667396     11.337040
  H      14.675036     38.846267     11.019699
  H      14.710022     36.491995     10.720129
  H      13.112076     38.873430     13.275025
  H      15.219745     35.792409     13.594042
  H      12.741699     37.451327     10.604021
  H      11.980436     38.932416     11.193833
  H      16.483217     38.556345     12.664284
  H      16.752259     35.820166     11.439570
  H      12.071641     35.271401     13.411306
  H      10.796874     33.363907     12.521910
  H      10.837496     31.679168     10.723454
  H      12.271998     31.221030      9.891279
  H       9.810021     37.805581      9.555801
  H      14.247793     32.395309     10.341436
161
Coordinates from ORCA-job /data/Seafile/cmp/protonated/frames/frame11/dry/cmp_prot11 E -13392.485540579439
  Si      3.507404     33.910861      7.868059
  Si      3.467163     30.812016      7.882825
  O       2.270673     34.810486      8.424318
  O       2.156368     30.042200      8.468011
  O       3.450150     32.362372      8.396379
  O       3.549587     33.860766      6.222807
  O       3.487401     30.875139      6.238860
  Si      6.141467     26.149301      7.870047
  Si      8.800736     24.559391      7.857684
  O       4.757422     25.527250      8.451420
  O       7.452476     25.318235      8.381470
  O       8.782742     23.039445      8.438644
  O       6.178493     26.174242      6.223965
  O       8.756458     24.613022      6.214665
  Si      6.101883     29.219320      7.779875
  Si      6.135955     35.501115      7.783840
  Si      8.860307     33.873847      7.728966
  Si      8.852481     30.799067      7.704354
  O       4.839300     30.059728      8.376657
  O       4.864671     34.663015      8.370251
  O       7.495140     34.678830      8.097795
  O       7.494509     30.002891      8.096497
  O       6.206031     27.704530      8.371496
  O       8.780892     32.315694      8.279808
  O       5.827066     29.123440      6.162325
  O       5.911679     35.696101      6.163663
  O       9.034488     33.806496      6.099097
  O       9.024258     30.891129      6.077743
  Si      6.235768     38.582055      7.844541
  Si      8.957982     40.063091      7.825053
  O       4.969320     39.461807      8.373617
  O       7.585807     39.363560      8.360161
  O       6.210991     37.029449      8.361333
  O       9.204115     41.571418      8.381644
  O       6.343818     38.553487      6.202283
  O       8.945052     40.003155      6.182622
  Si     11.482895     26.076525      7.756348
  Si     14.143610     24.543810      7.821569
  O      10.130877     25.388026      8.348168
  O      12.841197     25.391384      8.337704
  O      13.923881     23.019186      8.344737
  O      11.429240     25.829838      6.134096
  O      14.156090     24.639816      6.178551
  Si     11.509501     29.253506      7.715891
  Si     11.631845     35.381555      8.262126
  Si     14.277526     33.791042      7.815143
  Si     14.206542     30.730791      7.713810
  O      10.172563     29.997447      8.296323
  O      10.129629     34.626454      8.347580
  O      13.111858     34.595583      8.581208
  O      12.859734     29.989335      8.329303
  O      11.484935     27.677535      8.097752
  O      14.358177     32.215676      8.397996
  O      11.522381     29.464251      6.093936
  O      11.793925     35.018480      6.562501
  O      13.929281     33.645436      6.229380
  O      13.964458     30.910802      6.111143
  Si     11.680958     38.607657      7.705253
  Si     14.385254     40.070163      7.828372
  O      10.273461     39.206899      8.335032
  O      13.001787     39.356733      8.332900
  O      11.726083     37.048184      8.017445
  O      14.553867     41.584972      8.402482
  O      11.718078     38.996884      6.110487
  O      14.423513     40.000051      6.187325
  Si     16.869669     26.000151      7.853753
  O      15.522476     25.229380      8.364069
  O      18.146475     25.190125      8.451248
  O      16.813194     25.995358      6.210483
  Si     16.923841     29.074787      7.742360
  Si     17.067887     35.334329      7.747197
  Si     19.690646     33.735826      7.832063
  Si     19.550947     30.648901      7.827894
  O      15.502999     29.822960      8.047451
  O      15.731084     34.472330      8.073885
  O      18.368655     34.551324      8.350574
  O      18.152208     29.958328      8.339578
  O      16.856969     27.563273      8.348945
  O      19.671862     32.186683      8.363416
  O      17.146935     28.890778      6.126619
  O      17.332882     35.421926      6.127698
  O      19.609217     33.653254      6.190976
  O      19.482004     30.699536      6.184621
  Si     16.991438     38.408237      7.821215
  O      15.690391     39.238006      8.364441
  O      18.413437     39.000334      8.350588
  O      16.931301     36.851307      8.326502
  O      16.911160     38.382106      6.178825
  O      20.732528     29.667132      8.362418
  O      21.086352     34.383515      8.363409
  H       4.074657     24.986772      8.036591
  H       1.410409     29.602015      8.036749
  H       1.410409     35.007985      8.036749
  H       4.074657     39.623228      8.036591
  H       8.948181     22.173255      8.038302
  H       8.948181     42.436745      8.038302
  H      14.277762     22.173204      8.038282
  H      14.277762     42.436796      8.038282
  H      18.960557     24.876228      8.036406
  H      18.960557     39.733772      8.036406
  H      21.624717     29.491420      8.036583
  H      21.624717     35.118580      8.036583
  H      13.070363     34.162602      6.109898
  H      10.955014     34.814431      6.135616
  H       8.996483     32.913472      5.731778
  H       9.790177     30.407100      5.734389
  H      12.316302     29.921269      5.767524
  H      13.935919     31.860681      5.858797
  H      13.574384     39.736848      5.798421
  H      10.861022     39.244972      5.737264
  H       8.157773     39.557139      5.833601
  H       6.175125     37.672318      5.832440
  H       5.252380     35.100960      5.783076
  H       3.516694     32.959078      5.871953
  H       4.159552     30.298469      5.845756
  H       5.988090     28.245360      5.790291
  H       6.922086     25.678070      5.853275
  H       9.581646     24.931700      5.820126
  H      12.266760     25.525134      5.757351
  H      14.965568     25.039021      5.827643
  H      16.983586     26.866004      5.819889
  H      17.821493     29.478618      5.756227
  H      19.528376     31.602362      5.834150
  H      18.933222     34.237539      5.813106
  H      17.143836     36.288871      5.742992
  H      16.151517     38.868757      5.825692
  P      10.394054     36.197231     10.943726
  O      13.514311     36.897424     13.383519
  O      15.590766     38.869412     12.876705
  O      16.530449     36.736979     11.657678
  O      11.210381     37.165966     11.941773
  O      15.684390     34.089324     11.328533
  O       9.637112     35.225507     11.731627
  O      11.514216     35.665073     10.014796
  O       9.415746     37.125766     10.124162
  N      13.802027     34.803337     12.405544
  N      13.785278     32.880316     11.109491
  N      11.838272     31.734304     10.647933
  C      14.726086     38.272342     11.952478
  C      15.140676     36.822772     11.670353
  C      13.361359     38.074800     12.578492
  C      14.472113     36.065148     12.840075
  C      12.304126     37.928126     11.485416
  C      12.530626     34.532478     12.771879
  C      14.514111     33.943317     11.606699
  C      11.847001     33.460405     12.305919
  C      12.472155     32.667182     11.336680
  H      14.671842     38.847590     11.020085
  H      14.707413     36.492946     10.719837
  H      13.108126     38.873665     13.274481
  H      15.216682     35.793272     13.593789
  H      12.738302     37.452375     10.603057
  H      11.975982     38.932372     11.193940
  H      16.479221     38.557116     12.665673
  H      16.750007     35.821892     11.439618
  H      12.069473     35.270488     13.411840
  H      10.795206     33.362773     12.522123
  H      10.836299     31.677235     10.724192
  H      12.270636     31.221203      9.890578
  H       9.809727     37.803367      9.553574
  H      14.246041     32.396320     10.340338
161
Coordinates from ORCA-job /data/Seafile/cmp/protonated/frames/frame11/dry/cmp_prot11 E -13392.485540102214
  Si      3.507169     33.910487      7.867957
  Si      3.467425     30.811539      7.882818
  O       2.270807     34.810677      8.424158
  O       2.157852     30.039715      8.467960
  O       3.449165     32.361946      8.396207
  O       3.549137     33.860279      6.222685
  O       3.487527     30.874928      6.238847
  Si      6.141455     26.149256      7.870076
  Si      8.800778     24.559396      7.857701
  O       4.757278     25.527470      8.451396
  O       7.452388     25.317998      8.381441
  O       8.783058     23.039484      8.438680
  O       6.178460     26.174052      6.223970
  O       8.756512     24.612924      6.214669
  Si      6.102130     29.219218      7.779805
  Si      6.135783     35.500590      7.783265
  Si      8.860526     33.873424      7.728384
  Si      8.852792     30.798706      7.704049
  O       4.839878     30.060023      8.376775
  O       4.864740     34.662225      8.370060
  O       7.495047     34.678095      8.096688
  O       7.494841     30.002594      8.096280
  O       6.206198     27.704456      8.371490
  O       8.781359     32.315359      8.279301
  O       5.827022     29.123320      6.162299
  O       5.911134     35.695611      6.163181
  O       9.035628     33.805415      6.098671
  O       9.024458     30.890523      6.077425
  Si      6.235744     38.581761      7.844247
  Si      8.957970     40.063052      7.824731
  O       4.969258     39.461355      8.373597
  O       7.585899     39.363253      8.359749
  O       6.210812     37.028986      8.360703
  O       9.204393     41.571370      8.381313
  O       6.343652     38.553630      6.201875
  O       8.944873     40.003227      6.182316
  Si     11.482924     26.076437      7.756263
  Si     14.143604     24.543816      7.821575
  O      10.130831     25.388184      8.348203
  O      12.841162     25.391332      8.337665
  O      13.923916     23.019166      8.344850
  O      11.429205     25.829702      6.134019
  O      14.156122     24.639734      6.178543
  Si     11.509736     29.253381      7.715740
  Si     11.631871     35.381471      8.261874
  Si     14.277201     33.791045      7.814894
  Si     14.206694     30.730723      7.713718
  O      10.172795     29.997219      8.296294
  O      10.129453     34.626818      8.346984
  O      13.111600     34.595532      8.580942
  O      12.859857     29.989298      8.329419
  O      11.485126     27.677453      8.097517
  O      14.358054     32.215714      8.397783
  O      11.522593     29.464114      6.093756
  O      11.793926     35.018660      6.562172
  O      13.928927     33.645361      6.229117
  O      13.964779     30.910519      6.111049
  Si     11.681133     38.607568      7.705150
  Si     14.385468     40.070138      7.828282
  O      10.273558     39.206834      8.334695
  O      13.001913     39.356786      8.332748
  O      11.726952     37.048095      8.017427
  O      14.553867     41.584941      8.402423
  O      11.718156     38.996525      6.110260
  O      14.423729     40.000138      6.187245
  Si     16.869604     26.000174      7.853599
  O      15.522391     25.229537      8.364009
  O      18.146102     25.189603      8.450908
  O      16.813183     25.995505      6.210334
  Si     16.923903     29.074850      7.742333
  Si     17.067829     35.334047      7.747014
  Si     19.690712     33.735807      7.832237
  Si     19.551023     30.648829      7.827887
  O      15.503202     29.823102      8.047696
  O      15.730673     34.472464      8.073237
  O      18.368244     34.550645      8.350615
  O      18.152283     29.958314      8.339517
  O      16.857140     27.563281      8.348788
  O      19.672118     32.186581      8.363368
  O      17.146716     28.891030      6.126567
  O      17.333226     35.421672      6.127525
  O      19.609792     33.653606      6.191170
  O      19.482119     30.699528      6.184635
  Si     16.991562     38.408076      7.821152
  O      15.690539     39.237880      8.364245
  O      18.413552     39.000180      8.350441
  O      16.931568     36.851093      8.326245
  O      16.911525     38.382001      6.178722
  O      20.732467     29.666875      8.362400
  O      21.085980     34.384087      8.364124
  H       4.074657     24.986772      8.036591
  H       1.410409     29.602015      8.036749
  H       1.410409     35.007985      8.036749
  H       4.074657     39.623228      8.036591
  H       8.948181     22.173255      8.038302
  H       8.948181     42.436745      8.038302
  H      14.277762     22.173204      8.038282
  H      14.277762     42.436796      8.038282
  H      18.960557     24.876228      8.036406
  H      18.960557     39.733772      8.036406
  H      21.624717     29.491420      8.036583
  H      21.624717     35.118580      8.036583
  H      13.070647     34.163240      6.109128
  H      10.954989     34.812616      6.136289
  H       8.997091     32.912309      5.731552
  H       9.790396     30.406652      5.733893
  H      12.316528     29.920981      5.767195
  H      13.936343     31.860324      5.858482
  H      13.574669     39.736854      5.798284
  H      10.861110     39.244836      5.737191
  H       8.157515     39.557269      5.833382
  H       6.174865     37.672678      5.831657
  H       5.251654     35.100502      5.782836
  H       3.516629     32.958520      5.871950
  H       4.159488     30.298140      5.845590
  H       5.987974     28.245237      5.790228
  H       6.922103     25.677961      5.853272
  H       9.581643     24.931616      5.820027
  H      12.266690     25.524970      5.757220
  H      14.965590     25.038949      5.827616
  H      16.983322     26.866242      5.819825
  H      17.821299     29.478734      5.756031
  H      19.528717     31.602348      5.834188
  H      18.933637     34.237738      5.813293
  H      17.144396     36.288649      5.742790
  H      16.151991     38.868633      5.825376
  P      10.393131     36.196249     10.943130
  O      13.511811     36.898067     13.383700
  O      15.587283     38.870825     12.878596
  O      16.528085     36.739899     11.657788
  O      11.208307     37.165159     11.941864
  O      15.683245     34.091221     11.327795
  O       9.635991     35.224086     11.730298
  O      11.514098     35.665029     10.014742
  O       9.415038     37.124704     10.123175
  N      13.800860     34.804404     12.405357
  N      13.784524     32.881511     11.109102
  N      11.838133     31.734109     10.648713
  C      14.723074     38.274165     11.953513
  C      15.138284     36.825015     11.670581
  C      13.358343     38.075769     12.579217
  C      14.470165     36.066639     12.840092
  C      12.301012     37.929171     11.486213
  C      12.529802     34.532750     12.772303
  C      14.513097     33.944735     11.606203
  C      11.846534     33.460418     12.306460
  C      12.471678     32.667593     11.336948
  H      14.669018     38.850297     11.021678
  H      14.705125     36.495430     10.719945
  H      13.104909     38.874206     13.275616
  H      15.214950     35.795079     13.593710
  H      12.735423     37.455239     10.602986
  H      11.971630     38.933462     11.196193
  H      16.475918     38.559111     12.667443
  H      16.748287     35.824992     11.439743
  H      12.068564     35.270279     13.412752
  H      10.794926     33.362119     12.523203
  H      10.836216     31.676458     10.725285
  H      12.270434     31.221794      9.890815
  H       9.809555     37.802135      9.552869
  H      14.245550     32.397359     10.340187
161
Coordinates from ORCA-job /data/Seafile/cmp/protonated/frames/frame11/dry/cmp_prot11 E -13392.485541186899
  Si      3.507033     33.910276      7.867774
  Si      3.467620     30.811215      7.882788
  O       2.270985     34.810945      8.423892
  O       2.159087     30.037700      8.467809
  O       3.448296     32.361698      8.395989
  O       3.548826     33.859927      6.222489
  O       3.487752     30.874757      6.238816
  Si      6.141358     26.149398      7.870058
  Si      8.800667     24.559423      7.857734
  O       4.756838     25.528201      8.451183
  O       7.452119     25.317785      8.381410
  O       8.783178     23.039508      8.438678
  O       6.178479     26.174013      6.223938
  O       8.756515     24.612953      6.214697
  Si      6.102397     29.219298      7.779840
  Si      6.135660     35.500303      7.782604
  Si      8.860674     33.873216      7.727640
  Si      8.853091     30.798553      7.704000
  O       4.840386     30.060414      8.376930
  O       4.864867     34.661672      8.369757
  O       7.494980     34.677625      8.095552
  O       7.495200     30.002476      8.096359
  O       6.206369     27.704544      8.371529
  O       8.781897     32.315292      8.278934
  O       5.827180     29.123445      6.162359
  O       5.910685     35.695431      6.162648
  O       9.036360     33.804556      6.098062
  O       9.024580     30.890109      6.077326
  Si      6.235723     38.581641      7.843983
  Si      8.958050     40.063013      7.824318
  O       4.969123     39.460813      8.373658
  O       7.585981     39.363069      8.359393
  O       6.210759     37.028719      8.360032
  O       9.204981     41.571333      8.380849
  O       6.343425     38.554039      6.201509
  O       8.944644     40.003409      6.181916
  Si     11.482824     26.076391      7.756330
  Si     14.143538     24.543874      7.821609
  O      10.130636     25.388322      8.348315
  O      12.841027     25.391257      8.337679
  O      13.923907     23.019155      8.344912
  O      11.429033     25.829736      6.134065
  O      14.156065     24.639777      6.178580
  Si     11.509864     29.253276      7.715822
  Si     11.631981     35.381517      8.261018
  Si     14.277118     33.791017      7.814075
  Si     14.206825     30.730528      7.713613
  O      10.173007     29.997155      8.296506
  O      10.129362     34.627274      8.345917
  O      13.111481     34.595400      8.580006
  O      12.859955     29.989273      8.329584
  O      11.485139     27.677382      8.097618
  O      14.357986     32.215785      8.397079
  O      11.522651     29.463925      6.093820
  O      11.793647     35.018749      6.561313
  O      13.929103     33.645185      6.228237
  O      13.964981     30.910051      6.110937
  Si     11.681294     38.607639      7.704705
  Si     14.385628     40.070174      7.828089
  O      10.273591     39.206627      8.334194
  O      13.001893     39.357103      8.332469
  O      11.727616     37.048189      8.016739
  O      14.554072     41.584931      8.402292
  O      11.718439     38.996846      6.109794
  O      14.424039     40.000332      6.187034
  Si     16.869542     26.000170      7.853540
  O      15.522265     25.229707      8.364014
  O      18.145785     25.189124      8.450631
  O      16.813132     25.995599      6.210269
  Si     16.923973     29.074872      7.742364
  Si     17.067849     35.333866      7.746755
  Si     19.690823     33.735849      7.832362
  Si     19.551085     30.648828      7.827906
  O      15.503326     29.823095      8.047946
  O      15.730390     34.472615      8.072460
  O      18.367940     34.550139      8.350582
  O      18.152327     29.958373      8.339453
  O      16.857374     27.563270      8.348740
  O      19.672319     32.186555      8.363370
  O      17.146488     28.891203      6.126570
  O      17.333645     35.421546      6.127290
  O      19.610472     33.654060      6.191288
  O      19.482161     30.699502      6.184648
  Si     16.991627     38.408013      7.821149
  O      15.690476     39.237625      8.364152
  O      18.413581     39.000183      8.350455
  O      16.931839     36.850956      8.326036
  O      16.911840     38.381958      6.178690
  O      20.732416     29.666694      8.362348
  O      21.085773     34.384497      8.364713
  H       4.074657     24.986772      8.036591
  H       1.410409     29.602015      8.036749
  H       1.410409     35.007985      8.036749
  H       4.074657     39.623228      8.036591
  H       8.948181     22.173255      8.038302
  H       8.948181     42.436745      8.038302
  H      14.277762     22.173204      8.038282
  H      14.277762     42.436796      8.038282
  H      18.960557     24.876228      8.036406
  H      18.960557     39.733772      8.036406
  H      21.624717     29.491420      8.036583
  H      21.624717     35.118580      8.036583
  H      13.071006     34.163259      6.108082
  H      10.954458     34.812062      6.136180
  H       8.997417     32.911261      5.731359
  H       9.790460     30.406337      5.733560
  H      12.316551     29.920588      5.766969
  H      13.936105     31.859743      5.858070
  H      13.574943     39.737085      5.798082
  H      10.861318     39.245017      5.736804
  H       8.157332     39.557317      5.833101
  H       6.174577     37.673288      5.830957
  H       5.251100     35.100297      5.782511
  H       3.516659     32.958105      5.871877
  H       4.159658     30.297916      5.845544
  H       5.988029     28.245360      5.790249
  H       6.922273     25.678093      5.853313
  H       9.581631     24.931669      5.820045
  H      12.266473     25.524998      5.757183
  H      14.965516     25.039004      5.827626
  H      16.983013     26.866429      5.819844
  H      17.821153     29.478772      5.755970
  H      19.529111     31.602256      5.834116
  H      18.934143     34.238051      5.813472
  H      17.144971     36.288582      5.742631
  H      16.152484     38.868674      5.825119
  P      10.392246     36.195077     10.941975
  O      13.509626     36.899580     13.384207
  O      15.583147     38.873723     12.880476
  O      16.525904     36.744501     11.658014
  O      11.206414     37.163745     11.941591
  O      15.682792     34.095261     11.326671
  O       9.635092     35.222141     11.728142
  O      11.513998     35.665085     10.013882
  O       9.414140     37.123697     10.122064
  N      13.800329     34.806457     12.405299
  N      13.784789     32.884237     11.108109
  N      11.839169     31.735200     10.648546
  C      14.719680     38.277046     11.954576
  C      15.136051     36.828432     11.670970
  C      13.354987     38.077298     12.579910
  C      14.468611     36.069157     12.840317
  C      12.297940     37.929866     11.486722
  C      12.529747     34.533505     12.772984
  C      14.512863     33.947711     11.605414
  C      11.847035     33.460939     12.306912
  C      12.472297     32.669079     11.336671
  H      14.665583     38.853980     11.023288
  H      14.703163     36.498905     10.720181
  H      13.100787     38.875333     13.276480
  H      15.213779     35.798042     13.593721
  H      12.733087     37.457423     10.603036
  H      11.966997     38.933912     11.197607
  H      16.472104     38.563047     12.669135
  H      16.747108     35.829901     11.439700
  H      12.068245     35.270209     13.414174
  H      10.795690     33.361544     12.524390
  H      10.837286     31.677041     10.725196
  H      12.271500     31.223812      9.890034
  H       9.809004     37.801337      9.552160
  H      14.245977     32.400374     10.339116
161
Coordinates from ORCA-job /data/Seafile/cmp/protonated/frames/frame11/dry/cmp_prot11 E -13392.485541933009
  Si      3.506885     33.910049      7.867619
  Si      3.467876     30.810864      7.882733
  O       2.271117     34.811116      8.423670
  O       2.160489     30.035451      8.467619
  O       3.447388     32.361427      8.395779
  O       3.548558     33.859631      6.222328
  O       3.488114     30.874640      6.238770
  Si      6.141257     26.149492      7.869999
  Si      8.800595     24.559462      7.857756
  O       4.756447     25.528819      8.451022
  O       7.451892     25.317608      8.381362
  O       8.783350     23.039537      8.438679
  O       6.178445     26.173869      6.223878
  O       8.756568     24.613032      6.214732
  Si      6.102746     29.219361      7.779816
  Si      6.135463     35.500005      7.782061
  Si      8.860650     33.873036      7.726773
  Si      8.853476     30.798380      7.703860
  O       4.841076     30.060923      8.377029
  O       4.864934     34.661116      8.369552
  O       7.494781     34.677075      8.094474
  O       7.495759     30.002172      8.096401
  O       6.206475     27.704602      8.371511
  O       8.782343     32.315226      8.278439
  O       5.827419     29.123533      6.162376
  O       5.910156     35.695328      6.162259
  O       9.036600     33.804040      6.097268
  O       9.024802     30.889597      6.077130
  Si      6.235611     38.581422      7.843942
  Si      8.957959     40.062946      7.824158
  O       4.968824     39.459944      8.373994
  O       7.585908     39.362836      8.359341
  O       6.210731     37.028378      8.359521
  O       9.204928     41.571291      8.380797
  O       6.343213     38.554380      6.201417
  O       8.944362     40.003554      6.181793
  Si     11.482755     26.076395      7.756432
  Si     14.143527     24.543913      7.821664
  O      10.130466     25.388484      8.348422
  O      12.840911     25.391133      8.337669
  O      13.924011     23.019150      8.345039
  O      11.428878     25.829881      6.134143
  O      14.156080     24.639725      6.178643
  Si     11.510147     29.253210      7.715980
  Si     11.632011     35.381546      8.260004
  Si     14.277087     33.791060      7.813270
  Si     14.207023     30.730415      7.713737
  O      10.173340     29.997173      8.296661
  O      10.129250     34.627618      8.344565
  O      13.111360     34.595398      8.579069
  O      12.860104     29.989394      8.329851
  O      11.485240     27.677348      8.097876
  O      14.357976     32.215985      8.396451
  O      11.523119     29.463684      6.093989
  O      11.793735     35.018724      6.560376
  O      13.929177     33.645033      6.227388
  O      13.965451     30.909757      6.111016
  Si     11.681255     38.607752      7.704543
  Si     14.385499     40.070246      7.828205
  O      10.273478     39.206494      8.334084
  O      13.001654     39.357423      8.332601
  O      11.727985     37.048274      8.016053
  O      14.554005     41.584950      8.402443
  O      11.718685     38.997398      6.109680
  O      14.424023     40.000630      6.187120
  Si     16.869527     26.000185      7.853571
  O      15.522167     25.229892      8.364085
  O      18.145532     25.188689      8.450444
  O      16.813104     25.995740      6.210287
  Si     16.924057     29.074933      7.742544
  Si     17.067844     35.333885      7.746527
  Si     19.690899     33.736071      7.832529
  Si     19.551188     30.648976      7.828031
  O      15.503412     29.823051      8.048434
  O      15.730111     34.472934      8.071805
  O      18.367652     34.549921      8.350582
  O      18.152434     29.958486      8.339450
  O      16.857671     27.563282      8.348813
  O      19.672399     32.186713      8.363459
  O      17.146150     28.891446      6.126691
  O      17.334004     35.421597      6.127103
  O      19.611216     33.654737      6.191434
  O      19.482288     30.699495      6.184746
  Si     16.991522     38.408135      7.821282
  O      15.690222     39.237475      8.364299
  O      18.413483     39.000326      8.350588
  O      16.931978     36.850986      8.325935
  O      16.911869     38.382078      6.178812
  O      20.732515     29.666838      8.362513
  O      21.085590     34.384930      8.365399
  H       4.074657     24.986772      8.036591
  H       1.410409     29.602015      8.036749
  H       1.410409     35.007985      8.036749
  H       4.074657     39.623228      8.036591
  H       8.948181     22.173255      8.038302
  H       8.948181     42.436745      8.038302
  H      14.277762     22.173204      8.038282
  H      14.277762     42.436796      8.038282
  H      18.960557     24.876228      8.036406
  H      18.960557     39.733772      8.036406
  H      21.624717     29.491420      8.036583
  H      21.624717     35.118580      8.036583
  H      13.071368     34.163580      6.107186
  H      10.954500     34.811574      6.135558
  H       8.997333     32.910620      5.730863
  H       9.790637     30.405910      5.733193
  H      12.317021     29.920178      5.766956
  H      13.936555     31.859345      5.857816
  H      13.574899     39.737423      5.798181
  H      10.861485     39.245197      5.736656
  H       8.157101     39.557365      5.833009
  H       6.174188     37.673821      5.830579
  H       5.250545     35.100134      5.782258
  H       3.516784     32.957762      5.871803
  H       4.159898     30.297659      5.845497
  H       5.988133     28.245436      5.790242
  H       6.922410     25.678150      5.853332
  H       9.581668     24.931808      5.820103
  H      12.266255     25.525122      5.757158
  H      14.965504     25.038952      5.827634
  H      16.982775     26.866646      5.819945
  H      17.820883     29.478890      5.756036
  H      19.529614     31.602111      5.833991
  H      18.934670     34.238534      5.813684
  H      17.145311     36.288662      5.742536
  H      16.152663     38.868860      5.825063
  P      10.391280     36.193737     10.940617
  O      13.507579     36.901558     13.384499
  O      15.578673     38.877713     12.880999
  O      16.523543     36.749939     11.657601
  O      11.204386     37.161912     11.941413
  O      15.682341     34.099990     11.325083
  O       9.634018     35.219756     11.725346
  O      11.513981     35.665138     10.012912
  O       9.413179     37.122738     10.120965
  N      13.799839     34.809073     12.404915
  N      13.785222     32.887226     11.107266
  N      11.840341     31.736354     10.648949
  C      14.715788     38.280461     11.954856
  C      15.133627     36.832375     11.670839
  C      13.351346     38.079114     12.580278
  C      14.467131     36.072177     12.840128
  C      12.294472     37.930439     11.487069
  C      12.529782     34.534799     12.773489
  C      14.512689     33.951230     11.604377
  C      11.847708     33.461832     12.307496
  C      12.473098     32.670797     11.336649
  H      14.661123     38.857748     11.023838
  H      14.701023     36.502653     10.719983
  H      13.096236     38.876715     13.276996
  H      15.212799     35.801579     13.593227
  H      12.730353     37.459270     10.603048
  H      11.961677     38.934073     11.198646
  H      16.467992     38.568508     12.668999
  H      16.745807     35.835671     11.438966
  H      12.067991     35.270786     13.415282
  H      10.796714     33.361073     12.525922
  H      10.838483     31.677807     10.725728
  H      12.272651     31.225396      9.890144
  H       9.808056     37.800955      9.551680
  H      14.246449     32.403422     10.338265
161
Coordinates from ORCA-job /data/Seafile/cmp/protonated/frames/frame11/dry/cmp_prot11 E -13392.485543420367
  Si      3.506690     33.909746      7.867451
  Si      3.468239     30.810417      7.882645
  O       2.271337     34.811465      8.423317
  O       2.162440     30.032299      8.467360
  O       3.446143     32.361077      8.395549
  O       3.548380     33.859237      6.222165
  O       3.488716     30.874681      6.238703
  Si      6.141118     26.149633      7.869925
  Si      8.800502     24.559548      7.857772
  O       4.755917     25.529648      8.450817
  O       7.451599     25.317423      8.381303
  O       8.783637     23.039595      8.438675
  O       6.178412     26.173776      6.223817
  O       8.756580     24.613244      6.214774
  Si      6.103219     29.219468      7.779767
  Si      6.135046     35.499659      7.781475
  Si      8.860448     33.872955      7.725393
  Si      8.853977     30.798271      7.703482
  O       4.842082     30.061719      8.377120
  O       4.864955     34.660379      8.369448
  O       7.494380     34.676463      8.092973
  O       7.496552     30.001779      8.096279
  O       6.206628     27.704705      8.371514
  O       8.782685     32.315288      8.277531
  O       5.827630     29.123532      6.162404
  O       5.909055     35.695369      6.161894
  O       9.036489     33.803824      6.095897
  O       9.025149     30.889018      6.076699
  Si      6.235425     38.581081      7.844059
  Si      8.957723     40.062796      7.824129
  O       4.968411     39.458816      8.374508
  O       7.585708     39.362489      8.359491
  O       6.210652     37.027919      8.359053
  O       9.204498     41.571185      8.380956
  O       6.343015     38.554590      6.201520
  O       8.943914     40.003646      6.181812
  Si     11.482661     26.076475      7.756578
  Si     14.143485     24.543933      7.821727
  O      10.130234     25.388759      8.348535
  O      12.840756     25.390982      8.337679
  O      13.924087     23.019138      8.345167
  O      11.428696     25.830037      6.134271
  O      14.156055     24.639630      6.178720
  Si     11.510562     29.253241      7.716120
  Si     11.631942     35.381621      8.258473
  Si     14.277109     33.791168      7.812005
  Si     14.207291     30.730392      7.713796
  O      10.173832     29.997405      8.296684
  O      10.129039     34.627993      8.342494
  O      13.111214     34.595469      8.577636
  O      12.860363     29.989653      8.330045
  O      11.485431     27.677399      8.098196
  O      14.358049     32.216355      8.395594
  O      11.523841     29.463427      6.094156
  O      11.793917     35.018791      6.558838
  O      13.929179     33.644745      6.226142
  O      13.965994     30.909440      6.111002
  Si     11.681052     38.607974      7.704304
  Si     14.385137     40.070368      7.828444
  O      10.273204     39.206303      8.334076
  O      13.001271     39.357669      8.332860
  O      11.728136     37.048419      8.014922
  O      14.553493     41.584980      8.402906
  O      11.718818     38.998568      6.109631
  O      14.423771     40.001133      6.187317
  Si     16.869491     26.000188      7.853601
  O      15.522040     25.230077      8.364177
  O      18.145311     25.188314      8.450276
  O      16.812955     25.995826      6.210297
  Si     16.924154     29.075010      7.742655
  Si     17.067884     35.334074      7.746116
  Si     19.690981     33.736434      7.832652
  Si     19.551324     30.649220      7.828059
  O      15.503513     29.823037      8.048934
  O      15.729817     34.473469      8.070771
  O      18.367326     34.549816      8.350480
  O      18.152565     29.958669      8.339308
  O      16.857977     27.563310      8.348841
  O      19.672465     32.186977      8.363455
  O      17.145803     28.891661      6.126732
  O      17.334646     35.421940      6.126793
  O      19.612162     33.655635      6.191511
  O      19.482496     30.699573      6.184728
  Si     16.991294     38.408365      7.821377
  O      15.689870     39.237466      8.364454
  O      18.413349     39.000458      8.350652
  O      16.932023     36.851115      8.325771
  O      16.911602     38.382319      6.178908
  O      20.732596     29.667016      8.362618
  O      21.085329     34.385502      8.366267
  H       4.074657     24.986772      8.036591
  H       1.410409     29.602015      8.036749
  H       1.410409     35.007985      8.036749
  H       4.074657     39.623228      8.036591
  H       8.948181     22.173255      8.038302
  H       8.948181     42.436745      8.038302
  H      14.277762     22.173204      8.038282
  H      14.277762     42.436796      8.038282
  H      18.960557     24.876228      8.036406
  H      18.960557     39.733772      8.036406
  H      21.624717     29.491420      8.036583
  H      21.624717     35.118580      8.036583
  H      13.071328     34.163485      6.106168
  H      10.954712     34.811547      6.133983
  H       8.996832     32.910357      5.729670
  H       9.791024     30.405488      5.732695
  H      12.317670     29.919948      5.767009
  H      13.936444     31.858933      5.857490
  H      13.574549     39.738112      5.798406
  H      10.861476     39.245715      5.736486
  H       8.156696     39.557349      5.833061
  H       6.173555     37.674217      5.830463
  H       5.249503     35.100021      5.782011
  H       3.517125     32.957286      5.871784
  H       4.160168     30.297301      5.845430
  H       5.988295     28.245422      5.790282
  H       6.922642     25.678349      5.853409
  H       9.581738     24.931975      5.820220
  H      12.266025     25.525296      5.757187
  H      14.965435     25.038891      5.827657
  H      16.982417     26.866794      5.820008
  H      17.820525     29.479061      5.756008
  H      19.530286     31.602021      5.833699
  H      18.935433     34.239286      5.813828
  H      17.145710     36.289014      5.742357
  H      16.152510     38.869213      5.825096
  P      10.389847     36.191638     10.938674
  O      13.505058     36.904336     13.384978
  O      15.572473     38.883684     12.880659
  O      16.520102     36.757619     11.656277
  O      11.201600     37.158887     11.941359
  O      15.681955     34.106170     11.323189
  O       9.632482     35.216108     11.721338
  O      11.513786     35.664897     10.011375
  O       9.411844     37.121210     10.119389
  N      13.799332     34.812608     12.404488
  N      13.786126     32.891076     11.106405
  N      11.842089     31.738235     10.649058
  C      14.710135     38.285242     11.954784
  C      15.130085     36.837836     11.670278
  C      13.346292     38.081539     12.580769
  C      14.465322     36.076314     12.839711
  C      12.289516     37.930975     11.487627
  C      12.529949     34.536589     12.774125
  C      14.512674     33.955876     11.603213
  C      11.848784     33.463022     12.308258
  C      12.474406     32.673119     11.336562
  H      14.654082     38.862629     11.023933
  H      14.697615     36.507672     10.719515
  H      13.089928     38.878624     13.277602
  H      15.211821     35.806514     13.592270
  H      12.726571     37.461644     10.603198
  H      11.953884     38.933913     11.200101
  H      16.462255     38.576496     12.667668
  H      16.743698     35.843873     11.436845
  H      12.067786     35.271737     13.416591
  H      10.798189     33.360531     12.527712
  H      10.840263     31.679248     10.726007
  H      12.274385     31.227599      9.890011
  H       9.806625     37.800062      9.550711
  H      14.247313     32.407546     10.337205
161
Coordinates from ORCA-job /data/Seafile/cmp/protonated/frames/frame11/dry/cmp_prot11 E -13392.485544985213
  Si      3.506507     33.909422      7.867364
  Si      3.468611     30.810015      7.882517
  O       2.271516     34.811737      8.423018
  O       2.164238     30.029418      8.467096
  O       3.445055     32.360721      8.395406
  O       3.548381     33.858867      6.222088
  O       3.489318     30.874887      6.238602
  Si      6.141019     26.149714      7.869843
  Si      8.800466     24.559644      7.857784
  O       4.755462     25.530356      8.450638
  O       7.451365     25.317251      8.381259
  O       8.783960     23.039659      8.438667
  O       6.178411     26.173700      6.223757
  O       8.756579     24.613517      6.214815
  Si      6.103651     29.219520      7.779649
  Si      6.134583     35.499337      7.781200
  Si      8.860125     33.872895      7.724028
  Si      8.854425     30.798170      7.702883
  O       4.843067     30.062477      8.377110
  O       4.864889     34.659706      8.369561
  O       7.493933     34.675903      8.091758
  O       7.497326     30.001311      8.095963
  O       6.206772     27.704762      8.371491
  O       8.782758     32.315334      8.276478
  O       5.827703     29.123399      6.162370
  O       5.907848     35.695509      6.161807
  O       9.035912     33.803863      6.094447
  O       9.025538     30.888440      6.076072
  Si      6.235244     38.580681      7.844449
  Si      8.957343     40.062661      7.824469
  O       4.967988     39.457773      8.375110
  O       7.585425     39.362184      8.360025
  O       6.210603     37.027433      8.359015
  O       9.203588     41.571113      8.381467
  O       6.342990     38.554506      6.201945
  O       8.943506     40.003543      6.182212
  Si     11.482616     26.076626      7.756742
  Si     14.143469     24.543919      7.821792
  O      10.130070     25.389048      8.348629
  O      12.840653     25.390855      8.337701
  O      13.924195     23.019132      8.345281
  O      11.428584     25.830214      6.134430
  O      14.156056     24.639541      6.178801
  Si     11.511057     29.253353      7.716166
  Si     11.631762     35.381595      8.257012
  Si     14.277189     33.791335      7.810914
  Si     14.207591     30.730535      7.713873
  O      10.174345     29.997736      8.296429
  O      10.128846     34.628097      8.340540
  O      13.111098     34.595675      8.576349
  O      12.860673     29.990026      8.330137
  O      11.485685     27.677536      8.098524
  O      14.358247     32.216803      8.395021
  O      11.524804     29.463091      6.094215
  O      11.794139     35.018967      6.557311
  O      13.929118     33.644433      6.225117
  O      13.966648     30.909296      6.110966
  Si     11.680688     38.608164      7.704340
  Si     14.384629     40.070482      7.828861
  O      10.272869     39.206237      8.334465
  O      13.000926     39.357542      8.333359
  O      11.727767     37.048426      8.013853
  O      14.552556     41.585011      8.403683
  O      11.718696     38.999729      6.109896
  O      14.423255     40.001734      6.187705
  Si     16.869472     26.000189      7.853643
  O      15.521983     25.230156      8.364286
  O      18.145269     25.188237      8.450238
  O      16.812795     25.995857      6.210325
  Si     16.924221     29.075065      7.742723
  Si     17.067965     35.334388      7.745637
  Si     19.691057     33.736795      7.832624
  Si     19.551438     30.649469      7.827976
  O      15.503604     29.823061      8.049375
  O      15.729636     34.474067      8.069854
  O      18.367145     34.549925      8.350248
  O      18.152704     29.958801      8.339110
  O      16.858152     27.563339      8.348878
  O      19.672440     32.187257      8.363320
  O      17.145522     28.891770      6.126736
  O      17.335244     35.422446      6.126420
  O      19.612959     33.656406      6.191440
  O      19.482701     30.699656      6.184609
  Si     16.991017     38.408648      7.821418
  O      15.689564     39.237637      8.364623
  O      18.413151     39.000630      8.350701
  O      16.931973     36.851305      8.325576
  O      16.911173     38.382696      6.178961
  O      20.732699     29.667316      8.362698
  O      21.085157     34.385919      8.366944
  H       4.074657     24.986772      8.036591
  H       1.410409     29.602015      8.036749
  H       1.410409     35.007985      8.036749
  H       4.074657     39.623228      8.036591
  H       8.948181     22.173255      8.038302
  H       8.948181     42.436745      8.038302
  H      14.277762     22.173204      8.038282
  H      14.277762     42.436796      8.038282
  H      18.960557     24.876228      8.036406
  H      18.960557     39.733772      8.036406
  H      21.624717     29.491420      8.036583
  H      21.624717     35.118580      8.036583
  H      13.071135     34.163218      6.105314
  H      10.955083     34.811925      6.132073
  H       8.996050     32.910439      5.728196
  H       9.791454     30.404929      5.732180
  H      12.318625     29.919697      5.767138
  H      13.937206     31.858725      5.857191
  H      13.573947     39.738953      5.798797
  H      10.861301     39.246368      5.736563
  H       8.156363     39.557117      5.833425
  H       6.172997     37.674273      5.830769
  H       5.248420     35.100007      5.781932
  H       3.517482     32.956851      5.871810
  H       4.160303     30.297002      5.845261
  H       5.988370     28.245276      5.790284
  H       6.922821     25.678439      5.853479
  H       9.581795     24.932211      5.820342
  H      12.265900     25.525547      5.757280
  H      14.965405     25.038817      5.827699
  H      16.982228     26.866817      5.820023
  H      17.820166     29.479196      5.755937
  H      19.530844     31.601948      5.833311
  H      18.936191     34.240007      5.813735
  H      17.145910     36.289477      5.742064
  H      16.152107     38.869653      5.825200
  P      10.388370     36.189533     10.936907
  O      13.503088     36.906781     13.385002
  O      15.567171     38.889051     12.878600
  O      16.517083     36.763862     11.654436
  O      11.199005     37.155934     11.941347
  O      15.681212     34.111319     11.321039
  O       9.630765     35.212679     11.717663
  O      11.513411     35.664389     10.009973
  O       9.410765     37.119864     10.117942
  N      13.798693     34.815525     12.403930
  N      13.786558     32.894042     11.105742
  N      11.843115     31.739561     10.649552
  C      14.705091     38.289038     11.953601
  C      15.126945     36.842109     11.669118
  C      13.341959     38.083397     12.580504
  C      14.463802     36.079702     12.838896
  C      12.285029     37.930845     11.487680
  C      12.529920     34.538108     12.774622
  C      14.512329     33.959670     11.601992
  C      11.849496     33.463940     12.309102
  C      12.475182     32.674854     11.336717
  H      14.647389     38.865932     11.022528
  H      14.694505     36.511224     10.718598
  H      13.084571     38.880260     13.277210
  H      15.211025     35.810588     13.590968
  H      12.722997     37.462708     10.603053
  H      11.946946     38.933056     11.200525
  H      16.457344     38.583653     12.664697
  H      16.741793     35.850619     11.434079
  H      12.067631     35.272646     13.417672
  H      10.799248     33.359991     12.529445
  H      10.841344     31.680145     10.727000
  H      12.275199     31.228967      9.890362
  H       9.805508     37.799282      9.549900
  H      14.247562     32.410672     10.336317
161
Coordinates from ORCA-job /data/Seafile/cmp/protonated/frames/frame11/dry/cmp_prot11 E -13392.485544984498
  Si      3.506332     33.909030      7.867260
  Si      3.469059     30.809600      7.882412
  O       2.271798     34.812171      8.422569
  O       2.166221     30.026239      8.466793
  O       3.443867     32.360333      8.395329
  O       3.548547     33.858321      6.222003
  O       3.490081     30.875239      6.238523
  Si      6.140940     26.149813      7.869896
  Si      8.800426     24.559768      7.857963
  O       4.754907     25.531207      8.450434
  O       7.451072     25.317017      8.381389
  O       8.784386     23.039714      8.438726
  O       6.178579     26.173771      6.223833
  O       8.756556     24.613961      6.215011
  Si      6.104101     29.219573      7.779698
  Si      6.134063     35.498981      7.781016
  Si      8.859771     33.872850      7.722693
  Si      8.854869     30.798108      7.702412
  O       4.844130     30.063331      8.377193
  O       4.864819     34.658916      8.369749
  O       7.493490     34.675459      8.090614
  O       7.498113     30.000826      8.095735
  O       6.206973     27.704819      8.371654
  O       8.782667     32.315428      8.275498
  O       5.827724     29.123183      6.162495
  O       5.906406     35.695705      6.161792
  O       9.035139     33.803861      6.092964
  O       9.026084     30.887900      6.075598
  Si      6.235079     38.580237      7.844894
  Si      8.956893     40.062478      7.824978
  O       4.967597     39.456853      8.375670
  O       7.585137     39.361770      8.360690
  O       6.210498     37.026905      8.359123
  O       9.202505     41.571003      8.382088
  O       6.343081     38.554243      6.202428
  O       8.943085     40.003336      6.182760
  Si     11.482562     26.076843      7.757225
  Si     14.143411     24.543911      7.821988
  O      10.129879     25.389373      8.348950
  O      12.840552     25.390729      8.337986
  O      13.924233     23.019108      8.345374
  O      11.428465     25.830498      6.134897
  O      14.155957     24.639649      6.179019
  Si     11.511557     29.253505      7.716522
  Si     11.631534     35.381554      8.255656
  Si     14.277333     33.791568      7.810077
  Si     14.207863     30.730780      7.714180
  O      10.174869     29.998161      8.296357
  O      10.128628     34.628130      8.338677
  O      13.111049     34.595971      8.575279
  O      12.861030     29.990417      8.330455
  O      11.485973     27.677719      8.099246
  O      14.358508     32.217322      8.394842
  O      11.525724     29.462679      6.094551
  O      11.794582     35.019090      6.555945
  O      13.929133     33.644078      6.224376
  O      13.967072     30.909074      6.111148
  Si     11.680248     38.608386      7.704508
  Si     14.384074     40.070580      7.829441
  O      10.272443     39.206157      8.335054
  O      13.000666     39.357112      8.334023
  O      11.727129     37.048404      8.012730
  O      14.551176     41.585055      8.404792
  O      11.718318     39.001217      6.110383
  O      14.422676     40.002300      6.188271
  Si     16.869422     26.000194      7.853786
  O      15.521946     25.230162      8.364511
  O      18.145362     25.188387      8.450320
  O      16.812496     25.995879      6.210458
  Si     16.924240     29.075104      7.742891
  Si     17.068121     35.334770      7.745217
  Si     19.691158     33.737072      7.832515
  Si     19.551487     30.649666      7.827809
  O      15.503681     29.823114      8.049959
  O      15.729601     34.474671      8.069079
  O      18.367107     34.550089      8.349961
  O      18.152799     29.958934      8.338972
  O      16.858228     27.563364      8.349041
  O      19.672433     32.187465      8.363104
  O      17.145290     28.891776      6.126843
  O      17.335870     35.423137      6.126109
  O      19.613560     33.656930      6.191288
  O      19.482708     30.699791      6.184425
  Si     16.990734     38.408904      7.821527
  O      15.689353     39.237952      8.364864
  O      18.412978     39.000773      8.350737
  O      16.931932     36.851488      8.325538
  O      16.910562     38.383070      6.179083
  O      20.732681     29.667444      8.362555
  O      21.085086     34.386182      8.367428
  H       4.074657     24.986772      8.036591
  H       1.410409     29.602015      8.036749
  H       1.410409     35.007985      8.036749
  H       4.074657     39.623228      8.036591
  H       8.948181     22.173255      8.038302
  H       8.948181     42.436745      8.038302
  H      14.277762     22.173204      8.038282
  H      14.277762     42.436796      8.038282
  H      18.960557     24.876228      8.036406
  H      18.960557     39.733772      8.036406
  H      21.624717     29.491420      8.036583
  H      21.624717     35.118580      8.036583
  H      13.070956     34.162685      6.104626
  H      10.955797     34.812378      6.130035
  H       8.995432     32.910469      5.726712
  H       9.792099     30.404355      5.732005
  H      12.319468     29.919549      5.767614
  H      13.937089     31.858432      5.857176
  H      13.573227     39.739861      5.799392
  H      10.860852     39.247402      5.736882
  H       8.155997     39.556766      5.833951
  H       6.172395     37.674120      5.831215
  H       5.247201     35.099982      5.781850
  H       3.518030     32.956200      5.871902
  H       4.160465     30.296685      5.845110
  H       5.988471     28.245039      5.790488
  H       6.923203     25.678661      5.853760
  H       9.581895     24.932561      5.820695
  H      12.265815     25.526008      5.757689
  H      14.965287     25.038985      5.827939
  H      16.982036     26.866800      5.820127
  H      17.819806     29.479295      5.755971
  H      19.531075     31.601975      5.832941
  H      18.936913     34.240635      5.813526
  H      17.146026     36.290110      5.741843
  H      16.151411     38.870061      5.825532
  P      10.386399     36.186846     10.935268
  O      13.500280     36.909119     13.385702
  O      15.560625     38.894932     12.876910
  O      16.512923     36.770814     11.652743
  O      11.195598     37.152178     11.942105
  O      15.679938     34.116578     11.319308
  O       9.628466     35.208427     11.713734
  O      11.512791     35.663690     10.008732
  O       9.409498     37.118078     10.116538
  N      13.797466     34.818463     12.403795
  N      13.786647     32.896928     11.105590
  N      11.843920     31.740759     10.650365
  C      14.698695     38.293210     11.953055
  C      15.122655     36.846864     11.668309
  C      13.336464     38.085220     12.581132
  C      14.461536     36.083248     12.838447
  C      12.279249     37.930673     11.488714
  C      12.529366     34.539469     12.775593
  C      14.511486     33.963516     11.601202
  C      11.849831     33.464569     12.310487
  C      12.475632     32.676408     11.337347
  H      14.638868     38.869613     11.021789
  H      14.690100     36.515293     10.718106
  H      13.078035     38.881766     13.277818
  H      15.209631     35.814862     13.589888
  H      12.718337     37.464501     10.603615
  H      11.938110     38.932101     11.202452
  H      16.451171     38.591238     12.662193
  H      16.738815     35.858262     11.430796
  H      12.067020     35.273385     13.419288
  H      10.799906     33.359111     12.531647
  H      10.842244     31.680570     10.728545
  H      12.275848     31.230260      9.891026
  H       9.804382     37.797823      9.549042
  H      14.247540     32.413799     10.335923
161
Coordinates from ORCA-job /data/Seafile/cmp/protonated/frames/frame11/dry/cmp_prot11 E -13392.485548352850
  Si      3.506177     33.908604      7.867120
  Si      3.469456     30.809218      7.882181
  O       2.272003     34.812376      8.422200
  O       2.167903     30.023582      8.466453
  O       3.442953     32.359922      8.395234
  O       3.548705     33.857777      6.221877
  O       3.490585     30.875572      6.238310
  Si      6.140945     26.149853      7.869829
  Si      8.800446     24.559852      7.858025
  O       4.754517     25.531904      8.450157
  O       7.450874     25.316783      8.381419
  O       8.784787     23.039777      8.438760
  O       6.178825     26.173829      6.223776
  O       8.756520     24.614215      6.215071
  Si      6.104459     29.219540      7.779480
  Si      6.133654     35.498633      7.780912
  Si      8.859497     33.872711      7.721482
  Si      8.855215     30.798008      7.701644
  O       4.845019     30.063970      8.377018
  O       4.864743     34.658197      8.369859
  O       7.493194     34.675097      8.089704
  O       7.498741     30.000368      8.095177
  O       6.207203     27.704832      8.371620
  O       8.782534     32.315388      8.274469
  O       5.827631     29.122845      6.162344
  O       5.905158     35.695893      6.161805
  O       9.034323     33.803673      6.091606
  O       9.026589     30.887504      6.074834
  Si      6.234941     38.579786      7.845251
  Si      8.956434     40.062378      7.825450
  O       4.967300     39.456156      8.376118
  O       7.584915     39.361367      8.361214
  O       6.210447     37.026389      8.359388
  O       9.201381     41.570922      8.382693
  O       6.343103     38.553853      6.202813
  O       8.942732     40.003269      6.183241
  Si     11.482566     26.077038      7.757445
  Si     14.143396     24.543909      7.822059
  O      10.129782     25.389655      8.349051
  O      12.840503     25.390657      8.338087
  O      13.924384     23.019137      8.345440
  O      11.428427     25.830665      6.135114
  O      14.155905     24.639751      6.179100
  Si     11.512009     29.253616      7.716412
  Si     11.631294     35.381426      8.254291
  Si     14.277471     33.791804      7.809097
  Si     14.208155     30.731045      7.714030
  O      10.175326     29.998481      8.295805
  O      10.128462     34.628026      8.337171
  O      13.111063     34.596256      8.574119
  O      12.861389     29.990743      8.330236
  O      11.486247     27.677893      8.099597
  O      14.358801     32.217770      8.394459
  O      11.526482     29.462158      6.094373
  O      11.794654     35.019153      6.554670
  O      13.929255     33.643783      6.223466
  O      13.967599     30.908827      6.110840
  Si     11.679840     38.608541      7.704544
  Si     14.383619     40.070636      7.829921
  O      10.272079     39.206140      8.335499
  O      13.000548     39.356410      8.334503
  O      11.726270     37.048255      8.011450
  O      14.549735     41.585065      8.405906
  O      11.717871     39.002512      6.110715
  O      14.422197     40.002870      6.188755
  Si     16.869400     26.000219      7.853796
  O      15.521944     25.230194      8.364592
  O      18.145493     25.188646      8.450396
  O      16.812333     25.995853      6.210474
  Si     16.924301     29.075118      7.742842
  Si     17.068272     35.335170      7.744479
  Si     19.691221     33.737229      7.832188
  Si     19.551513     30.649805      7.827573
  O      15.503830     29.823232      8.050111
  O      15.729622     34.475196      8.068050
  O      18.367118     34.550301      8.349328
  O      18.152894     29.958980      8.338762
  O      16.858230     27.563404      8.349044
  O      19.672320     32.187621      8.362766
  O      17.145362     28.891676      6.126775
  O      17.336462     35.423974      6.125485
  O      19.613994     33.657055      6.190939
  O      19.482721     30.699839      6.184193
  Si     16.990522     38.409157      7.821526
  O      15.689227     39.238265      8.365008
  O      18.412708     39.001043      8.350891
  O      16.931874     36.851636      8.325291
  O      16.910194     38.383649      6.179079
  O      20.732731     29.667754      8.362472
  O      21.085029     34.386290      8.367579
  H       4.074657     24.986772      8.036591
  H       1.410409     29.602015      8.036749
  H       1.410409     35.007985      8.036749
  H       4.074657     39.623228      8.036591
  H       8.948181     22.173255      8.038302
  H       8.948181     42.436745      8.038302
  H      14.277762     22.173204      8.038282
  H      14.277762     42.436796      8.038282
  H      18.960557     24.876228      8.036406
  H      18.960557     39.733772      8.036406
  H      21.624717     29.491420      8.036583
  H      21.624717     35.118580      8.036583
  H      13.070995     34.162133      6.103476
  H      10.956021     34.813047      6.128204
  H       8.995122     32.910247      5.725421
  H       9.792657     30.403794      5.731565
  H      12.320259     29.919129      5.767586
  H      13.938104     31.858117      5.856602
  H      13.572623     39.740870      5.799839
  H      10.860426     39.248603      5.737111
  H       8.155728     39.556591      5.834343
  H       6.171921     37.673807      5.831575
  H       5.246200     35.099946      5.781769
  H       3.518508     32.955572      5.871903
  H       4.160425     30.296497      5.844719
  H       5.988492     28.244662      5.790458
  H       6.923589     25.678784      5.853868
  H       9.581933     24.932761      5.820846
  H      12.265830     25.526305      5.757911
  H      14.965265     25.039051      5.828033
  H      16.981996     26.866716      5.820071
  H      17.819780     29.479307      5.755902
  H      19.531226     31.601956      5.832576
  H      18.937616     34.240902      5.812938
  H      17.146381     36.290965      5.741344
  H      16.150948     38.870681      5.825762
  P      10.384793     36.184418     10.933719
  O      13.498141     36.911363     13.385723
  O      15.555151     38.900145     12.874328
  O      16.509370     36.776862     11.650383
  O      11.192675     37.148957     11.942656
  O      15.678645     34.121427     11.316685
  O       9.626635     35.204663     11.710277
  O      11.512408     35.663198     10.007506
  O       9.408616     37.116492     10.115187
  N      13.796553     34.821081     12.403271
  N      13.786556     32.899587     11.104912
  N      11.844435     31.741822     10.651096
  C      14.693219     38.296839     11.951664
  C      15.118985     36.850983     11.666796
  C      13.331878     38.086945     12.581017
  C      14.459787     36.086473     12.837420
  C      12.274052     37.930664     11.489286
  C      12.529166     34.540638     12.776399
  C      14.510686     33.967010     11.599805
  C      11.850300     33.465132     12.311721
  C      12.475944     32.677837     11.337749
  H      14.631396     38.872726     11.020183
  H      14.686228     36.518662     10.716970
  H      13.072791     38.883331     13.277647
  H      15.208729     35.818758     13.588237
  H      12.713834     37.466479     10.603475
  H      11.930092     38.931444     11.204118
  H      16.445985     38.597774     12.658993
  H      16.736387     35.864981     11.426914
  H      12.067003     35.273964     13.420871
  H      10.800686     33.358441     12.533711
  H      10.842909     31.680673     10.730435
  H      12.275967     31.231764      9.891249
  H       9.803831     37.796440      9.548239
  H      14.247249     32.416723     10.334932
161
Coordinates from ORCA-job /data/Seafile/cmp/protonated/frames/frame11/dry/cmp_prot11 E -13392.485546379432
  Si      3.506084     33.908204      7.867030
  Si      3.469814     30.808900      7.882097
  O       2.272174     34.812501      8.421865
  O       2.169244     30.021448      8.466172
  O       3.442275     32.359563      8.395285
  O       3.548900     33.857163      6.221804
  O       3.491048     30.875831      6.238232
  Si      6.141020     26.149889      7.869924
  Si      8.800494     24.559908      7.858262
  O       4.754192     25.532516      8.449881
  O       7.450699     25.316499      8.381633
  O       8.785188     23.039794      8.438879
  O       6.179270     26.174015      6.223864
  O       8.756547     24.614467      6.215282
  Si      6.104749     29.219473      7.779548
  Si      6.133417     35.498370      7.780991
  Si      8.859319     33.872515      7.720852
  Si      8.855459     30.797926      7.701455
  O       4.845667     30.064396      8.377035
  O       4.864711     34.657600      8.369960
  O       7.493120     34.675024      8.089372
  O       7.499173     30.000014      8.095024
  O       6.207457     27.704808      8.371826
  O       8.782373     32.315324      8.274080
  O       5.827621     29.122550      6.162433
  O       5.904334     35.696055      6.161931
  O       9.033412     33.803118      6.090866
  O       9.027150     30.887255      6.074655
  Si      6.234846     38.579455      7.845422
  Si      8.956093     40.062311      7.825741
  O       4.967169     39.455903      8.376306
  O       7.584811     39.360999      8.361473
  O       6.210355     37.026045      8.359750
  O       9.200611     41.570836      8.383055
  O       6.343055     38.553443      6.202981
  O       8.942475     40.003346      6.183487
  Si     11.482595     26.077226      7.757952
  Si     14.143384     24.543972      7.822271
  O      10.129723     25.389847      8.349373
  O      12.840498     25.390623      8.338458
  O      13.924515     23.019171      8.345489
  O      11.428431     25.830994      6.135583
  O      14.155804     24.640139      6.179322
  Si     11.512284     29.253659      7.716759
  Si     11.631154     35.381286      8.253212
  Si     14.277664     33.792007      7.808420
  Si     14.208330     30.731229      7.714126
  O      10.175638     29.998688      8.295781
  O      10.128389     34.627890      8.336267
  O      13.111237     34.596542      8.573224
  O      12.861656     29.990940      8.330360
  O      11.486452     27.678006      8.100380
  O      14.359034     32.218114      8.394397
  O      11.526768     29.461627      6.094603
  O      11.794800     35.018764      6.553890
  O      13.929664     33.643520      6.222810
  O      13.967727     30.908371      6.110812
  Si     11.679547     38.608664      7.704451
  Si     14.383341     40.070641      7.830298
  O      10.271789     39.206086      8.335734
  O      13.000574     39.355600      8.334794
  O      11.725394     37.048084      8.010135
  O      14.548430     41.585060      8.406893
  O      11.717424     39.003747      6.110915
  O      14.421960     40.003259      6.189151
  Si     16.869389     26.000282      7.853958
  O      15.521994     25.230206      8.364797
  O      18.145715     25.189013      8.450577
  O      16.812191     25.995903      6.210652
  Si     16.924332     29.075119      7.743013
  Si     17.068452     35.335500      7.743837
  Si     19.691276     33.737174      7.831813
  Si     19.551450     30.649816      7.827428
  O      15.503966     29.823345      8.050370
  O      15.729827     34.475447      8.067214
  O      18.367308     34.550551      8.348655
  O      18.152932     29.958995      8.338834
  O      16.858177     27.563445      8.349269
  O      19.672208     32.187642      8.362502
  O      17.145520     28.891534      6.126947
  O      17.336899     35.424791      6.124930
  O      19.614015     33.656666      6.190561
  O      19.482469     30.699823      6.184079
  Si     16.990417     38.409330      7.821593
  O      15.689195     39.238527      8.365151
  O      18.412465     39.001342      8.351145
  O      16.931859     36.851717      8.325174
  O      16.910055     38.384144      6.179129
  O      20.732711     29.667901      8.362297
  O      21.085162     34.386059      8.367257
  H       4.074657     24.986772      8.036591
  H       1.410409     29.602015      8.036749
  H       1.410409     35.007985      8.036749
  H       4.074657     39.623228      8.036591
  H       8.948181     22.173255      8.038302
  H       8.948181     42.436745      8.038302
  H      14.277762     22.173204      8.038282
  H      14.277762     42.436796      8.038282
  H      18.960557     24.876228      8.036406
  H      18.960557     39.733772      8.036406
  H      21.624717     29.491420      8.036583
  H      21.624717     35.118580      8.036583
  H      13.071471     34.161557      6.102310
  H      10.956254     34.813372      6.126966
  H       8.995190     32.909505      5.725026
  H       9.793179     30.403209      5.731741
  H      12.320520     29.918688      5.767871
  H      13.938005     31.857559      5.856331
  H      13.572261     39.741736      5.800167
  H      10.859983     39.249910      5.737322
  H       8.155577     39.556517      5.834527
  H       6.171529     37.673428      5.831767
  H       5.245728     35.099806      5.781752
  H       3.518953     32.954865      5.871992
  H       4.160456     30.296351      5.844497
  H       5.988651     28.244332      5.790676
  H       6.924165     25.679012      5.854136
  H       9.582031     24.933004      5.821177
  H      12.265907     25.526812      5.758385
  H      14.965227     25.039386      5.828326
  H      16.982076     26.866712      5.820213
  H      17.819835     29.479306      5.756089
  H      19.530984     31.601946      5.832451
  H      18.938103     34.240832      5.812277
  H      17.146688     36.291809      5.740902
  H      16.150666     38.871133      5.826034
  P      10.383242     36.182138     10.932416
  O      13.495636     36.913681     13.386185
  O      15.549385     38.905410     12.873135
  O      16.505574     36.783429     11.648543
  O      11.189704     37.145979     11.943473
  O      15.677439     34.126478     11.314543
  O       9.624945     35.201115     11.707199
  O      11.512131     35.662985     10.006540
  O       9.407733     37.114912     10.114010
  N      13.795672     34.823939     12.403108
  N      13.786482     32.902595     11.104444
  N      11.845088     31.743174     10.651939
  C      14.687567     38.300914     11.951243
  C      15.115091     36.855667     11.665856
  C      13.327013     38.088957     12.581600
  C      14.457845     36.090061     12.836867
  C      12.268666     37.931198     11.490458
  C      12.529007     34.541981     12.777569
  C      14.509936     33.970775     11.598733
  C      11.850803     33.465922     12.313203
  C      12.476293     32.679576     11.338347
  H      14.623976     38.876742     11.019835
  H      14.682083     36.522850     10.716342
  H      13.067283     38.885038     13.278343
  H      15.207674     35.823056     13.587040
  H      12.709222     37.469533     10.603703
  H      11.921779     38.931423     11.206841
  H      16.440471     38.604058     12.657447
  H      16.733776     35.872310     11.423290
  H      12.067024     35.274653     13.422902
  H      10.801501     33.358018     12.536083
  H      10.843747     31.680725     10.732535
  H      12.276357     31.233849      9.891486
  H       9.803486     37.794901      9.547552
  H      14.247161     32.419977     10.334266
161
Coordinates from ORCA-job /data/Seafile/cmp/protonated/frames/frame11/dry/cmp_prot11 E -13392.485548690716
  Si      3.506007     33.907838      7.866899
  Si      3.470072     30.808612      7.882000
  O       2.272225     34.812358      8.421686
  O       2.170195     30.019926      8.465944
  O       3.441908     32.359230      8.395314
  O       3.548861     33.856611      6.221690
  O       3.491201     30.875911      6.238130
  Si      6.141173     26.149852      7.869910
  Si      8.800628     24.559920      7.858404
  O       4.754140     25.532781      8.449614
  O       7.450677     25.316266      8.381745
  O       8.785573     23.039814      8.438995
  O       6.179709     26.174040      6.223825
  O       8.756685     24.614488      6.215383
  Si      6.104945     29.219325      7.779405
  Si      6.133328     35.498210      7.780989
  Si      8.859212     33.872265      7.720352
  Si      8.855616     30.797822      7.701176
  O       4.846076     30.064531      8.376902
  O       4.864709     34.657163      8.369837
  O       7.493216     34.675128      8.089193
  O       7.499431     29.999729      8.094669
  O       6.207696     27.704734      8.371854
  O       8.782224     32.315177      8.273732
  O       5.827545     29.122220      6.162314
  O       5.903917     35.696274      6.161957
  O       9.032548     33.802422      6.090336
  O       9.027649     30.887127      6.074379
  Si      6.234735     38.579231      7.845409
  Si      8.955847     40.062304      7.825854
  O       4.967138     39.455915      8.376368
  O       7.584763     39.360710      8.361458
  O       6.210236     37.025838      8.360036
  O       9.200040     41.570771      8.383273
  O       6.342836     38.553208      6.202953
  O       8.942331     40.003616      6.183523
  Si     11.482702     26.077361      7.758222
  Si     14.143433     24.544057      7.822396
  O      10.129775     25.389971      8.349521
  O      12.840560     25.390639      8.338690
  O      13.924712     23.019236      8.345524
  O      11.428526     25.831265      6.135818
  O      14.155801     24.640490      6.179444
  Si     11.512460     29.253637      7.716854
  Si     11.631096     35.381127      8.252151
  Si     14.277840     33.792131      7.807538
  Si     14.208489     30.731318      7.713971
  O      10.175826     29.998742      8.295590
  O      10.128394     34.627716      8.335559
  O      13.111490     34.596781      8.572137
  O      12.861824     29.991070      8.330228
  O      11.486651     27.678066      8.100879
  O      14.359207     32.218333      8.394109
  O      11.526824     29.461106      6.094551
  O      11.794659     35.018240      6.553171
  O      13.930145     33.643213      6.221927
  O      13.967961     30.907919      6.110549
  Si     11.679364     38.608753      7.704204
  Si     14.383211     40.070606      7.830504
  O      10.271623     39.206062      8.335751
  O      13.000668     39.354828      8.334861
  O      11.724625     37.047887      8.008752
  O      14.547482     41.585017      8.407560
  O      11.717096     39.004780      6.110922
  O      14.421874     40.003544      6.189379
  Si     16.869433     26.000366      7.854084
  O      15.522079     25.230259      8.364910
  O      18.145905     25.189300      8.450744
  O      16.812251     25.995972      6.210803
  Si     16.924415     29.075119      7.743140
  Si     17.068587     35.335762      7.742998
  Si     19.691276     33.737007      7.831373
  Si     19.551392     30.649764      7.827393
  O      15.504159     29.823483      8.050371
  O      15.730075     34.475461      8.066096
  O      18.367500     34.550835      8.347807
  O      18.152984     29.958954      8.339016
  O      16.858135     27.563495      8.349457
  O      19.672039     32.187628      8.362304
  O      17.145845     28.891381      6.127106
  O      17.337283     35.425567      6.124184
  O      19.613886     33.655936      6.190137
  O      19.482271     30.699690      6.184081
  Si     16.990394     38.409490      7.821598
  O      15.689188     39.238692      8.365196
  O      18.412224     39.001665      8.351451
  O      16.931799     36.851760      8.324892
  O      16.910235     38.384708      6.179102
  O      20.732778     29.668140      8.362298
  O      21.085300     34.385706      8.366648
  H       4.074657     24.986772      8.036591
  H       1.410409     29.602015      8.036749
  H       1.410409     35.007985      8.036749
  H       4.074657     39.623228      8.036591
  H       8.948181     22.173255      8.038302
  H       8.948181     42.436745      8.038302
  H      14.277762     22.173204      8.038282
  H      14.277762     42.436796      8.038282
  H      18.960557     24.876228      8.036406
  H      18.960557     39.733772      8.036406
  H      21.624717     29.491420      8.036583
  H      21.624717     35.118580      8.036583
  H      13.072143     34.161041      6.100840
  H      10.955966     34.813911      6.126076
  H       8.995601     32.908534      5.724974
  H       9.793645     30.402801      5.731724
  H      12.320642     29.918035      5.767788
  H      13.938778     31.857004      5.855725
  H      13.572109     39.742444      5.800257
  H      10.859653     39.251126      5.737449
  H       8.155559     39.556661      5.834477
  H       6.171341     37.673196      5.831717
  H       5.245675     35.099715      5.781646
  H       3.519116     32.954241      5.872012
  H       4.160340     30.296252      5.844210
  H       5.988697     28.243951      5.790694
  H       6.924668     25.679023      5.854224
  H       9.582176     24.933094      5.821342
  H      12.266059     25.527196      5.758633
  H      14.965303     25.039653      5.828519
  H      16.982251     26.866763      5.820353
  H      17.820122     29.479234      5.756282
  H      19.530692     31.601860      5.832501
  H      18.938484     34.240396      5.811464
  H      17.147203     36.292651      5.740263
  H      16.150767     38.871667      5.826130
  P      10.382004     36.180114     10.930982
  O      13.493086     36.915956     13.386368
  O      15.543939     38.910188     12.872526
  O      16.501958     36.789790     11.646791
  O      11.186970     37.143479     11.943887
  O      15.676305     34.131670     11.312042
  O       9.623632     35.197904     11.704142
  O      11.512216     35.663005     10.005589
  O       9.406951     37.113382     10.112667
  N      13.794868     34.826754     12.402665
  N      13.786486     32.905668     11.103611
  N      11.845926     31.744406     10.652511
  C      14.682311     38.304915     11.950965
  C      15.111403     36.860290     11.664912
  C      13.322380     38.091093     12.582042
  C      14.455872     36.093621     12.836194
  C      12.263603     37.932137     11.491404
  C      12.528924     34.543230     12.778438
  C      14.509274     33.974576     11.597338
  C      11.851381     33.466668     12.314309
  C      12.476758     32.681278     11.338626
  H      14.617391     38.881046     11.019840
  H      14.678221     36.527159     10.715599
  H      13.062091     38.886767     13.279032
  H      15.206548     35.827309     13.585759
  H      12.704786     37.473080     10.603593
  H      11.913978     38.931934     11.209558
  H      16.435235     38.609700     12.656491
  H      16.731386     35.879378     11.420016
  H      12.066995     35.275177     13.424605
  H      10.802421     33.357514     12.538152
  H      10.844786     31.680496     10.734343
  H      12.277041     31.236021      9.891380
  H       9.803263     37.793512      9.546772
  H      14.247275     32.423250     10.333358
161
Coordinates from ORCA-job /data/Seafile/cmp/protonated/frames/frame11/dry/cmp_prot11 E -13392.485550940291
  Si      3.505900     33.907504      7.866789
  Si      3.470267     30.808310      7.881972
  O       2.272121     34.811961      8.421719
  O       2.170930     30.018692      8.465806
  O       3.441730     32.358904      8.395343
  O       3.548515     33.856130      6.221598
  O       3.491207     30.875810      6.238091
  Si      6.141357     26.149749      7.869935
  Si      8.800829     24.559899      7.858601
  O       4.754274     25.532719      8.449453
  O       7.450766     25.316079      8.381880
  O       8.785930     23.039798      8.439163
  O       6.180094     26.173921      6.223817
  O       8.756988     24.614414      6.215541
  Si      6.105110     29.219115      7.779264
  Si      6.133286     35.498135      7.780838
  Si      8.859070     33.871989      7.719780
  Si      8.855755     30.797674      7.701037
  O       4.846347     30.064470      8.376786
  O       4.864705     34.656848      8.369538
  O       7.493362     34.675345      8.088952
  O       7.499614     29.999469      8.094360
  O       6.207890     27.704608      8.371894
  O       8.782051     32.315025      8.273393
  O       5.827509     29.121875      6.162200
  O       5.903728     35.696517      6.161841
  O       9.031584     33.801656      6.089797
  O       9.028183     30.886883      6.074241
  Si      6.234549     38.579097      7.845265
  Si      8.955635     40.062328      7.825703
  O       4.967122     39.456025      8.376428
  O       7.584688     39.360502      8.361187
  O       6.210053     37.025741      8.360125
  O       9.199658     41.570701      8.383360
  O       6.342361     38.553178      6.202789
  O       8.942054     40.004129      6.183284
  Si     11.482865     26.077458      7.758583
  Si     14.143543     24.544161      7.822625
  O      10.129895     25.390020      8.349754
  O      12.840671     25.390648      8.339029
  O      13.925023     23.019298      8.345704
  O      11.428686     25.831611      6.136131
  O      14.155843     24.640787      6.179664
  Si     11.512588     29.253571      7.717192
  Si     11.631092     35.380980      8.250820
  Si     14.278014     33.792202      7.806555
  Si     14.208576     30.731340      7.713978
  O      10.175937     29.998729      8.295669
  O      10.128432     34.627542      8.334600
  O      13.111756     34.597093      8.570787
  O      12.861905     29.991183      8.330360
  O      11.486853     27.678074      8.101544
  O      14.359254     32.218528      8.393835
  O      11.526798     29.460625      6.094736
  O      11.794682     35.017347      6.552197
  O      13.930650     33.642782      6.220931
  O      13.968030     30.907443      6.110505
  Si     11.679191     38.608816      7.703549
  Si     14.383083     40.070568      7.830430
  O      10.271516     39.206033      8.335336
  O      13.000679     39.354156      8.334515
  O      11.723945     37.047700      8.007029
  O      14.546801     41.584918      8.407882
  O      11.716855     39.005714      6.110497
  O      14.421870     40.003909      6.189318
  Si     16.869529     26.000490      7.854309
  O      15.522200     25.230374      8.365093
  O      18.146070     25.189474      8.450943
  O      16.812446     25.996109      6.211047
  Si     16.924498     29.075170      7.743403
  Si     17.068690     35.335974      7.742099
  Si     19.691249     33.736836      7.830971
  Si     19.551369     30.649692      7.827538
  O      15.504370     29.823693      8.050475
  O      15.730343     34.475334      8.064824
  O      18.367682     34.551191      8.346949
  O      18.153079     29.958898      8.339376
  O      16.858132     27.563579      8.349749
  O      19.671821     32.187649      8.362211
  O      17.146082     28.891323      6.127403
  O      17.337619     35.426199      6.123374
  O      19.613755     33.655172      6.189749
  O      19.482178     30.699417      6.184248
  Si     16.990387     38.409699      7.821553
  O      15.689051     39.238753      8.365041
  O      18.411946     39.002048      8.351832
  O      16.931693     36.851829      8.324446
  O      16.910682     38.385333      6.179011
  O      20.732972     29.668501      8.362587
  O      21.085438     34.385328      8.365962
  H       4.074657     24.986772      8.036591
  H       1.410409     29.602015      8.036749
  H       1.410409     35.007985      8.036749
  H       4.074657     39.623228      8.036591
  H       8.948181     22.173255      8.038302
  H       8.948181     42.436745      8.038302
  H      14.277762     22.173204      8.038282
  H      14.277762     42.436796      8.038282
  H      18.960557     24.876228      8.036406
  H      18.960557     39.733772      8.036406
  H      21.624717     29.491420      8.036583
  H      21.624717     35.118580      8.036583
  H      13.072811     34.160435      6.099323
  H      10.955791     34.813961      6.125087
  H       8.995904     32.907465      5.724972
  H       9.794152     30.402335      5.731803
  H      12.320643     29.917408      5.767878
  H      13.938559     31.856418      5.855362
  H      13.572128     39.743125      5.799947
  H      10.859350     39.252159      5.737215
  H       8.155341     39.557122      5.834216
  H       6.170960     37.673174      5.831507
  H       5.245800     35.099681      5.781449
  H       3.518929     32.953695      5.872049
  H       4.160181     30.296081      5.844011
  H       5.988784     28.243569      5.790699
  H       6.925136     25.678956      5.854312
  H       9.582443     24.933215      5.821582
  H      12.266235     25.527596      5.758936
  H      14.965409     25.039867      5.828786
  H      16.982432     26.866928      5.820636
  H      17.820373     29.479171      5.756578
  H      19.530578     31.601622      5.832697
  H      18.938880     34.239942      5.810688
  H      17.147738     36.293333      5.739508
  H      16.151190     38.872230      5.826017
  P      10.380827     36.178369     10.929181
  O      13.490557     36.918917     13.386250
  O      15.538376     38.915541     12.871688
  O      16.498356     36.796831     11.644776
  O      11.184369     37.141228     11.943746
  O      15.675099     34.137596     11.309173
  O       9.622405     35.194993     11.700750
  O      11.512334     35.663202     10.004315
  O       9.406050     37.112049     10.110975
  N      13.794123     34.830219     12.402091
  N      13.786410     32.909391     11.102691
  N      11.846647     31.746170     10.653307
  C      14.677019     38.309491     11.950313
  C      15.107744     36.865503     11.663707
  C      13.317673     38.093824     12.582018
  C      14.453910     36.097862     12.835319
  C      12.258599     37.933405     11.491810
  C      12.528966     34.545088     12.779361
  C      14.508578     33.979067     11.595725
  C      11.852017     33.468025     12.315567
  C      12.477193     32.683560     11.339010
  H      14.610929     38.886005     11.019536
  H      14.674476     36.531982     10.714573
  H      13.056702     38.889086     13.279206
  H      15.205504     35.832344     13.584252
  H      12.700485     37.476804     10.603053
  H      11.906163     38.932683     11.211559
  H      16.429886     38.616051     12.655126
  H      16.729099     35.887053     11.416857
  H      12.067021     35.276306     13.426327
  H      10.803456     33.357579     12.540576
  H      10.845700     31.680904     10.736308
  H      12.277597     31.238681      9.891506
  H       9.802884     37.792254      9.545505
  H      14.247239     32.427092     10.332377
161
Coordinates from ORCA-job /data/Seafile/cmp/protonated/frames/frame11/dry/cmp_prot11 E -13392.485558488090
  Si      3.505783     33.907250      7.866658
  Si      3.470383     30.808035      7.881934
  O       2.271934     34.811447      8.421881
  O       2.171414     30.017846      8.465746
  O       3.441736     32.358629      8.395312
  O       3.547961     33.855814      6.221488
  O       3.491045     30.875619      6.238038
  Si      6.141566     26.149574      7.869896
  Si      8.801119     24.559884      7.858715
  O       4.754636     25.532298      8.449400
  O       7.451007     25.315993      8.381934
  O       8.786336     23.039803      8.439314
  O       6.180348     26.173605      6.223753
  O       8.757395     24.614263      6.215630
  Si      6.105219     29.218856      7.778952
  Si      6.133239     35.498187      7.780539
  Si      8.858822     33.871776      7.718926
  Si      8.855861     30.797543      7.700726
  O       4.846504     30.064262      8.376572
  O       4.864697     34.656671      8.369087
  O       7.493514     34.675713      8.088552
  O       7.499734     29.999244      8.093812
  O       6.208028     27.704447      8.371806
  O       8.781810     32.314930      8.272787
  O       5.827380     29.121481      6.161945
  O       5.903656     35.696874      6.161599
  O       9.030367     33.801083      6.088986
  O       9.028677     30.886613      6.073931
  Si      6.234320     38.579076      7.845128
  Si      8.955465     40.062368      7.825506
  O       4.967134     39.456272      8.376495
  O       7.584578     39.360413      8.360911
  O       6.209754     37.025768      8.360079
  O       9.199390     41.570655      8.383429
  O       6.341822     38.553355      6.202649
  O       8.941781     40.004649      6.183012
  Si     11.483101     26.077566      7.758780
  Si     14.143685     24.544243      7.822785
  O      10.130102     25.390088      8.349873
  O      12.840843     25.390699      8.339274
  O      13.925264     23.019345      8.345847
  O      11.428932     25.831927      6.136297
  O      14.155956     24.640955      6.179814
  Si     11.512700     29.253565      7.717378
  Si     11.631131     35.380859      8.249064
  Si     14.278201     33.792239      7.804993
  Si     14.208648     30.731348      7.713772
  O      10.175984     29.998721      8.295659
  O      10.128539     34.627309      8.333155
  O      13.112069     34.597497      8.568824
  O      12.861913     29.991425      8.330375
  O      11.487134     27.678124      8.101986
  O      14.359238     32.218773      8.393144
  O      11.526791     29.460295      6.094798
  O      11.794598     35.016608      6.550617
  O      13.930984     33.642201      6.219395
  O      13.968227     30.907000      6.110271
  Si     11.678984     38.608913      7.702673
  Si     14.382926     40.070513      7.830159
  O      10.271451     39.206010      8.334822
  O      13.000607     39.353606      8.333963
  O      11.723303     37.047543      8.004987
  O      14.546323     41.584760      8.407892
  O      11.716646     39.006729      6.109854
  O      14.421818     40.004296      6.189046
  Si     16.869658     26.000601      7.854521
  O      15.522353     25.230434      8.365221
  O      18.146239     25.189630      8.451150
  O      16.812753     25.996206      6.211268
  Si     16.924572     29.075227      7.743600
  Si     17.068826     35.336149      7.740896
  Si     19.691221     33.736648      7.830485
  Si     19.551378     30.649584      7.827703
  O      15.504565     29.823948      8.050397
  O      15.730655     34.475067      8.062958
  O      18.367847     34.551589      8.345938
  O      18.153176     29.958831      8.339732
  O      16.858095     27.563664      8.349991
  O      19.671596     32.187678      8.362114
  O      17.146299     28.891260      6.127648
  O      17.338166     35.426798      6.122302
  O      19.613730     33.654356      6.189267
  O      19.482247     30.699030      6.184410
  Si     16.990374     38.409915      7.821310
  O      15.688860     39.238751      8.364674
  O      18.411749     39.002269      8.352006
  O      16.931492     36.851883      8.323685
  O      16.911176     38.386039      6.178721
  O      20.733186     29.668808      8.362984
  O      21.085554     34.384928      8.365188
  H       4.074657     24.986772      8.036591
  H       1.410409     29.602015      8.036749
  H       1.410409     35.007985      8.036749
  H       4.074657     39.623228      8.036591
  H       8.948181     22.173255      8.038302
  H       8.948181     42.436745      8.038302
  H      14.277762     22.173204      8.038282
  H      14.277762     42.436796      8.038282
  H      18.960557     24.876228      8.036406
  H      18.960557     39.733772      8.036406
  H      21.624717     29.491420      8.036583
  H      21.624717     35.118580      8.036583
  H      13.073166     34.159721      6.097545
  H      10.955409     34.814244      6.123633
  H       8.995765     32.906630      5.724637
  H       9.794666     30.401962      5.731657
  H      12.320717     29.916812      5.767797
  H      13.939032     31.855871      5.854685
  H      13.572129     39.743820      5.799384
  H      10.859022     39.253109      5.736786
  H       8.155115     39.557589      5.833950
  H       6.170628     37.673352      5.831296
  H       5.246020     35.099794      5.781115
  H       3.518524     32.953336      5.872027
  H       4.159902     30.295880      5.843798
  H       5.988750     28.243155      5.790522
  H       6.925468     25.678725      5.854295
  H       9.582788     24.933274      5.821713
  H      12.266462     25.527888      5.759078
  H      14.965574     25.039965      5.828970
  H      16.982653     26.867072      5.820906
  H      17.820656     29.479011      5.756785
  H      19.530545     31.601265      5.832865
  H      18.939291     34.239336      5.809817
  H      17.148594     36.294002      5.738493
  H      16.151745     38.872949      5.825646
  P      10.379800     36.176513     10.926928
  O      13.488184     36.921871     13.385883
  O      15.532797     38.920999     12.870826
  O      16.494986     36.804116     11.642531
  O      11.181835     37.138921     11.943036
  O      15.674356     34.143607     11.306280
  O       9.621375     35.191836     11.696781
  O      11.512620     35.663320     10.002598
  O       9.405046     37.110494     10.108887
  N      13.793719     34.833773     12.401272
  N      13.786822     32.913222     11.101514
  N      11.847848     31.748137     10.653577
  C      14.671829     38.314163     11.949499
  C      15.104318     36.870853     11.662324
  C      13.313031     38.096497     12.581695
  C      14.452198     36.102177     12.834247
  C      12.253867     37.934421     11.491748
  C      12.529317     34.547040     12.779888
  C      14.508313     33.983654     11.593967
  C      11.853033     33.469447     12.316414
  C      12.478092     32.685965     11.338967
  H      14.604648     38.891103     11.019089
  H      14.671002     36.536941     10.713352
  H      13.051142     38.891287     13.279062
  H      15.204717     35.837541     13.582572
  H      12.696598     37.479895     10.602333
  H      11.898779     38.933101     11.212698
  H      16.424560     38.622735     12.653572
  H      16.727030     35.894898     11.413756
  H      12.067189     35.277472     13.427591
  H      10.804895     33.357582     12.542612
  H      10.847064     31.681683     10.737510
  H      12.278740     31.241347      9.891307
  H       9.802207     37.790961      9.543886
  H      14.247697     32.431025     10.331150
