33
Coordinates from ORCA-job ump E -1477.563282767279
  N          -2.20037558475995      0.21893370613660     -0.27072279974567
  C          -3.54617030372755      0.40908053134021     -0.50009934796552
  N          -4.36559003075746     -0.50727666707997      0.09910748249117
  C          -3.99559319972772     -1.58215363446828      0.89645382215006
  C          -2.57456096176319     -1.70512281101874      1.07344287712829
  C          -1.74995923158247     -0.81572924727728      0.48858071658634
  O          -3.96782915560270      1.32626698624861     -1.18220000307579
  O          -4.85154121818409     -2.31666868918245      1.36813208464990
  C          -1.29423361696186      1.18889635643570     -0.91892116748013
  C          -1.26740259861118      2.54139916231077     -0.19567988789950
  C          -0.04908027272188      2.36222772527306      0.71084989329545
  C           0.88144252831217      1.54451088373137     -0.16927596127572
  O           0.58386767143275      3.53518082982812      1.13358532115214
  O           0.00800998660144      0.68877275024948     -0.91554437517609
  C           1.87567575746291      0.73215397933334      0.60788263610971
  O           2.73728203215721      0.05817865978582     -0.28921548195691
  P           3.81346452939738     -0.99759936224870      0.31833907851479
  O           4.49384102259935     -0.39972729543127      1.49913365221117
  O           2.86146333794504     -2.17227007354574      0.90928179291373
  O           4.57798500966227     -1.49609059253665     -0.85653946181190
  H          -5.35605033397971     -0.37428443433325     -0.05972493241269
  H          -2.18539685112683     -2.51772641878048      1.66820410143371
  H          -0.67500756873034     -0.88104858705150      0.57727449202350
  H          -1.65432169769187      1.30920587369228     -1.94206679088736
  H          -0.35673371503321      1.74864462837545      1.56799154099047
  H           1.40798076235434      2.20900331615657     -0.86394600676012
  H           0.06009820648551      3.93077464940377      1.83757995440008
  H           2.44645067223129      1.40952773355464      1.25169038697308
  H           1.34899006175894      0.01495630107370      1.24749475792563
  H           2.48132913302382     -2.70388491929681      0.20062198432367
  O          -1.01133874534948      3.58183859621035     -1.10272577256634
  H          -2.18719267996031      2.71453558430900      0.36826481692323
  H          -1.80394294515257      3.71677447880227     -1.63286940318239
