33
Coordinates from ORCA-job ump_geom E -1477.563291605553
  N      -2.200376      0.218934     -0.270723
  C      -3.546170      0.409081     -0.500099
  N      -4.365590     -0.507277      0.099107
  C      -3.995593     -1.582154      0.896454
  C      -2.574561     -1.705123      1.073443
  C      -1.749959     -0.815729      0.488581
  O      -3.967829      1.326267     -1.182200
  O      -4.851541     -2.316669      1.368132
  C      -1.294234      1.188896     -0.918921
  C      -1.267403      2.541399     -0.195680
  C      -0.049080      2.362228      0.710850
  C       0.881443      1.544511     -0.169276
  O       0.583868      3.535181      1.133585
  O       0.008010      0.688773     -0.915544
  C       1.875676      0.732154      0.607883
  O       2.737282      0.058179     -0.289215
  P       3.813465     -0.997599      0.318339
  O       4.493841     -0.399727      1.499134
  O       2.861463     -2.172270      0.909282
  O       4.577985     -1.496091     -0.856539
  H      -5.356050     -0.374284     -0.059725
  H      -2.185397     -2.517726      1.668204
  H      -0.675008     -0.881049      0.577274
  H      -1.654322      1.309206     -1.942067
  H      -0.356734      1.748645      1.567992
  H       1.407981      2.209003     -0.863946
  H       0.060098      3.930775      1.837580
  H       2.446451      1.409528      1.251690
  H       1.348990      0.014956      1.247495
  H       2.481329     -2.703885      0.200622
  O      -1.011339      3.581839     -1.102726
  H      -2.187193      2.714536      0.368265
  H      -1.803943      3.716774     -1.632869
33
Coordinates from ORCA-job ump_geom E -1477.563271534425
  N      -2.200410      0.218826     -0.270800
  C      -3.546208      0.409183     -0.500064
  N      -4.365713     -0.507077      0.099164
  C      -3.995807     -1.582066      0.896406
  C      -2.574774     -1.705330      1.073156
  C      -1.750072     -0.816023      0.488297
  O      -3.967804      1.326521     -1.181997
  O      -4.851822     -2.316433      1.368198
  C      -1.294134      1.188743     -0.918904
  C      -1.267418      2.541277     -0.195701
  C      -0.049091      2.362235      0.710907
  C       0.881468      1.544478     -0.169136
  O       0.583805      3.535237      1.133565
  O       0.008083      0.688531     -0.915196
  C       1.875854      0.732305      0.608033
  O       2.737470      0.058409     -0.289096
  P       3.813611     -0.997500      0.318227
  O       4.494453     -0.399642      1.498754
  O       2.861601     -2.171973      0.909585
  O       4.577697     -1.496202     -0.856838
  H      -5.356172     -0.373872     -0.059520
  H      -2.185673     -2.518061      1.667786
  H      -0.675125     -0.881525      0.576837
  H      -1.654023      1.308983     -1.942134
  H      -0.356715      1.748729      1.568113
  H       1.407977      2.208858     -0.863939
  H       0.060093      3.930782      1.837627
  H       2.446600      1.409789      1.251762
  H       1.349298      0.015136      1.247783
  H       2.481358     -2.703635      0.201012
  O      -1.011504      3.581727     -1.102777
  H      -2.187234      2.714353      0.368219
  H      -1.804109      3.716516     -1.632949
