163
Coordinates from ORCA-job /data/Seafile/amp/protonated/frames/frame10/dry/amp_prot10 E -13464.746622375202
  Si          3.54445867755193     33.95360882171006      7.83214715908856
  Si          3.45083386347619     30.86468558489817      7.87555025188429
  O           2.33317923915109     34.93132645984980      8.31493491171051
  O           2.06476606522386     30.20448373802551      8.41908368286327
  O           3.43766569656300     32.42624218613718      8.38410000951894
  O           3.65838607391364     33.87960286958149      6.19016532601809
  O           3.52947211660636     30.92493089769214      6.23149080140756
  Si          6.12280961838395     26.21052847826871      7.87661082022053
  Si          8.74254873198653     24.55813918840390      7.83211354114535
  O           4.68435731774615     25.64276200463421      8.39681298218076
  O           7.39015648298651     25.30441352518112      8.34831098663836
  O           8.66549664762686     23.02707821365729      8.39548496083085
  O           6.18476218430212     26.28295880103891      6.22445759918909
  O           8.68048496842972     24.62137301885803      6.18149171136307
  Si          6.08779170084720     29.27122131276063      7.82440531544652
  Si          6.18075097392515     35.52304143602742      7.77888927058098
  Si          8.91195822069228     33.89801761185990      7.75565868748125
  Si          8.84155153551308     30.83872689219333      7.74313198763550
  O           4.79616227878008     30.10200998012132      8.40289779974024
  O           4.91585283520532     34.68543531182616      8.36129745095160
  O           7.58187643959622     34.75529268094778      8.11710844142889
  O           7.44776898056525     30.12753696895094      8.12441251413857
  O           6.16290870188694     27.76119551365303      8.38924486529902
  O           8.83653425991901     32.37810804878766      8.33033000524036
  O           5.83812999777655     29.19793277008049      6.19499133472384
  O           5.99103561969577     35.69089818886963      6.15454357641731
  O           9.13859830373828     33.81360021801557      6.12763573133231
  O           8.99376773207806     31.01683000329704      6.11202512959085
  Si          6.24204950932903     38.60382550720858      7.83725335420502
  Si          8.97390995196143     40.05652187590709      7.83285090218985
  O           4.97089470812686     39.46855585929287      8.37063957033120
  O           7.58325971214056     39.39030926706786      8.36210287903821
  O           6.24484662957887     37.05159542980077      8.35913691093971
  O           9.23387959813509     41.57266851568264      8.36211014362940
  O           6.35273467068391     38.57095063304584      6.19595379191301
  O           8.97752857732411     39.96206382285247      6.18917651861205
  Si         11.44860436694646     26.05273514211163      7.69351399555691
  Si         14.18067811859659     24.54727857384983      7.78500776977701
  O          10.14017011633741     25.29397155215238      8.26230765669478
  O          12.85677812954948     25.38162044093288      8.22010848562789
  O          14.03481462292384     23.04209565543152      8.38779818100709
  O          11.39809476615804     25.77533420526238      6.06353379841350
  O          14.29451928217696     24.56018452690218      6.15067327265575
  Si         11.46952417314733     29.24566978597282      7.63320639914834
  Si         11.58489864805014     35.37652514304749      7.71254197975030
  Si         14.21141213652782     33.81545966006688      7.64259166626001
  Si         14.17008871584996     30.73186985525910      7.60017600056329
  O          10.17530261593676     30.03098535314315      8.25848763732424
  O          10.23271927107598     34.70868585331814      8.31972912070272
  O          12.95121656878849     34.63985175677389      8.27486385203844
  O          12.86950680527627     29.94875023673812      8.16377084553108
  O          11.48976005339217     27.66688430418245      7.91783465626626
  O          14.28215691390872     32.27434727755490      8.17274338739374
  O          11.38745710218694     29.54058365163291      6.01244599428201
  O          11.60085316769691     35.13872330083977      6.08894080042838
  O          14.06389652847948     33.76856598428454      6.01723846294048
  O          14.02450007599172     30.82702057850983      5.97032299888181
  Si         11.64458860101776     38.55445673147680      7.76385373221052
  Si         14.33192345726506     40.05105861419855      7.85935590193414
  O          10.27556577160398     39.19935242163000      8.35272047605478
  O          12.99905211745938     39.24849748347562      8.36724139653907
  O          11.69049461730189     36.95465269504776      8.07972939660208
  O          14.40239689301707     41.56618728777111      8.44049267474109
  O          11.70759245064280     38.83979312649350      6.14706314986376
  O          14.37237842253207     39.97634769474073      6.21730139481213
  Si         16.88211517733280     26.05720944784219      7.85026766910885
  O          15.54435860678148     25.27914229621691      8.38456757361595
  O          18.21581913811620     25.33984073249455      8.44887559417922
  O          16.82725635461297     26.02320128551503      6.20913904367478
  Si         16.91334213978475     29.13125395062639      7.69943251962884
  Si         16.98255022607224     35.37737699787288      7.72615951405573
  Si         19.62533619978139     33.80848544827236      7.83123348578761
  Si         19.58652468897874     30.70600220046788      7.77985199793608
  O          15.53296174587917     29.93718812518015      8.01201075008739
  O          15.61041594108381     34.56313466850860      8.08000038535618
  O          18.23145695665705     34.52312706757834      8.36496762183278
  O          18.18569528038561     30.00433491952584      8.23948432328755
  O          16.84524213419518     27.63139296930687      8.33055590345240
  O          19.62395530897168     32.25392026090547      8.34348981497995
  O          17.11581583444261     28.90944321590346      6.08340070333441
  O          17.26418891598979     35.46620050216963      6.11827845310501
  O          19.59185506283628     33.76910858805999      6.19491347287792
  O          19.60207479243817     30.75942095291666      6.14208218009377
  Si         16.96451163188686     38.43808562325216      7.81950164147604
  O          15.68612364102765     39.27857530300660      8.37424507782384
  O          18.40572740536336     38.99545357520379      8.32502621674355
  O          16.89527955760536     36.87800596016526      8.34666852895804
  O          16.85694119987745     38.37190021582536      6.17977483031505
  O          20.79902177062099     29.82978204424128      8.40554536767881
  O          20.93366102367166     34.56285947770333      8.42980899214577
  H           4.07465744524131     24.98677205722030      8.03659115404597
  H           1.41040895857570     29.60201497492147      8.03674925727673
  H           1.41040911256087     35.00798494304400      8.03674925622363
  H           4.07465740790075     39.62322799478502      8.03659116420024
  H           8.94818084060450     22.17325472119305      8.03830168995010
  H           8.94818087813272     42.43674529402838      8.03830168019244
  H          14.27776169355819     22.17320391882743      8.03828219538869
  H          14.27776174124144     42.43679610583992      8.03828219150198
  H          18.96055659308973     24.87622776023608      8.03640576919774
  H          18.96055650064716     39.73377221363123      8.03640577654830
  H          21.62471717271249     29.49141995188773      8.03658341410980
  H          21.62471723443749     35.11858007305887      8.03658341092935
  H          13.27177281655377     34.24125678391061      5.70306767362314
  H          10.77610383153691     34.71720141642395      5.77950691582225
  H           9.05036967286096     32.89797347755700      5.80247122355367
  H           9.73402293079632     30.50195383890923      5.74941234805646
  H          12.21335375303270     29.86189462478634      5.62765066128443
  H          14.09363242115534     31.72668742184274      5.62078932915111
  H          13.52895159061227     39.68925247984086      5.83223358078051
  H          10.86347620863048     39.13619566359208      5.77489832759189
  H           8.17515384462488     39.54690000486442      5.83686991829793
  H           6.19276241385314     37.68852282153299      5.82541588110668
  H           5.31344878160526     35.10464869083030      5.78555823382523
  H           3.62780488828474     32.96794415605687      5.85943376561748
  H           4.22672560945496     30.34624512763691      5.87943886123795
  H           5.97032291119482     28.30300746583077      5.84522503439943
  H           6.92643105668915     25.77436648033346      5.86504209580006
  H           9.51582806588095     24.91628552742238      5.79185587928380
  H          12.23481484733662     25.50120557678216      5.67428181574451
  H          15.09411182053211     24.99115743258276      5.81729397051467
  H          16.97266745371384     26.88957608423597      5.80086676112937
  H          17.76725001681489     29.48912888635692      5.67156594585546
  H          19.65488209825746     31.65223555538573      5.77511910490111
  H          18.91325482686509     34.33566432399312      5.79747621236033
  H          17.09480816415301     36.34289076618870      5.74027095676619
  H          16.09975201089437     38.86781291836209      5.83112284378741
  P           9.73497988452653     27.63794910096962     11.05826494194234
  O           9.28464275015150     27.19863701047508     12.39055898288187
  O           8.95056807087418     27.63492038428708      9.80405916059779
  O          10.36566163627290     29.15778267266838     11.22416417649580
  O          11.12907864047281     26.80913391187806     10.71163672724055
  C          11.97560473698510     26.53436864414993     11.78639050427698
  C          13.36678930273581     26.33269782123506     11.23311484089084
  O          13.82691325686787     27.51561970824650     10.54223592465466
  C          14.42721403167889     26.05788293293327     12.27410281121979
  O          15.55381834562450     25.36570184057070     11.76002273639966
  C          14.86746857778731     27.46859105074050     12.66276196715136
  O          16.12436875323881     27.53667129410879     13.25396311078777
  C          14.78774291229739     28.17087766016999     11.29704122208436
  N          14.45484161056458     29.58848595056044     11.38116027156003
  C          13.21311209548676     30.16281064152174     11.56014413188164
  N          13.25024243314727     31.47193695169900     11.52233910256559
  C          14.56076515780994     31.76530912879371     11.30244735100850
  C          15.17733955702658     32.97455876352247     11.00786648309042
  N          14.54580122097394     34.14491645915767     10.99254008113607
  N          16.49872683617592     32.87402458182390     10.71130480030993
  C          17.17517004236377     31.68585442617725     10.68690909850426
  N          16.64111558375278     30.53798752401850     10.93336216880587
  C          15.32934343317654     30.60404876212572     11.21000385004934
  H          10.18120433876771     29.61612365560994     10.39699832984784
  H          11.96195924648360     27.34599013253189     12.52594300681867
  H          11.65971875414999     25.62554813104699     12.31413884440083
  H          13.32163556539559     25.53772834654599     10.48895671444496
  H          14.04683277661227     25.49386594928960     13.12739732435612
  H          15.50973904319574     25.34956584605186     10.79685783381120
  H          14.14346655414159     27.91389639343844     13.35033919997993
  H          16.64318208245490     26.83046786977844     12.84357523283842
  H          15.77042535902329     28.14035186271858     10.81331654231444
  H          12.29915860047154     29.57832514737296     11.65167860791236
  H          13.54240295713820     34.11134673218854     11.09276497694117
  H          14.93287904686471     34.94557477282423     10.52167666718475
  H          18.22012832945044     31.76399944799038     10.41738786989492
  H          17.00583861761356     33.69059920583013     10.39494457550856
