159
Coordinates from ORCA-job /data/Seafile/ump/al_surf/frames/frame15/ump_al_frame15 E -13365.052134862786
  Si      3.556198     33.844764      7.822764
  Si      3.555900     30.766765      7.822841
  O       2.147255     34.479915      8.409739
  O       2.146835     30.131916      8.409848
  O       3.710045     32.305764      8.412803
  O       3.555208     33.846723      6.166764
  O       3.554911     30.764723      6.166841
  Si      6.219454     26.151507      7.822973
  Si      8.883306     24.614250      7.823028
  O       4.810389     25.516658      8.409980
  O       7.475364     25.249400      8.410004
  O       9.038154     23.075249      8.413067
  O       6.219465     26.149466      6.166973
  O       8.883317     24.616209      6.167028
  Si      6.219752     29.229507      7.822896
  Si      6.220346     35.381507      7.822742
  Si      8.884197     33.844250      7.822798
  Si      8.883900     30.766250      7.822875
  O       4.810809     29.864658      8.409871
  O       4.811281     34.746658      8.409749
  O       7.476255     34.479400      8.409773
  O       7.475835     30.131400      8.409882
  O       6.373599     27.690507      8.412936
  O       9.039045     32.305250      8.412837
  O       6.219762     29.231466      6.166896
  O       6.220357     35.379465      6.166742
  O       8.884208     33.846208      6.166798
  O       8.883911     30.764208      6.166875
  Si      6.220643     38.459507      7.822665
  Si      8.884792     39.996249      7.822643
  O       4.811701     39.094657      8.409640
  O       7.476727     39.361400      8.409650
  O       6.374491     36.920507      8.412704
  O       9.039937     41.535249      8.412605
  O       6.220654     38.461465      6.166665
  O       8.884802     39.994208      6.166643
  Si     11.548454     26.150992      7.823007
  Si     14.213306     24.613735      7.823063
  O      10.139389     25.516143      8.410014
  O      12.804363     25.248886      8.410038
  O      14.367154     23.074735      8.413102
  O      11.548465     26.148951      6.167007
  O      14.212317     24.615694      6.167062
  Si     11.548752     29.228992      7.822930
  Al     11.549346     35.380992      7.822776
  Si     14.214197     33.843735      7.822832
  Si     14.213900     30.765735      7.822909
  O      10.139809     29.864143      8.409906
  O      10.140281     34.746143      8.409783
  O      12.805255     34.478886      8.409807
  O      12.804835     30.130886      8.409916
  O      11.702599     27.689992      8.412970
  O      14.368045     32.304735      8.412871
  O      11.548762     29.230951      6.166930
  O      11.549356     35.378951      6.166776
  O      14.213208     33.845693      6.166832
  O      14.212910     30.763694      6.166909
  Si     11.549643     38.458992      7.822699
  Si     14.214792     39.995735      7.822677
  O      10.140701     39.094143      8.409674
  O      12.805727     39.360886      8.409684
  O      11.703491     36.919992      8.412739
  O      14.368937     41.534734      8.412639
  O      11.549654     38.460950      6.166699
  O      14.213802     39.993693      6.166677
  Si     16.877454     26.150478      7.823041
  O      15.468389     25.515628      8.410048
  O      18.133363     25.248371      8.410072
  O      16.877464     26.148436      6.167041
  Si     16.877751     29.228478      7.822964
  Si     16.878346     35.380477      7.822810
  Si     19.542197     33.843220      7.822866
  Si     19.541900     30.765220      7.822943
  O      15.468809     29.863628      8.409940
  O      15.469281     34.745628      8.409817
  O      18.134255     34.478371      8.409841
  O      18.133835     30.130371      8.409950
  O      17.031599     27.689477      8.413004
  O      19.697044     32.304220      8.412905
  O      16.877762     29.230436      6.166964
  O      16.878356     35.378436      6.166810
  O      19.542208     33.845179      6.166866
  O      19.541910     30.763178      6.166943
  Si     16.878643     38.458477      7.822733
  O      15.469701     39.093628      8.409708
  O      18.134726     39.360371      8.409718
  O      17.032491     36.919477      8.412772
  O      16.878654     38.460436      6.166733
  O      20.797808     29.863113      8.409973
  O      20.798280     34.745114      8.409851
  H       4.074657     24.986772      8.036591
  H       1.410409     29.602015      8.036749
  H       1.410409     35.007985      8.036749
  H       4.074657     39.623228      8.036591
  H       8.948181     22.173255      8.038302
  H       8.948181     42.436745      8.038302
  H      14.277762     22.173204      8.038282
  H      14.277762     42.436796      8.038282
  H      18.960557     24.876228      8.036406
  H      18.960557     39.733772      8.036406
  H      21.624717     29.491420      8.036583
  H      21.624717     35.118580      8.036583
  H      13.399228     34.285312      5.854632
  H      10.856032     34.892182      5.717216
  H       8.793167     32.973742      5.762199
  H       9.663580     30.351607      5.768956
  H      12.306298     29.686089      5.771239
  H      14.174301     31.653003      5.782863
  H      13.457009     39.527505      5.780931
  H      10.821852     38.958722      5.769769
  H       8.149808     39.508610      5.766274
  H       6.231947     37.581165      5.764713
  H       5.447050     34.950938      5.772575
  H       3.606649     32.968270      5.763887
  H       4.328192     30.344841      5.764020
  H       6.207547     28.349359      5.768184
  H       7.009433     25.757722      5.767489
  H       9.640471     25.065269      5.765118
  H      12.314771     25.708258      5.771883
  H      14.953939     25.091007      5.765977
  H      16.851704     27.026661      5.761468
  H      17.647683     29.664207      5.771424
  H      19.481809     31.641687      5.764900
  H      18.771410     34.273584      5.767909
  H      16.894820     36.260794      5.769147
  H      16.091527     38.860285      5.769512
  N       9.993270     29.726885     12.245640
  C      10.590563     28.898276     11.322004
  N       9.996979     27.679159     11.152606
  C       8.874388     27.183195     11.821162
  C       8.323106     28.128967     12.755385
  C       8.885147     29.343330     12.929146
  O      11.606128     29.216362     10.730511
  O       8.492728     26.046438     11.608722
  C      10.606662     31.064828     12.371979
  C      10.353004     31.884222     11.079584
  C       9.847466     33.252987     11.598153
  C       9.441121     32.965726     13.054879
  O      10.840906     34.231965     11.586182
  O      10.113152     31.766692     13.451938
  C       7.923598     32.877508     13.287317
  O       7.612248     32.974235     14.641318
  P       7.186340     31.581977     15.474507
  O       6.548500     30.622074     14.539582
  O       8.685093     30.980327     15.854180
  O       6.556442     32.054002     16.733849
  H      10.410204     27.095219     10.433209
  H       7.445921     27.861530     13.316830
  H       8.484239     30.047762     13.647317
  H      11.686524     30.892821     12.501849
  H       8.987647     33.574157     10.994871
  H       9.834012     33.759449     13.701038
  H      11.191913     34.293407     10.682098
  H       7.449461     33.724722     12.775774
  H       7.521959     31.942618     12.880636
  H       9.045059     31.638018     16.441687
  O      11.488875     32.064169     10.299792
  H       9.549336     31.391819     10.516472
  H      11.809264     31.206205      9.991258
159
Coordinates from ORCA-job /data/Seafile/ump/al_surf/frames/frame15/ump_al_frame15 E -13365.093524665363
  Si      3.531121     33.838707      7.800762
  Si      3.537613     30.756708      7.802072
  O       2.140591     34.477424      8.404735
  O       2.142441     30.128443      8.405971
  O       3.691424     32.297502      8.377956
  O       3.523847     33.845094      6.151758
  O       3.517983     30.767595      6.153362
  Si      6.210523     26.129656      7.804543
  Si      8.884972     24.596624      7.807915
  O       4.808912     25.511815      8.405660
  O       7.478218     25.239725      8.382306
  O       9.041460     23.070637      8.409200
  O       6.199344     26.119268      6.155707
  O       8.863590     24.594446      6.159147
  Si      6.203375     29.209885      7.764874
  Si      6.194437     35.383181      7.764721
  Si      8.874968     33.840048      7.737224
  Si      8.880816     30.753980      7.733700
  O       4.809043     29.860517      8.361505
  O       4.798228     34.734531      8.361120
  O       7.459770     34.476897      8.311394
  O       7.471824     30.115458      8.310149
  O       6.364265     27.677297      8.362195
  O       9.017649     32.292594      8.312373
  O       6.153653     29.195271      6.118714
  O       6.154793     35.422743      6.118207
  O       8.894056     33.839242      6.087637
  O       8.893615     30.759556      6.086485
  Si      6.204227     38.466027      7.800762
  Si      8.871375     40.015158      7.806176
  O       4.805839     39.092299      8.402591
  O       7.466141     39.360729      8.380622
  O       6.358480     36.916462      8.359317
  O       9.034439     41.539853      8.409346
  O       6.214434     38.495481      6.151882
  O       8.873277     40.030063      6.156892
  Si     11.556715     26.130252      7.779231
  Si     14.227114     24.595338      7.808701
  O      10.148651     25.504415      8.369056
  O      12.816165     25.241169      8.372129
  O      14.371806     23.069003      8.410762
  O      11.541721     26.090201      6.132773
  O      14.220251     24.594052      6.159833
  Si     11.555245     29.219201      7.767989
  Al     11.546830     35.384519      7.744825
  Si     14.217539     33.843382      7.757429
  Si     14.222821     30.763447      7.760350
  O      10.139635     29.859909      8.325970
  O      10.115461     34.733532      8.325231
  O      12.823038     34.474124      8.336272
  O      12.814618     30.124146      8.343204
  O      11.702138     27.675423      8.346770
  O      14.376054     32.301397      8.338609
  O      11.546820     29.229782      6.121130
  O      11.559183     35.372787      6.069461
  O      14.203115     33.821897      6.106962
  O      14.203344     30.753143      6.112920
  Si     11.545044     38.479087      7.782753
  Si     14.215663     40.015285      7.808923
  O      10.133287     39.114193      8.368085
  O      12.804610     39.373765      8.373343
  O      11.697688     36.945738      8.339973
  O      14.367236     41.539865      8.411409
  O      11.555392     38.531740      6.133294
  O      14.234132     40.022003      6.159394
  Si     16.893064     26.137299      7.809872
  O      15.481687     25.502788      8.383926
  O      18.138378     25.243844      8.409069
  O      16.888114     26.115842      6.161080
  Si     16.898105     29.219869      7.781110
  Si     16.897121     35.393722      7.774490
  Si     19.560368     33.849251      7.807237
  Si     19.562587     30.764844      7.809230
  O      15.481368     29.861633      8.334770
  O      15.484558     34.744987      8.325955
  O      18.144368     34.488260      8.365607
  O      18.148239     30.125343      8.370144
  O      17.034851     27.685240      8.375855
  O      19.703235     32.308350      8.388522
  O      16.928676     29.190775      6.134789
  O      16.949402     35.403533      6.127854
  O      19.580369     33.831656      6.158400
  O      19.569997     30.755145      6.160270
  Si     16.886441     38.477706      7.807183
  O      15.472499     39.109593      8.382489
  O      18.137262     39.365252      8.407075
  O      17.033385     36.930567      8.370869
  O      16.889793     38.478621      6.158161
  O      20.800985     29.859636      8.406555
  O      20.802540     34.748607      8.406240
  H       4.074657     24.986772      8.036591
  H       1.410409     29.602015      8.036749
  H       1.410409     35.007985      8.036749
  H       4.074657     39.623228      8.036591
  H       8.948181     22.173255      8.038302
  H       8.948181     42.436745      8.038302
  H      14.277762     22.173204      8.038282
  H      14.277762     42.436796      8.038282
  H      18.960557     24.876228      8.036406
  H      18.960557     39.733772      8.036406
  H      21.624717     29.491420      8.036583
  H      21.624717     35.118580      8.036583
  H      13.387854     34.253572      5.792788
  H      10.867730     34.882787      5.619049
  H       8.805643     32.966933      5.683136
  H       9.677110     30.353848      5.691498
  H      12.299592     29.686261      5.721350
  H      14.156710     31.637725      5.722531
  H      13.483015     39.558362      5.761228
  H      10.832723     39.044963      5.747275
  H       8.139669     39.547639      5.750594
  H       6.225404     37.623088      5.734382
  H       5.373528     35.003483      5.731163
  H       3.571717     32.968241      5.745827
  H       4.286054     30.351344      5.737954
  H       6.127695     28.310039      5.728798
  H       6.986367     25.725818      5.752727
  H       9.615752     25.039928      5.745159
  H      12.303796     25.640427      5.740446
  H      14.962978     25.064353      5.755149
  H      16.861545     26.988272      5.744420
  H      17.706284     29.615372      5.745127
  H      19.506783     31.630899      5.753443
  H      18.815728     34.255363      5.744180
  H      16.972252     36.287912      5.736269
  H      16.104296     38.879258      5.758939
  N       9.967436     29.732288     12.171970
  C      10.582115     28.898342     11.266060
  N       9.992427     27.679258     11.095423
  C       8.866257     27.184516     11.753312
  C       8.292951     28.131204     12.668432
  C       8.852224     29.346733     12.840593
  O      11.600845     29.217440     10.676247
  O       8.479300     26.048471     11.532195
  C      10.573482     31.076869     12.297447
  C      10.345254     31.885608     11.001647
  C       9.834905     33.254433     11.493945
  C       9.393333     32.995515     12.935824
  O      10.832093     34.236617     11.489414
  O      10.046057     31.789343     13.359012
  C       7.873725     32.963972     13.118572
  O       7.483204     33.141599     14.462326
  P       6.884819     31.887716     15.380252
  O       6.219362     30.902094     14.492697
  O       8.259047     31.174275     15.946571
  O       6.199173     32.544676     16.521886
  H      10.420606     27.091332     10.389566
  H       7.408448     27.859960     13.223730
  H       8.437555     30.057733     13.539652
  H      11.645041     30.912576     12.453958
  H       8.988288     33.569835     10.873320
  H       9.786266     33.793220     13.572949
  H      11.191365     34.284350     10.592155
  H       7.470592     33.813261     12.556345
  H       7.450237     32.040556     12.710937
  H       8.668599     31.837634     16.512986
  O      11.493052     32.057842     10.238230
  H       9.550614     31.396204     10.429490
  H      11.804171     31.196346      9.930592
159
Coordinates from ORCA-job /data/Seafile/ump/al_surf/frames/frame15/ump_al_frame15 E -13365.126670520815
  Si      3.506220     33.833874      7.785691
  Si      3.518676     30.747191      7.786364
  O       2.134945     34.473441      8.403609
  O       2.139215     30.127361      8.405562
  O       3.670227     32.289786      8.345587
  O       3.496388     33.845038      6.145358
  O       3.485146     30.770051      6.146757
  Si      6.199888     26.109778      7.791758
  Si      8.884908     24.579103      7.796975
  O       4.808433     25.508117      8.405014
  O       7.478153     25.229113      8.354213
  O       9.043474     23.068347      8.408113
  O       6.178588     26.094111      6.151829
  O       8.844507     24.577292      6.157257
  Si      6.187583     29.190794      7.718063
  Si      6.169187     35.383750      7.723151
  Si      8.862597     33.834560      7.674802
  Si      8.876490     30.740204      7.666322
  O       4.805058     29.855500      8.316514
  O       4.784227     34.721674      8.320468
  O       7.439808     34.475403      8.231797
  O       7.466119     30.096153      8.224584
  O       6.353811     27.664431      8.317682
  O       8.994347     32.277055      8.231120
  O       6.094558     29.163693      6.084956
  O       6.097494     35.460591      6.089407
  O       8.901710     33.831987      6.033153
  O       8.902758     30.754820      6.030278
  Si      6.187837     38.472090      7.783696
  Si      8.859747     40.034225      7.794614
  O       4.802206     39.089474      8.398872
  O       7.455657     39.361568      8.351987
  O       6.340886     36.914149      8.313724
  O       9.030534     41.542569      8.409247
  O       6.212432     38.523806      6.143988
  O       8.863705     40.065628      6.153752
  Si     11.563218     26.110741      7.746462
  Si     14.238839     24.577251      7.798720
  O      10.156056     25.491129      8.333240
  O      12.826039     25.232573      8.338508
  O      14.376030     23.065961      8.411390
  O      11.534108     26.040635      6.112494
  O      14.224055     24.575526      6.158725
  Si     11.561537     29.207256      7.727195
  Al     11.542090     35.386800      7.686535
  Si     14.220021     33.840128      7.712860
  Si     14.233550     30.758413      7.714343
  O      10.139801     29.851796      8.257310
  O      10.079611     34.717317      8.263922
  O      12.846247     34.462585      8.284693
  O      12.824449     30.114231      8.289630
  O      11.701940     27.659611      8.293544
  O      14.383099     32.293249      8.281916
  O      11.544014     29.224318      6.091372
  O      11.566872     35.357432      5.982596
  O      14.195487     33.795586      6.068913
  O      14.195904     30.738846      6.077657
  Si     11.541291     38.498132      7.751813
  Si     14.216932     40.034765      7.799614
  O      10.125924     39.135262      8.330701
  O      12.805373     39.388079      8.340717
  O      11.689987     36.981687      8.281403
  O      14.364959     41.542773      8.413158
  O      11.560980     38.597040      6.111153
  O      14.253416     40.048543      6.158127
  Si     16.908339     26.122980      7.799384
  O      15.494375     25.488976      8.358148
  O      18.140725     25.239942      8.410848
  O      16.897298     26.084576      6.159621
  Si     16.919315     29.210382      7.745343
  Si     16.915085     35.402906      7.736117
  Si     19.578635     33.854437      7.795734
  Si     19.583733     30.763318      7.798379
  O      15.498356     29.858806      8.268454
  O      15.501962     34.742461      8.253385
  O      18.155632     34.495461      8.326162
  O      18.163572     30.119156      8.332606
  O      17.039964     27.679325      8.338427
  O      19.710609     32.310967      8.363597
  O      16.976853     29.153981      6.111645
  O      17.014949     35.421759      6.102124
  O      19.617521     33.818911      6.156087
  O      19.598656     30.745940      6.158200
  Si     16.895154     38.494480      7.793149
  O      15.477074     39.124572      8.354610
  O      18.137695     39.367901      8.405876
  O      17.035348     36.939789      8.330122
  O      16.899036     38.490920      6.152745
  O      20.802035     29.856233      8.405553
  O      20.804107     34.751261      8.405808
  H       4.074657     24.986772      8.036591
  H       1.410409     29.602015      8.036749
  H       1.410409     35.007985      8.036749
  H       4.074657     39.623228      8.036591
  H       8.948181     22.173255      8.038302
  H       8.948181     42.436745      8.038302
  H      14.277762     22.173204      8.038282
  H      14.277762     42.436796      8.038282
  H      18.960557     24.876228      8.036406
  H      18.960557     39.733772      8.036406
  H      21.624717     29.491420      8.036583
  H      21.624717     35.118580      8.036583
  H      13.381545     34.220159      5.747335
  H      10.876427     34.862066      5.536241
  H       8.815468     32.960647      5.627070
  H       9.689415     30.356156      5.636369
  H      12.292328     29.680248      5.684453
  H      14.141536     31.617752      5.678100
  H      13.507101     39.588379      5.748034
  H      10.842518     39.123436      5.735200
  H       8.131202     39.587070      5.741260
  H       6.222042     37.658397      5.713008
  H       5.311232     35.048119      5.706003
  H       3.540808     32.969807      5.735889
  H       4.247986     30.356101      5.720357
  H       6.056718     28.276734      5.700512
  H       6.962674     25.699094      5.744906
  H       9.592424     25.019126      5.732643
  H      12.292793     25.585340      5.720275
  H      14.967637     25.041270      5.750191
  H      16.871284     26.951784      5.732567
  H      17.760745     29.571133      5.726561
  H      19.533567     31.619235      5.746372
  H      18.859763     34.239282      5.726966
  H      17.042107     36.307396      5.714041
  H      16.114569     38.892182      5.751978
  N       9.954696     29.739361     12.105592
  C      10.572235     28.898323     11.212091
  N       9.980533     27.682217     11.046601
  C       8.851451     27.197799     11.703098
  C       8.271888     28.148285     12.609989
  C       8.835541     29.362829     12.772917
  O      11.593562     29.216076     10.623223
  O       8.460126     26.059671     11.490119
  C      10.561886     31.083248     12.223161
  C      10.345887     31.889481     10.928690
  C       9.820791     33.251882     11.406725
  C       9.353969     32.985938     12.832690
  O      10.815931     34.242840     11.415326
  O      10.007289     31.786771     13.274550
  C       7.842521     32.920562     12.962267
  O       7.401361     33.057161     14.299836
  P       6.823466     31.782434     15.163900
  O       6.224831     30.788750     14.236778
  O       8.178893     31.091718     15.766132
  O       6.060877     32.399149     16.279640
  H      10.412502     27.090596     10.345793
  H       7.383380     27.879721     13.163306
  H       8.423775     30.087481     13.462633
  H      11.627871     30.922056     12.398131
  H       8.983039     33.562051     10.773974
  H       9.711714     33.791700     13.478602
  H      11.183595     34.283388     10.521920
  H       7.440631     33.769787     12.401836
  H       7.452624     32.001150     12.515422
  H       8.575600     31.735246     16.371241
  O      11.499855     32.057961     10.174287
  H       9.557058     31.399683     10.352581
  H      11.800704     31.190004      9.871794
159
Coordinates from ORCA-job /data/Seafile/ump/al_surf/frames/frame15/ump_al_frame15 E -13365.144576459526
  Si      3.485209     33.829591      7.779204
  Si      3.502978     30.739663      7.779695
  O       2.130271     34.470156      8.408102
  O       2.135784     30.128578      8.410689
  O       3.650589     32.283997      8.322313
  O       3.474891     33.843696      6.144850
  O       3.460552     30.771073      6.146440
  Si      6.190005     26.092940      7.784009
  Si      8.884357     24.564679      7.790405
  O       4.807819     25.505536      8.408335
  O       7.477623     25.221938      8.329044
  O       9.044647     23.067376      8.410503
  O       6.161146     26.074080      6.150235
  O       8.829355     24.565020      6.157066
  Si      6.172539     29.173205      7.686339
  Si      6.147332     35.383627      7.693893
  Si      8.850257     33.827022      7.631023
  Si      8.870678     30.725637      7.617489
  O       4.801547     29.853716      8.283394
  O       4.773096     34.709872      8.289836
  O       7.421229     34.474418      8.166495
  O       7.459916     30.075718      8.154880
  O       6.342583     27.652705      8.284025
  O       8.967332     32.260798      8.167725
  O       6.045589     29.135692      6.063078
  O       6.047240     35.491451      6.070041
  O       8.904827     33.817805      5.994749
  O       8.910095     30.744073      5.989455
  Si      6.174973     38.476699      7.773043
  Si      8.850441     40.051899      7.788454
  O       4.800313     39.086420      8.399604
  O       7.449383     39.361106      8.327829
  O       6.325437     36.912549      8.277206
  O       9.027479     41.545395      8.413950
  O       6.210685     38.544093      6.140074
  O       8.852304     40.097882      6.153515
  Si     11.567517     26.094475      7.721397
  Si     14.247481     24.561707      7.792377
  O      10.161258     25.479576      8.304042
  O      12.833696     25.227414      8.309740
  O      14.378949     23.063965      8.415050
  O      11.527989     25.998335      6.096974
  O      14.226698     24.560664      6.158510
  Si     11.566067     29.197822      7.701747
  Al     11.540591     35.386739      7.642431
  Si     14.226443     33.833561      7.682744
  Si     14.243545     30.752262      7.680945
  O      10.138558     29.844916      8.205286
  O      10.048414     34.700786      8.220171
  O      12.872553     34.452312      8.250516
  O      12.834479     30.102828      8.250285
  O      11.698371     27.645735      8.249014
  O      14.394522     32.281972      8.239151
  O      11.543958     29.221857      6.073153
  O      11.580243     35.329690      5.911308
  O      14.193826     33.767765      6.042751
  O      14.187271     30.727422      6.051957
  Si     11.539924     38.519072      7.729186
  Si     14.220235     40.053436      7.794516
  O      10.122247     39.158133      8.300209
  O      12.809600     39.403641      8.314366
  O      11.684883     37.016057      8.230907
  O      14.366462     41.546799      8.418390
  O      11.565402     38.663518      6.095693
  O      14.271218     40.071943      6.158469
  Si     16.920379     26.109312      7.792094
  O      15.504437     25.474757      8.335348
  O      18.140354     25.234289      8.415348
  O      16.905320     26.059359      6.158656
  Si     16.937575     29.200132      7.717592
  Si     16.932882     35.409423      7.706706
  Si     19.595490     33.856857      7.786880
  Si     19.600893     30.759368      7.791068
  O      15.514030     29.854329      8.210300
  O      15.523155     34.734492      8.190380
  O      18.168623     34.500463      8.292555
  O      18.176108     30.110511      8.301524
  O      17.040794     27.671641      8.306219
  O      19.715129     32.310151      8.339856
  O      17.018718     29.123065      6.093240
  O      17.071720     35.439163      6.082448
  O      19.646846     33.806908      6.153907
  O      19.622830     30.736968      6.157067
  Si     16.903173     38.507936      7.784518
  O      15.483600     39.139313      8.331177
  O      18.138056     39.369477      8.408346
  O      17.035975     36.946032      8.295798
  O      16.907897     38.501168      6.150116
  O      20.801605     29.851614      8.408020
  O      20.805464     34.751342      8.408578
  H       4.074657     24.986772      8.036591
  H       1.410409     29.602015      8.036749
  H       1.410409     35.007985      8.036749
  H       4.074657     39.623228      8.036591
  H       8.948181     22.173255      8.038302
  H       8.948181     42.436745      8.038302
  H      14.277762     22.173204      8.038282
  H      14.277762     42.436796      8.038282
  H      18.960557     24.876228      8.036406
  H      18.960557     39.733772      8.036406
  H      21.624717     29.491420      8.036583
  H      21.624717     35.118580      8.036583
  H      13.383650     34.190924      5.709184
  H      10.887100     34.827201      5.476890
  H       8.816256     32.946957      5.588366
  H       9.699092     30.349132      5.595945
  H      12.291364     29.672310      5.658614
  H      14.128927     31.601848      5.642998
  H      13.526717     39.619136      5.737687
  H      10.848766     39.198486      5.729596
  H       8.120764     39.622413      5.736425
  H       6.212462     37.684462      5.697932
  H       5.259627     35.080878      5.687734
  H       3.514009     32.970065      5.731870
  H       4.216728     30.355023      5.710894
  H       5.999845     28.248508      5.680289
  H       6.942238     25.677619      5.739346
  H       9.575904     24.999222      5.722874
  H      12.285604     25.542891      5.703169
  H      14.972342     25.019483      5.746353
  H      16.884767     26.922230      5.722855
  H      17.805356     29.536817      5.710540
  H      19.558697     31.607947      5.740668
  H      18.897897     34.230534      5.712899
  H      17.095987     36.325533      5.696256
  H      16.126970     38.906774      5.747288
  N       9.935551     29.741599     12.059869
  C      10.562296     28.895553     11.178070
  N       9.973412     27.678118     11.013041
  C       8.842427     27.197339     11.664464
  C       8.250104     28.149881     12.560226
  C       8.810981     29.366079     12.720087
  O      11.585682     29.213423     10.590110
  O       8.451058     26.058098     11.453120
  C      10.539317     31.089777     12.178358
  C      10.343182     31.890368     10.879892
  C       9.810722     33.253281     11.341211
  C       9.314796     32.995766     12.756812
  O      10.808556     34.244747     11.361799
  O       9.955814     31.795213     13.217088
  C       7.803876     32.932069     12.845391
  O       7.328927     33.074096     14.172046
  P       6.719587     31.829001     15.025552
  O       6.131600     30.826091     14.098177
  O       8.032914     31.117092     15.665418
  O       5.926611     32.466445     16.109901
  H      10.412320     27.083517     10.318850
  H       7.359142     27.879408     13.107121
  H       8.393816     30.097666     13.397449
  H      11.602320     30.932769     12.375856
  H       8.986847     33.564667     10.692063
  H       9.660222     33.804174     13.406705
  H      11.184756     34.275865     10.471199
  H       7.415006     33.779717     12.273845
  H       7.421066     32.013526     12.390504
  H       8.451121     31.731937     16.281550
  O      11.506072     32.053606     10.135726
  H       9.559862     31.400824     10.296374
  H      11.798322     31.182194      9.833519
159
Coordinates from ORCA-job /data/Seafile/ump/al_surf/frames/frame15/ump_al_frame15 E -13365.154904207648
  Si      3.467896     33.826994      7.781748
  Si      3.489902     30.734995      7.782719
  O       2.124525     34.472156      8.418101
  O       2.128482     30.129913      8.420136
  O       3.630836     32.281113      8.311891
  O       3.459444     33.843197      6.149190
  O       3.444192     30.771285      6.151493
  Si      6.180262     26.078489      7.782182
  Si      8.882249     24.552691      7.791412
  O       4.804150     25.501358      8.415539
  O       7.476575     25.219457      8.312284
  O       9.041198     23.063387      8.417785
  O       6.146950     26.059348      6.150330
  O       8.820140     24.556540      6.160144
  Si      6.156651     29.157784      7.672446
  Si      6.128872     35.384974      7.679990
  Si      8.839722     33.818971      7.616743
  Si      8.863637     30.712678      7.592580
  O       4.799191     29.859505      8.267812
  O       4.764180     34.700532      8.273815
  O       7.405614     34.476381      8.123587
  O       7.454110     30.052944      8.106958
  O       6.325421     27.641607      8.266132
  O       8.930219     32.246029      8.134503
  O       6.005236     29.111749      6.053409
  O       6.006034     35.515726      6.060714
  O       8.908576     33.798410      5.982261
  O       8.920547     30.732945      5.967635
  Si      6.165787     38.481160      7.773615
  Si      8.843248     40.067462      7.794469
  O       4.797800     39.088704      8.406253
  O       7.448120     39.357544      8.316851
  O       6.309968     36.912907      8.257368
  O       9.018733     41.552534      8.426993
  O       6.208853     38.556039      6.143155
  O       8.842956     40.120905      6.161418
  Si     11.567506     26.080516      7.709962
  Si     14.251002     24.548134      7.793058
  O      10.162992     25.467113      8.289377
  O      12.839865     25.228191      8.294046
  O      14.376415     23.058861      8.423157
  O      11.521005     25.962128      6.089845
  O      14.225115     24.548673      6.161070
  Si     11.566981     29.193228      7.702722
  Al     11.546698     35.382921      7.635690
  Si     14.238569     33.822133      7.692833
  Si     14.250062     30.744653      7.675512
  O      10.135742     29.844841      8.180697
  O      10.031353     34.683862      8.210987
  O      12.900602     34.450386      8.262383
  O      12.845011     30.086371      8.242088
  O      11.682244     27.633864      8.220763
  O      14.412326     32.265943      8.233579
  O      11.550031     29.234300      6.076002
  O      11.611256     35.289016      5.886514
  O      14.192767     33.738715      6.053902
  O      14.169857     30.730648      6.049594
  Si     11.542416     38.542839      7.729802
  Si     14.228601     40.070339      7.801508
  O      10.124480     39.186431      8.290830
  O      12.819360     39.420967      8.308503
  O      11.683984     37.041894      8.208171
  O      14.380727     41.556297      8.428382
  O      11.571732     38.722563      6.099627
  O      14.286793     40.085248      6.166959
  Si     16.928295     26.093764      7.790738
  O      15.512216     25.456219      8.321575
  O      18.139312     25.220877      8.421542
  O      16.911288     26.040295      6.159355
  Si     16.950614     29.186360      7.706442
  Si     16.950836     35.412259      7.705508
  Si     19.611778     33.854508      7.790301
  Si     19.612046     30.750940      7.792741
  O      15.525033     29.843469      8.172908
  O      15.550901     34.716113      8.164394
  O      18.188380     34.506650      8.283430
  O      18.185977     30.095073      8.286592
  O      17.034705     27.658544      8.288505
  O      19.714867     32.303357      8.327548
  O      17.048622     29.096824      6.085616
  O      17.112582     35.450985      6.085023
  O      19.661226     33.795401      6.159546
  O      19.635956     30.728436      6.160742
  Si     16.911525     38.515536      7.792324
  O      15.495252     39.156016      8.325510
  O      18.145035     39.368203      8.419029
  O      17.032896     36.948999      8.287180
  O      16.916649     38.502311      6.159799
  O      20.802475     29.842352      8.414983
  O      20.816686     34.742003      8.419441
  H       4.074657     24.986772      8.036591
  H       1.410409     29.602015      8.036749
  H       1.410409     35.007985      8.036749
  H       4.074657     39.623228      8.036591
  H       8.948181     22.173255      8.038302
  H       8.948181     42.436745      8.038302
  H      14.277762     22.173204      8.038282
  H      14.277762     42.436796      8.038282
  H      18.960557     24.876228      8.036406
  H      18.960557     39.733772      8.036406
  H      21.624717     29.491420      8.036583
  H      21.624717     35.118580      8.036583
  H      13.395213     34.179858      5.711562
  H      10.908885     34.785342      5.467245
  H       8.809253     32.927878      5.577837
  H       9.708647     30.331605      5.578119
  H      12.309986     29.663205      5.661371
  H      14.120544     31.606063      5.640949
  H      13.530453     39.657858      5.741267
  H      10.844821     39.245494      5.737708
  H       8.114007     39.644378      5.741625
  H       6.173678     37.700973      5.693905
  H       5.231028     35.084862      5.675747
  H       3.481613     32.970744      5.733107
  H       4.185391     30.335326      5.710150
  H       5.967887     28.225286      5.668944
  H       6.923830     25.658479      5.736369
  H       9.577956     24.963126      5.719476
  H      12.287130     25.525425      5.692380
  H      14.979491     24.988425      5.745099
  H      16.916544     26.900616      5.718725
  H      17.827091     29.523402      5.701494
  H      19.582106     31.598620      5.742236
  H      18.932627     34.248731      5.714409
  H      17.107078     36.335889      5.696073
  H      16.148111     38.926919      5.753750
  N       9.905563     29.743725     12.069524
  C      10.545811     28.893229     11.201480
  N       9.961864     27.671837     11.037714
  C       8.830175     27.190790     11.685398
  C       8.224934     28.145070     12.570153
  C       8.777220     29.365601     12.723510
  O      11.570589     29.210814     10.614112
  O       8.445486     26.047941     11.480618
  C      10.493947     31.100693     12.187537
  C      10.335997     31.884364     10.875382
  C       9.789644     33.250353     11.300902
  C       9.221781     33.001360     12.689190
  O      10.791562     34.237488     11.361834
  O       9.850256     31.809321     13.191046
  C       7.710198     32.917128     12.682801
  O       7.151341     32.984902     13.983534
  P       6.470236     31.717822     14.725462
  O       5.927844     30.769940     13.713106
  O       7.714655     30.941006     15.410372
  O       5.608514     32.312862     15.782998
  H      10.402807     27.075419     10.345733
  H       7.332177     27.870645     13.112387
  H       8.351698     30.103638     13.388430
  H      11.548724     30.960217     12.433159
  H       9.001673     33.564445     10.610640
  H       9.520601     33.818386     13.350648
  H      11.199885     34.259648     10.485333
  H       7.344117     33.789500     12.134477
  H       7.365130     32.021754     12.157339
  H       8.121567     31.484582     16.096540
  O      11.516875     32.043895     10.158188
  H       9.568884     31.389413     10.276565
  H      11.801803     31.172341      9.850468
159
Coordinates from ORCA-job /data/Seafile/ump/al_surf/frames/frame15/ump_al_frame15 E -13365.161565033510
  Si      3.457760     33.826646      7.791283
  Si      3.482092     30.734068      7.793508
  O       2.120689     34.477536      8.432488
  O       2.121572     30.131030      8.433631
  O       3.614820     32.281684      8.313433
  O       3.451658     33.843408      6.157215
  O       3.437157     30.771304      6.160949
  Si      6.172807     26.070440      7.785431
  Si      8.879197     24.545670      7.793761
  O       4.801032     25.496958      8.426832
  O       7.476786     25.223554      8.302083
  O       9.034733     23.060519      8.427163
  O       6.136278     26.052833      6.152306
  O       8.815017     24.551230      6.161308
  Si      6.143360     29.148108      7.674074
  Si      6.116519     35.387958      7.678110
  Si      8.832498     33.812630      7.619400
  Si      8.857036     30.704830      7.586556
  O       4.800303     29.872638      8.268570
  O       4.760645     34.694270      8.271429
  O       7.396676     34.481212      8.098216
  O       7.451196     30.032861      8.080484
  O       6.306837     27.635073      8.263548
  O       8.890408     32.236807      8.123637
  O       5.974841     29.095340      6.054566
  O       5.975265     35.533296      6.058956
  O       8.913218     33.781652      5.983788
  O       8.930695     30.725918      5.960914
  Si      6.161900     38.484501      7.780829
  Si      8.839584     40.078056      7.806767
  O       4.797745     39.094889      8.417170
  O       7.452468     39.350449      8.314961
  O       6.298253     36.914720      8.251655
  O       9.004852     41.559894      8.445574
  O       6.208326     38.559737      6.149418
  O       8.837013     40.134889      6.172437
  Si     11.563498     26.072815      7.704001
  Si     14.248485     24.540319      7.796290
  O      10.161677     25.457746      8.281857
  O      12.843124     25.237810      8.286108
  O      14.366614     23.055493      8.434134
  O      11.514029     25.933489      6.084059
  O      14.219990     24.540342      6.162828
  Si     11.564808     29.196100      7.711962
  Al     11.557851     35.376675      7.652227
  Si     14.251817     33.809051      7.723161
  Si     14.252360     30.738096      7.684116
  O      10.134141     29.852677      8.174544
  O      10.026749     34.667828      8.222972
  O      12.927808     34.456457      8.302597
  O      12.854296     30.068734      8.249674
  O      11.658422     27.629630      8.196646
  O      14.431428     32.249766      8.249258
  O      11.558539     29.263941      6.083174
  O      11.653827     35.243298      5.894102
  O      14.185533     33.713197      6.083124
  O      14.146497     30.746566      6.058005
  Si     11.547717     38.565145      7.742768
  Si     14.240501     40.080868      7.814150
  O      10.132188     39.213590      8.295308
  O      12.832462     39.434384      8.315770
  O      11.685476     37.058268      8.202803
  O      14.406263     41.565136      8.440288
  O      11.578878     38.767497      6.112114
  O      14.298422     40.087745      6.178162
  Si     16.930625     26.079831      7.791980
  O      15.515715     25.438494      8.314070
  O      18.135616     25.204817      8.428872
  O      16.915152     26.027268      6.159447
  Si     16.956962     29.172080      7.703432
  Si     16.966746     35.409724      7.718560
  Si     19.624730     33.847292      7.799735
  Si     19.615695     30.739811      7.797152
  O      15.530107     29.831075      8.148167
  O      15.578757     34.691304      8.159754
  O      18.209442     34.511545      8.289687
  O      18.190682     30.076536      8.281175
  O      17.022243     27.644529      8.280335
  O      19.708960     32.291897      8.322166
  O      17.068189     29.075763      6.081466
  O      17.140752     35.455801      6.097003
  O      19.665182     33.785545      6.167785
  O      19.639825     30.721173      6.163921
  Si     16.918996     38.514543      7.806482
  O      15.509499     39.167913      8.329919
  O      18.155254     39.360443      8.433583
  O      17.026133     36.945912      8.293186
  O      16.923668     38.494400      6.172464
  O      20.801500     29.830715      8.423775
  O      20.833784     34.721864      8.435652
  H       4.074657     24.986772      8.036591
  H       1.410409     29.602015      8.036749
  H       1.410409     35.007985      8.036749
  H       4.074657     39.623228      8.036591
  H       8.948181     22.173255      8.038302
  H       8.948181     42.436745      8.038302
  H      14.277762     22.173204      8.038282
  H      14.277762     42.436796      8.038282
  H      18.960557     24.876228      8.036406
  H      18.960557     39.733772      8.036406
  H      21.624717     29.491420      8.036583
  H      21.624717     35.118580      8.036583
  H      13.400735     34.178070      5.738594
  H      10.937025     34.746579      5.489893
  H       8.806456     32.910592      5.582166
  H       9.717117     30.314258      5.577513
  H      12.337000     29.667532      5.675822
  H      14.115359     31.628311      5.658905
  H      13.520876     39.698564      5.753412
  H      10.830095     39.257077      5.748420
  H       8.110607     39.655363      5.751746
  H       6.117438     37.709604      5.698028
  H       5.224721     35.064688      5.669597
  H       3.449142     32.971512      5.739508
  H       4.158383     30.304941      5.717571
  H       5.961036     28.210183      5.666237
  H       6.908925     25.646483      5.736015
  H       9.592108     24.915792      5.717122
  H      12.295840     25.529648      5.682901
  H      14.986212     24.955307      5.743676
  H      16.958243     26.885821      5.717289
  H      17.830269     29.527898      5.694330
  H      19.602521     31.592564      5.746235
  H      18.965486     34.284472      5.724426
  H      17.089899     36.337148      5.703277
  H      16.171342     38.944393      5.763582
  N       9.861677     29.737549     12.103244
  C      10.520247     28.888715     11.247602
  N       9.947767     27.661134     11.081210
  C       8.815831     27.170212     11.720178
  C       8.193774     28.121251     12.596495
  C       8.730999     29.348454     12.748260
  O      11.547370     29.208327     10.665742
  O       8.437231     26.027233     11.505136
  C      10.429667     31.104280     12.231559
  C      10.326280     31.871758     10.904656
  C       9.776509     33.245524     11.292468
  C       9.135754     33.013727     12.651089
  O      10.788623     34.217943     11.399033
  O       9.722279     31.816523     13.191719
  C       7.627095     32.942862     12.556793
  O       6.998552     33.118790     13.811503
  P       6.193413     31.951665     14.584619
  O       5.708412     30.933368     13.610370
  O       7.330391     31.194601     15.451005
  O       5.258334     32.665674     15.497825
  H      10.400532     27.063087     10.399046
  H       7.297760     27.839773     13.128127
  H       8.303638     30.082077     13.415586
  H      11.472576     30.981457     12.535206
  H       9.030639     33.567860     10.560432
  H       9.408319     33.829046     13.326093
  H      11.234900     34.230426     10.540469
  H       7.305784     33.775249     11.924034
  H       7.298044     32.010773     12.086504
  H       7.704516     31.758859     16.135250
  O      11.531251     32.023200     10.224847
  H       9.577033     31.375172     10.284369
  H      11.808199     31.152885      9.908432
159
Coordinates from ORCA-job /data/Seafile/ump/al_surf/frames/frame15/ump_al_frame15 E -13365.166729646269
  Si      3.451077     33.827206      7.795236
  Si      3.476756     30.734587      7.798392
  O       2.117940     34.484962      8.445100
  O       2.115986     30.129277      8.445090
  O       3.602614     32.283488      8.313169
  O       3.442639     33.844418      6.157247
  O       3.426672     30.772104      6.162488
  Si      6.166808     26.064600      7.781886
  Si      8.876108     24.540502      7.787998
  O       4.798004     25.492902      8.436070
  O       7.478939     25.231620      8.288693
  O       9.027450     23.057687      8.433676
  O       6.124439     26.043254      6.145337
  O       8.809160     24.540434      6.152304
  Si      6.130082     29.140878      7.662320
  Si      6.105681     35.394004      7.663104
  Si      8.828155     33.809665      7.597019
  Si      8.851346     30.701353      7.554484
  O       4.805568     29.890150      8.263972
  O       4.760845     34.690359      8.264336
  O       7.393198     34.487658      8.053665
  O       7.450843     30.016567      8.035101
  O       6.289164     27.631912      8.254316
  O       8.850537     32.233072      8.089757
  O       5.935468     29.075385      6.040799
  O       5.937027     35.556789      6.042924
  O       8.921261     33.774963      5.958227
  O       8.940630     30.724393      5.925261
  Si      6.160243     38.488266      7.783819
  Si      8.836439     40.086484      7.816040
  O       4.797719     39.102712      8.426353
  O       7.458902     39.341380      8.312566
  O       6.290154     36.916576      8.241348
  O       8.985590     41.568404      8.464027
  O       6.205639     38.566363      6.149247
  O       8.832809     40.146267      6.178194
  Si     11.558103     26.066319      7.683851
  Si     14.244353     24.535449      7.793863
  O      10.159267     25.451485      8.265894
  O      12.845736     25.253178      8.272160
  O      14.352249     23.052218      8.443108
  O      11.507055     25.893873      6.062364
  O      14.217148     24.529501      6.156468
  Si     11.561224     29.203596      7.691480
  Al     11.571327     35.370849      7.656383
  Si     14.263191     33.798367      7.734838
  Si     14.252021     30.733930      7.670774
  O      10.133679     29.866680      8.144233
  O      10.032691     34.653261      8.215792
  O      12.950330     34.471325      8.331426
  O      12.862603     30.050988      8.234033
  O      11.631400     27.631893      8.146040
  O      14.449501     32.237283      8.247445
  O      11.568108     29.303703      6.058302
  O      11.704272     35.204344      5.899269
  O      14.166284     33.693602      6.092978
  O      14.123149     30.771941      6.042344
  Si     11.552777     38.587833      7.750546
  Si     14.253109     40.088498      7.824236
  O      10.141966     39.239057      8.299968
  O      12.845116     39.443577      8.323881
  O      11.686641     37.064422      8.187440
  O      14.438795     41.575195      8.449770
  O      11.586214     38.812824      6.117943
  O      14.306846     40.087324      6.184974
  Si     16.931000     26.067707      7.789335
  O      15.517600     25.422463      8.305336
  O      18.132542     25.188378      8.434411
  O      16.921015     26.013336      6.153632
  Si     16.961060     29.158384      7.690976
  Si     16.981910     35.407329      7.721967
  Si     19.635837     33.839317      7.804524
  Si     19.616244     30.729158      7.795991
  O      15.530325     29.820144      8.108556
  O      15.603078     34.665549      8.142435
  O      18.228750     34.517470      8.292737
  O      18.192419     30.058462      8.271444
  O      17.005885     27.632468      8.270022
  O      19.699959     32.280403      8.314876
  O      17.092134     29.051567      6.065697
  O      17.172629     35.464542      6.097302
  O      19.668412     33.777147      6.169257
  O      19.642432     30.715827      6.159268
  Si     16.924995     38.510902      7.817150
  O      15.523513     39.177677      8.335215
  O      18.168043     39.349173      8.446638
  O      17.015698     36.940530      8.297181
  O      16.929787     38.487701      6.179100
  O      20.800297     29.818673      8.430124
  O      20.855468     34.696225      8.449983
  H       4.074657     24.986772      8.036591
  H       1.410409     29.602015      8.036749
  H       1.410409     35.007985      8.036749
  H       4.074657     39.623228      8.036591
  H       8.948181     22.173255      8.038302
  H       8.948181     42.436745      8.038302
  H      14.277762     22.173204      8.038282
  H      14.277762     42.436796      8.038282
  H      18.960557     24.876228      8.036406
  H      18.960557     39.733772      8.036406
  H      21.624717     29.491420      8.036583
  H      21.624717     35.118580      8.036583
  H      13.384612     34.173585      5.757142
  H      10.970843     34.721765      5.505280
  H       8.816485     32.902432      5.558715
  H       9.729324     30.307397      5.551121
  H      12.361734     29.693415      5.665446
  H      14.110397     31.663658      5.662113
  H      13.507977     39.736984      5.765042
  H      10.814020     39.263099      5.752013
  H       8.108425     39.663515      5.757446
  H       6.062960     37.723196      5.697422
  H       5.210566     35.051300      5.653762
  H       3.413943     32.973095      5.739380
  H       4.127573     30.277382      5.716743
  H       5.947281     28.190128      5.653252
  H       6.892824     25.630202      5.727903
  H       9.604443     24.860418      5.705239
  H      12.303957     25.520375      5.661803
  H      14.994907     24.919928      5.735470
  H      16.999856     26.869074      5.710763
  H      17.838068     29.529341      5.678475
  H      19.621409     31.589266      5.744638
  H      18.997370     34.318214      5.729956
  H      17.078332     36.341969      5.702496
  H      16.193132     38.961910      5.769027
  N       9.810680     29.746348     12.109369
  C      10.487503     28.895356     11.271481
  N       9.920342     27.664869     11.102363
  C       8.780323     27.170766     11.724365
  C       8.144470     28.121980     12.589879
  C       8.675797     29.350882     12.745355
  O      11.519379     29.214123     10.697880
  O       8.408813     26.026354     11.504606
  C      10.363502     31.120446     12.243974
  C      10.317339     31.869269     10.904070
  C       9.761347     33.250547     11.253747
  C       9.031198     33.025225     12.565918
  O      10.777491     34.208590     11.428406
  O       9.595799     31.839019     13.153000
  C       7.532194     32.934643     12.366024
  O       6.826700     32.925511     13.593180
  P       5.914592     31.693524     14.112357
  O       5.357985     30.942369     12.951553
  O       6.977628     30.682082     14.798597
  O       5.029572     32.275183     15.159963
  H      10.386570     27.060688     10.437397
  H       7.246563     27.835384     13.116855
  H       8.232006     30.091128     13.393239
  H      11.389931     31.014607     12.604475
  H       9.069635     33.582418     10.475876
  H       9.247337     33.846908     13.252344
  H      11.278609     34.215725     10.601589
  H       7.227815     33.838910     11.830749
  H       7.261452     32.067244     11.756211
  H       7.387484     31.041358     15.593363
  O      11.546781     32.012153     10.266752
  H       9.590454     31.366929     10.262600
  H      11.819041     31.141978      9.947735
159
Coordinates from ORCA-job /data/Seafile/ump/al_surf/frames/frame15/ump_al_frame15 E -13365.170407897665
  Si      3.452754     33.829773      7.804367
  Si      3.477138     30.737309      7.808324
  O       2.117886     34.492118      8.455386
  O       2.114486     30.125023      8.455032
  O       3.596763     32.286842      8.324042
  O       3.445150     33.846271      6.163223
  O       3.427149     30.773238      6.169670
  Si      6.164450     26.066888      7.787657
  Si      8.873333     24.540906      7.791613
  O       4.796014     25.489267      8.445435
  O       7.479763     25.239706      8.291214
  O       9.018902     23.055550      8.441095
  O       6.120739     26.046431      6.148241
  O       8.808707     24.539005      6.153299
  Si      6.126200     29.142415      7.670654
  Si      6.104018     35.400347      7.666687
  Si      8.829985     33.812849      7.597458
  Si      8.850741     30.705939      7.557075
  O       4.811604     29.905602      8.276060
  O       4.765123     34.690347      8.273916
  O       7.397659     34.496390      8.043537
  O       7.454510     30.011189      8.031191
  O       6.278296     27.634291      8.264710
  O       8.828479     32.238943      8.091569
  O       5.920764     29.072069      6.046434
  O       5.922541     35.568749      6.044573
  O       8.931709     33.779664      5.956111
  O       8.948890     30.730178      5.924684
  Si      6.163121     38.491236      7.790703
  Si      8.838683     40.087846      7.824984
  O       4.800743     39.112718      8.434668
  O       7.466848     39.334926      8.318038
  O       6.287494     36.920343      8.248800
  O       8.969835     41.573447      8.476852
  O       6.207604     38.567547      6.153306
  O       8.837394     40.145539      6.184169
  Si     11.551937     26.067905      7.688115
  Si     14.237610     24.537007      7.800638
  O      10.155861     25.448583      8.271940
  O      12.846012     25.268109      8.279477
  O      14.335802     23.050103      8.451888
  O      11.501920     25.881733      6.064147
  O      14.209947     24.529971      6.160156
  Si     11.558486     29.212989      7.692974
  Al     11.581259     35.367865      7.677518
  Si     14.265629     33.793819      7.759072
  Si     14.249259     30.733169      7.686282
  O      10.136698     29.882237      8.149031
  O      10.043303     34.647762      8.227173
  O      12.961459     34.488199      8.370359
  O      12.866639     30.039160      8.247366
  O      11.612176     27.639456      8.131659
  O      14.454526     32.234060      8.271075
  O      11.572951     29.334087      6.056409
  O      11.738974     35.182114      5.927057
  O      14.142495     33.684129      6.116621
  O      14.110469     30.791320      6.055684
  Si     11.557798     38.597273      7.762782
  Si     14.261945     40.088730      7.832518
  O      10.152118     39.251857      8.312418
  O      12.854334     39.444026      8.337225
  O      11.687246     37.063378      8.191716
  O      14.463928     41.580558      8.453916
  O      11.592750     38.824167      6.127034
  O      14.307652     40.079913      6.190779
  Si     16.927876     26.062440      7.797126
  O      15.517260     25.412194      8.312979
  O      18.131648     25.178686      8.441396
  O      16.920346     26.011316      6.158783
  Si     16.958769     29.151358      7.701455
  Si     16.988363     35.402374      7.734386
  Si     19.640055     33.832662      7.814146
  Si     19.611866     30.722517      7.802391
  O      15.527597     29.815367      8.110582
  O      15.614304     34.648697      8.149579
  O      18.240547     34.522332      8.307890
  O      18.192021     30.046750      8.282232
  O      16.993538     27.625442      8.281327
  O      19.692234     32.272744      8.320653
  O      17.094346     29.042612      6.072441
  O      17.183615     35.461800      6.106289
  O      19.665361     33.772066      6.176133
  O      19.633468     30.712721      6.162764
  Si     16.927780     38.503542      7.825389
  O      15.532933     39.180837      8.343856
  O      18.178259     39.336630      8.454949
  O      17.006508     36.934518      8.309230
  O      16.931592     38.476516      6.184079
  O      20.800355     29.812091      8.436868
  O      20.874672     34.672323      8.461552
  H       4.074657     24.986772      8.036591
  H       1.410409     29.602015      8.036749
  H       1.410409     35.007985      8.036749
  H       4.074657     39.623228      8.036591
  H       8.948181     22.173255      8.038302
  H       8.948181     42.436745      8.038302
  H      14.277762     22.173204      8.038282
  H      14.277762     42.436796      8.038282
  H      18.960557     24.876228      8.036406
  H      18.960557     39.733772      8.036406
  H      21.624717     29.491420      8.036583
  H      21.624717     35.118580      8.036583
  H      13.354246     34.167333      5.794978
  H      10.993450     34.715533      5.535328
  H       8.839334     32.904565      5.558815
  H       9.742704     30.314396      5.559207
  H      12.371243     29.729465      5.677554
  H      14.107265     31.692150      5.694186
  H      13.493829     39.754008      5.778971
  H      10.803080     39.240068      5.757017
  H       8.112464     39.662299      5.764694
  H       6.036292     37.727423      5.705431
  H       5.215325     35.035600      5.656565
  H       3.399159     32.974767      5.747216
  H       4.116867     30.260450      5.726365
  H       5.957976     28.187482      5.658869
  H       6.887481     25.629855      5.731391
  H       9.617031     24.829786      5.709281
  H      12.310005     25.531908      5.664511
  H      14.994275     24.906799      5.739155
  H      17.018230     26.867116      5.719677
  H      17.826099     29.541021      5.684279
  H      19.621949     31.588234      5.752030
  H      19.010601     34.337846      5.742853
  H      17.061065     36.335689      5.711014
  H      16.203154     38.963501      5.774326
  N       9.757868     29.762394     12.122053
  C      10.447048     28.907668     11.299289
  N       9.881507     27.676390     11.129648
  C       8.726509     27.187229     11.728479
  C       8.083461     28.141225     12.586301
  C       8.615288     29.369067     12.745996
  O      11.487221     29.223790     10.740112
  O       8.374650     26.033398     11.529398
  C      10.311313     31.134209     12.271168
  C      10.311895     31.875683     10.926456
  C       9.761163     33.263906     11.258050
  C       8.979403     33.046300     12.542129
  O      10.783484     34.206002     11.475791
  O       9.515063     31.857597     13.151193
  C       7.486498     32.956623     12.292710
  O       6.738710     33.048569     13.489604
  P       5.755845     31.879649     14.036193
  O       5.371345     30.971386     12.919595
  O       6.713324     30.996386     15.004156
  O       4.731711     32.581114     14.858756
  H      10.358568     27.065787     10.479246
  H       7.180091     27.856663     13.105626
  H       8.154101     30.119354     13.374474
  H      11.325215     31.027355     12.666400
  H       9.104310     33.606584     10.455898
  H       9.173032     33.867099     13.236055
  H      11.323220     34.206547     10.673723
  H       7.212014     33.817748     11.675624
  H       7.230086     32.044351     11.746025
  H       6.982928     31.465083     15.802258
  O      11.559763     32.005051     10.321978
  H       9.598425     31.375388     10.268566
  H      11.828722     31.131710     10.008668
159
Coordinates from ORCA-job /data/Seafile/ump/al_surf/frames/frame15/ump_al_frame15 E -13365.172822498627
  Si      3.455253     33.832095      7.817036
  Si      3.478368     30.739233      7.821927
  O       2.118182     34.499509      8.465111
  O       2.116019     30.115952      8.465675
  O       3.589202     32.289311      8.340129
  O       3.452016     33.847822      6.174584
  O       3.430346     30.774301      6.182318
  Si      6.162519     26.071337      7.800004
  Si      8.870199     24.542029      7.801521
  O       4.794622     25.483816      8.456157
  O       7.479900     25.246912      8.302042
  O       9.008105     23.052996      8.450055
  O       6.119028     26.055932      6.159378
  O       8.806805     24.541150      6.162437
  Si      6.125901     29.146384      7.688059
  Si      6.103631     35.406497      7.678810
  Si      8.834566     33.819551      7.607633
  Si      8.852741     30.713755      7.574368
  O       4.818244     29.920059      8.295313
  O       4.769575     34.689083      8.290779
  O       7.404344     34.507626      8.045862
  O       7.460492     30.008488      8.043049
  O       6.268661     27.637832      8.284299
  O       8.813367     32.248661      8.107074
  O       5.912110     29.074354      6.063137
  O       5.913793     35.579426      6.056600
  O       8.946480     33.789503      5.965564
  O       8.958681     30.739782      5.940757
  Si      6.166089     38.494389      7.799969
  Si      8.841977     40.088085      7.833682
  O       4.805966     39.126215      8.443480
  O       7.474859     39.328894      8.326282
  O       6.283079     36.924818      8.263948
  O       8.952200     41.577447      8.487031
  O       6.211157     38.568678      6.161350
  O       8.845535     40.141906      6.191589
  Si     11.545837     26.070805      7.702548
  Si     14.230387     24.539015      7.811902
  O      10.153485     25.444506      8.288075
  O      12.846753     25.282391      8.295093
  O      14.314353     23.047608      8.461049
  O      11.496072     25.877804      6.077545
  O      14.199931     24.533678      6.170246
  Si     11.557046     29.221642      7.704669
  Al     11.589043     35.367780      7.706577
  Si     14.262340     33.793555      7.792622
  Si     14.245703     30.735039      7.716164
  O      10.142333     29.898480      8.168807
  O      10.052811     34.646396      8.245281
  O      12.969548     34.508261      8.416024
  O      12.870432     30.027194      8.273949
  O      11.596205     27.646647      8.131731
  O      14.449527     32.235453      8.309035
  O      11.574944     29.359280      6.067011
  O      11.767612     35.164480      5.963432
  O      14.113332     33.680001      6.151717
  O      14.100004     30.811135      6.085205
  Si     11.562705     38.602552      7.775427
  Si     14.269727     40.087767      7.839407
  O      10.162242     39.262861      8.326248
  O      12.862830     39.441901      8.350776
  O      11.685745     37.064242      8.202009
  O      14.485306     41.584168      8.454961
  O      11.601186     38.826025      6.137754
  O      14.307665     40.071494      6.196945
  Si     16.924552     26.058699      7.810139
  O      15.517883     25.400977      8.327284
  O      18.133069     25.173476      8.450026
  O      16.917226     26.011492      6.170835
  Si     16.954878     29.146594      7.721230
  Si     16.992561     35.396321      7.751988
  Si     19.643612     33.826288      7.827632
  Si     19.607102     30.716815      7.813362
  O      15.525455     29.814795      8.128924
  O      15.621537     34.635278      8.167695
  O      18.252095     34.528846      8.329056
  O      18.192613     30.035946      8.301408
  O      16.982596     27.620027      8.300853
  O      19.685413     32.266268      8.332995
  O      17.089832     29.036555      6.090434
  O      17.189889     35.452491      6.122304
  O      19.662557     33.766156      6.188563
  O      19.620499     30.708933      6.172535
  Si     16.930704     38.495671      7.832897
  O      15.541572     39.183516      8.352501
  O      18.189391     39.321038      8.461598
  O      16.997614     36.929161      8.324300
  O      16.934004     38.462416      6.190252
  O      20.801407     29.807366      8.444094
  O      20.896638     34.644794      8.472179
  H       4.074657     24.986772      8.036591
  H       1.410409     29.602015      8.036749
  H       1.410409     35.007985      8.036749
  H       4.074657     39.623228      8.036591
  H       8.948181     22.173255      8.038302
  H       8.948181     42.436745      8.038302
  H      14.277762     22.173204      8.038282
  H      14.277762     42.436796      8.038282
  H      18.960557     24.876228      8.036406
  H      18.960557     39.733772      8.036406
  H      21.624717     29.491420      8.036583
  H      21.624717     35.118580      8.036583
  H      13.313377     34.162561      5.848478
  H      11.010875     34.718211      5.569003
  H       8.875536     32.910730      5.571559
  H       9.760515     30.329902      5.585017
  H      12.368152     29.779623      5.702665
  H      14.089290     31.721981      5.745507
  H      13.484630     39.757138      5.793588
  H      10.799314     39.214969      5.764226
  H       8.116125     39.663887      5.773744
  H       6.024757     37.729366      5.717844
  H       5.221193     35.025960      5.670340
  H       3.394626     32.975784      5.760990
  H       4.114885     30.250727      5.743101
  H       5.976055     28.191083      5.675518
  H       6.885278     25.638146      5.742971
  H       9.623212     24.815015      5.722364
  H      12.312099     25.544505      5.679579
  H      14.987730     24.903430      5.749472
  H      17.020960     26.869233      5.736536
  H      17.810686     29.550419      5.701727
  H      19.614962     31.586402      5.765699
  H      19.014315     34.343701      5.760892
  H      17.051713     36.324040      5.726769
  H      16.208297     38.953185      5.780372
  N       9.698469     29.772607     12.139244
  C      10.400352     28.914812     11.330640
  N       9.841149     27.680903     11.162900
  C       8.688132     27.185988     11.761788
  C       8.017386     28.152379     12.584288
  C       8.543366     29.382897     12.742723
  O      11.449547     29.230193     10.789285
  O       8.300640     26.056320     11.501258
  C      10.253824     31.142877     12.300311
  C      10.302883     31.880791     10.953182
  C       9.762541     33.276272     11.268978
  C       8.923221     33.059078     12.513855
  O      10.791496     34.196742     11.540488
  O       9.433776     31.873583     13.150547
  C       7.446626     32.956110     12.191613
  O       6.648425     33.051427     13.353542
  P       5.595511     31.903527     13.813527
  O       5.254249     31.032074     12.655732
  O       6.473049     30.975964     14.817582
  O       4.547795     32.618242     14.592686
  H      10.340003     27.058520     10.539260
  H       7.101083     27.873755     13.083262
  H       8.079200     30.129884     13.372797
  H      11.253969     31.033369     12.728960
  H       9.147426     33.636525     10.441831
  H       9.077030     33.882575     13.215014
  H      11.374250     34.190080     10.768356
  H       7.196115     33.807091     11.549834
  H       7.225666     32.034006     11.645276
  H       6.689093     31.422710     15.643270
  O      11.567985     31.994925     10.382025
  H       9.601268     31.386361     10.279123
  H      11.839073     31.115325     10.089219
159
Coordinates from ORCA-job /data/Seafile/ump/al_surf/frames/frame15/ump_al_frame15 E -13365.175932130816
  Si      3.458554     33.834700      7.829551
  Si      3.479800     30.740885      7.834840
  O       2.119274     34.507882      8.474828
  O       2.121321     30.100669      8.476932
  O       3.579582     32.291452      8.357380
  O       3.459379     33.850614      6.186919
  O       3.430382     30.775236      6.195651
  Si      6.160046     26.077498      7.813107
  Si      8.866543     24.543233      7.812129
  O       4.794098     25.476138      8.467887
  O       7.479847     25.254924      8.314423
  O       8.994296     23.050150      8.459702
  O       6.114935     26.067888      6.172341
  O       8.802961     24.541496      6.173585
  Si      6.127127     29.152291      7.703952
  Si      6.103318     35.414765      7.688704
  Si      8.842134     33.830072      7.609938
  Si      8.857484     30.725388      7.590172
  O       4.827461     29.937231      8.315185
  O       4.775792     34.686749      8.308921
  O       7.414630     34.523408      8.041148
  O       7.470163     30.006041      8.053015
  O       6.258294     27.643116      8.305251
  O       8.798426     32.263481      8.119857
  O       5.899020     29.078373      6.080513
  O       5.902014     35.595638      6.068587
  O       8.968023     33.805383      5.968425
  O       8.973838     30.754581      5.956470
  Si      6.169033     38.498745      7.806845
  Si      8.846185     40.088047      7.837998
  O       4.814060     39.144257      8.452029
  O       7.484574     39.321264      8.332216
  O       6.277396     36.930448      8.279485
  O       8.927006     41.580804      8.495169
  O       6.213225     38.574517      6.168057
  O       8.857089     40.138505      6.195765
  Si     11.538437     26.075081      7.718832
  Si     14.221700     24.541748      7.823096
  O      10.151425     25.439449      8.307623
  O      12.848487     25.300446      8.313042
  O      14.283751     23.045112      8.469627
  O      11.487830     25.874764      6.093930
  O      14.186775     24.536792      6.181468
  Si     11.557129     29.232426      7.710734
  Al     11.596604     35.369296      7.732684
  Si     14.253034     33.797730      7.822300
  Si     14.239809     30.740423      7.744891
  O      10.152019     29.919672      8.189125
  O      10.064534     34.646386      8.254887
  O      12.977316     34.537081      8.461450
  O      12.875966     30.012021      8.300391
  O      11.579403     27.656649      8.128136
  O      14.435983     32.241937      8.348260
  O      11.577852     29.385480      6.073211
  O      11.798984     35.145531      5.999957
  O      14.069661     33.681710      6.185431
  O      14.085198     30.838975      6.114928
  Si     11.567879     38.605958      7.780161
  Si     14.278030     40.086104      7.840980
  O      10.174720     39.274612      8.335557
  O      12.871976     39.435424      8.359678
  O      11.680472     37.064976      8.202909
  O      14.509516     41.586810      8.451651
  O      11.613379     38.825624      6.141658
  O      14.307161     40.064812      6.199042
  Si     16.921027     26.055118      7.823004
  O      15.519504     25.387633      8.342857
  O      18.136056     25.171374      8.459702
  O      16.915598     26.008373      6.183973
  Si     16.949781     29.142612      7.737704
  Si     16.996737     35.389103      7.763489
  Si     19.648360     33.819740      7.838372
  Si     19.601828     30.711219      7.821809
  O      15.522702     29.818050      8.144150
  O      15.627273     34.620974      8.179985
  O      18.265708     34.539096      8.347810
  O      18.193164     30.024823      8.319022
  O      16.970283     27.615940      8.320316
  O      19.677434     32.260200      8.344641
  O      17.085069     29.027442      6.106814
  O      17.198961     35.439808      6.133812
  O      19.664844     33.760070      6.199308
  O      19.607470     30.703672      6.180869
  Si     16.934111     38.486769      7.834536
  O      15.550743     39.186185      8.356553
  O      18.203453     39.298158      8.465515
  O      16.985735     36.923082      8.334618
  O      16.939348     38.448281      6.191637
  O      20.801719     29.802859      8.449854
  O      20.925979     34.606667      8.479775
  H       4.074657     24.986772      8.036591
  H       1.410409     29.602015      8.036749
  H       1.410409     35.007985      8.036749
  H       4.074657     39.623228      8.036591
  H       8.948181     22.173255      8.038302
  H       8.948181     42.436745      8.038302
  H      14.277762     22.173204      8.038282
  H      14.277762     42.436796      8.038282
  H      18.960557     24.876228      8.036406
  H      18.960557     39.733772      8.036406
  H      21.624717     29.491420      8.036583
  H      21.624717     35.118580      8.036583
  H      13.253412     34.166475      5.911157
  H      11.029214     34.729293      5.597357
  H       8.923872     32.921751      5.580240
  H       9.786446     30.351032      5.615802
  H      12.364334     29.837977      5.729389
  H      14.057011     31.763914      5.808343
  H      13.476917     39.755052      5.805834
  H      10.801389     39.190919      5.765799
  H       8.119937     39.670435      5.779967
  H       6.015902     37.735252      5.728924
  H       5.221399     35.024296      5.686584
  H       3.392327     32.977646      5.776498
  H       4.112417     30.243736      5.761248
  H       5.992172     28.196280      5.694929
  H       6.879861     25.647355      5.756241
  H       9.625954     24.803365      5.738373
  H      12.310905     25.553349      5.700112
  H      14.977155     24.901265      5.760776
  H      17.019290     26.868963      5.754617
  H      17.797274     29.554807      5.719416
  H      19.608693     31.583621      5.778938
  H      19.017149     34.342301      5.777045
  H      17.051001     36.310709      5.739907
  H      16.214369     38.939862      5.781703
  N       9.637783     29.787999     12.161738
  C      10.355025     28.924906     11.371097
  N       9.813245     27.681923     11.222433
  C       8.651442     27.189008     11.806876
  C       7.975744     28.153602     12.627443
  C       8.481174     29.395657     12.761298
  O      11.411951     29.242958     10.847282
  O       8.323474     26.025429     11.627473
  C      10.189971     31.160480     12.325225
  C      10.292325     31.888999     10.973565
  C       9.768171     33.293382     11.269110
  C       8.856259     33.075723     12.456692
  O      10.802747     34.183487     11.611069
  O       9.343399     31.903383     13.136526
  C       7.410772     32.940602     12.031338
  O       6.541190     33.011940     13.141346
  P       5.408727     31.885298     13.445110
  O       5.110672     31.119305     12.205890
  O       6.189980     30.851700     14.426683
  O       4.347016     32.584964     14.216937
  H      10.323677     27.053952     10.612130
  H       7.046528     27.881538     13.104777
  H       8.021370     30.133194     13.402907
  H      11.173709     31.054080     12.791213
  H       9.210759     33.677278     10.412459
  H       8.946459     33.908312     13.158896
  H      11.439303     34.163780     10.881781
  H       7.187350     33.783643     11.368448
  H       7.251923     32.012778     11.472523
  H       6.345938     31.236146     15.295296
  O      11.574208     31.982022     10.437504
  H       9.601712     31.399868     10.285358
  H      11.850070     31.091050     10.186632
159
Coordinates from ORCA-job /data/Seafile/ump/al_surf/frames/frame15/ump_al_frame15 E -13365.178202071842
  Si      3.456711     33.834734      7.830037
  Si      3.478054     30.739608      7.833822
  O       2.120033     34.512380      8.477516
  O       2.129517     30.084376      8.481153
  O       3.569545     32.290394      8.358354
  O       3.457296     33.852779      6.188934
  O       3.420865     30.774701      6.196735
  Si      6.157389     26.078740      7.811719
  Si      8.863847     24.540930      7.807471
  O       4.796710     25.469513      8.471305
  O       7.480824     25.259368      8.311116
  O       8.985149     23.049791      8.460811
  O       6.107173     26.068930      6.172473
  O       8.794699     24.533305      6.171014
  Si      6.126124     29.153623      7.693990
  Si      6.099296     35.419225      7.681479
  Si      8.845915     33.836863      7.590877
  Si      8.859923     30.731019      7.572419
  O       4.834048     29.946539      8.311585
  O       4.778775     34.680878      8.308914
  O       7.419170     34.534293      8.017735
  O       7.476843     30.000574      8.032095
  O       6.252288     27.645511      8.301667
  O       8.788176     32.269946      8.101459
  O       5.879290     29.075878      6.075049
  O       5.885715     35.610606      6.065687
  O       8.982522     33.818623      5.951248
  O       8.985515     30.762552      5.940371
  Si      6.168168     38.502025      7.804921
  Si      8.847201     40.089909      7.835124
  O       4.821122     39.158024      8.455152
  O       7.490308     39.314261      8.329294
  O       6.269155     36.932585      8.278674
  O       8.903360     41.582476      8.496574
  O       6.209997     38.583612      6.167715
  O       8.863251     40.139401      6.194451
  Si     11.534174     26.075880      7.707729
  Si     14.216291     24.540252      7.818871
  O      10.152337     25.434290      8.301664
  O      12.850074     25.313321      8.306318
  O      14.253744     23.044627      8.469716
  O      11.482318     25.864765      6.085349
  O      14.182146     24.529866      6.178864
  Si     11.558748     29.238108      7.689328
  Al     11.600342     35.370191      7.736691
  Si     14.246365     33.800913      7.829986
  Si     14.236858     30.744751      7.744719
  O      10.158543     29.932606      8.175220
  O      10.067969     34.643187      8.241491
  O      12.984267     34.554511      8.478192
  O      12.880349     29.999008      8.295091
  O      11.569002     27.661398      8.100301
  O      14.421922     32.244390      8.360564
  O      11.586555     29.399130      6.054052
  O      11.819370     35.130885      6.008196
  O      14.045409     33.684009      6.196916
  O      14.078142     30.864317      6.116820
  Si     11.571188     38.608653      7.773555
  Si     14.284334     40.086945      7.836581
  O      10.182586     39.285514      8.332549
  O      12.879312     39.430560      8.356992
  O      11.673101     37.068430      8.188450
  O      14.522955     41.588203      8.445875
  O      11.624628     38.833954      6.137007
  O      14.309781     40.065052      6.196321
  Si     16.920337     26.050157      7.821281
  O      15.521365     25.375676      8.340379
  O      18.138385     25.173503      8.462620
  O      16.920273     25.999655      6.183985
  Si     16.947997     29.138472      7.731328
  Si     17.001404     35.383340      7.762063
  Si     19.654985     33.814514      7.838280
  Si     19.600458     30.706114      7.819755
  O      15.523029     29.821871      8.132929
  O      15.633742     34.609279      8.176226
  O      18.278389     34.546926      8.350492
  O      18.193504     30.015908      8.316727
  O      16.961990     27.612615      8.317791
  O      19.672131     32.254954      8.344622
  O      17.088969     29.015600      6.103139
  O      17.208599     35.431501      6.134471
  O      19.671738     33.756371      6.200566
  O      19.605822     30.698593      6.180253
  Si     16.938740     38.481590      7.830885
  O      15.558480     39.189550      8.352608
  O      18.216563     39.276204      8.465579
  O      16.977869     36.918203      8.332815
  O      16.947319     38.442103      6.189561
  O      20.800157     29.798663      8.449370
  O      20.950086     34.573909      8.478459
  H       4.074657     24.986772      8.036591
  H       1.410409     29.602015      8.036749
  H       1.410409     35.007985      8.036749
  H       4.074657     39.623228      8.036591
  H       8.948181     22.173255      8.038302
  H       8.948181     42.436745      8.038302
  H      14.277762     22.173204      8.038282
  H      14.277762     42.436796      8.038282
  H      18.960557     24.876228      8.036406
  H      18.960557     39.733772      8.036406
  H      21.624717     29.491420      8.036583
  H      21.624717     35.118580      8.036583
  H      13.222092     34.177781      5.937833
  H      11.042113     34.737198      5.596317
  H       8.948308     32.932932      5.565338
  H       9.801504     30.353645      5.610985
  H      12.375247     29.862637      5.726193
  H      14.040276     31.799537      5.835584
  H      13.481037     39.744863      5.807488
  H      10.813301     39.200623      5.761322
  H       8.118994     39.682049      5.779148
  H       6.011033     37.744594      5.728011
  H       5.204418     35.037497      5.686877
  H       3.389519     32.979530      5.778926
  H       4.104603     30.244848      5.762086
  H       5.982650     28.193311      5.692204
  H       6.868205     25.642496      5.754964
  H       9.616180     24.798862      5.734439
  H      12.305207     25.535776      5.696901
  H      14.972889     24.893784      5.758202
  H      17.018230     26.861778      5.755609
  H      17.801653     29.544786      5.718328
  H      19.611961     31.580108      5.781082
  H      19.014204     34.329583      5.780335
  H      17.063292     36.304002      5.742344
  H      16.220898     38.930699      5.778498
  N       9.564462     29.811252     12.119834
  C      10.303848     28.937722     11.360331
  N       9.764156     27.695034     11.207724
  C       8.582580     27.211987     11.760009
  C       7.877315     28.189918     12.538260
  C       8.391783     29.426293     12.691464
  O      11.372368     29.253834     10.859401
  O       8.253286     26.049164     11.576639
  C      10.125473     31.177475     12.303901
  C      10.285896     31.904811     10.956450
  C       9.777804     33.315190     11.241448
  C       8.788523     33.089982     12.362501
  O      10.811551     34.172239     11.662054
  O       9.256239     31.932399     13.081461
  C       7.382521     32.911263     11.830323
  O       6.434698     32.937037     12.877321
  P       5.283185     31.800761     13.036612
  O       5.135046     31.046043     11.764322
  O       5.955849     30.762560     14.091180
  O       4.135399     32.483761     13.690294
  H      10.299639     27.054645     10.634773
  H       6.948160     27.916332     13.014876
  H       7.884765     30.186145     13.267131
  H      11.089824     31.060045     12.807029
  H       9.286254     33.728231     10.359764
  H       8.806686     33.927340     13.064163
  H      11.493439     34.142707     10.975470
  H       7.177589     33.749773     11.156152
  H       7.298951     31.986426     11.251757
  H       5.981390     31.139014     14.977389
  O      11.584071     31.972568     10.458931
  H       9.606628     31.429066     10.247529
  H      11.855236     31.069890     10.243734
159
Coordinates from ORCA-job /data/Seafile/ump/al_surf/frames/frame15/ump_al_frame15 E -13365.179741293952
  Si      3.454109     33.832561      7.833670
  Si      3.476288     30.735842      7.834997
  O       2.120318     34.513939      8.478698
  O       2.138034     30.067042      8.483565
  O       3.558943     32.286728      8.360498
  O       3.460001     33.853440      6.195111
  O       3.418563     30.771643      6.200467
  Si      6.155623     26.077777      7.815213
  Si      8.862318     24.538072      7.809859
  O       4.799807     25.460902      8.473727
  O       7.480577     25.259206      8.313261
  O       8.976178     23.048248      8.462541
  O       6.105984     26.073451      6.178190
  O       8.793514     24.532297      6.175870
  Si      6.127616     29.152987      7.699606
  Si      6.095679     35.419542      7.689402
  Si      8.846475     33.838372      7.602407
  Si      8.861138     30.732892      7.591404
  O       4.835915     29.948114      8.314234
  O       4.778864     34.672462      8.316225
  O       7.419960     34.542480      8.022548
  O       7.481221     29.991973      8.043103
  O       6.247903     27.643636      8.306749
  O       8.781013     32.271459      8.118757
  O       5.880564     29.079947      6.083335
  O       5.881940     35.613204      6.076472
  O       8.986403     33.815340      5.965111
  O       8.995580     30.766124      5.962059
  Si      6.165975     38.502963      7.809375
  Si      8.847249     40.091151      7.836431
  O       4.827344     39.172351      8.458832
  O       7.494098     39.307864      8.332157
  O       6.257294     36.933574      8.288191
  O       8.880852     41.583963      8.495573
  O       6.208301     38.582685      6.174410
  O       8.867693     40.134548      6.198120
  Si     11.530944     26.077012      7.713133
  Si     14.210225     24.537217      7.820006
  O      10.154007     25.426441      8.306767
  O      12.850949     25.320541      8.310104
  O      14.222504     23.042820      8.469138
  O      11.477096     25.868902      6.092591
  O      14.173594     24.527140      6.182656
  Si     11.557460     29.239840      7.704561
  Al     11.601487     35.369611      7.750624
  Si     14.244128     33.802212      7.841579
  Si     14.233166     30.747603      7.755152
  O      10.162325     29.941351      8.200667
  O      10.067891     34.640088      8.247434
  O      12.993314     34.562328      8.494180
  O      12.886408     29.986134      8.313145
  O      11.560261     27.661287      8.106316
  O      14.409752     32.244527      8.379523
  O      11.582659     29.403128      6.072783
  O      11.821644     35.115758      6.020935
  O      14.038453     33.679461      6.212159
  O      14.062954     30.878746      6.130430
  Si     11.574348     38.609118      7.773583
  Si     14.289376     40.088053      7.833503
  O      10.188365     39.296095      8.333987
  O      12.886878     39.427559      8.356425
  O      11.666271     37.073430      8.184234
  O      14.528119     41.588567      8.439764
  O      11.633274     38.839508      6.139832
  O      14.310607     40.065396      6.195462
  Si     16.919275     26.044538      7.819752
  O      15.523237     25.363102      8.339829
  O      18.141233     25.178220      8.463602
  O      16.920551     25.992589      6.184861
  Si     16.945929     29.134680      7.725905
  Si     17.005836     35.378072      7.762163
  Si     19.661720     33.809868      7.835749
  Si     19.599891     30.701386      7.817514
  O      15.525620     29.827002      8.129290
  O      15.642929     34.599220      8.178985
  O      18.291191     34.553106      8.350233
  O      18.193915     30.008018      8.313378
  O      16.956511     27.608999      8.314184
  O      19.668299     32.250327      8.343467
  O      17.087511     29.007619      6.101106
  O      17.210598     35.422921      6.136877
  O      19.675556     33.755567      6.200038
  O      19.604482     30.693702      6.180282
  Si     16.944469     38.478088      7.828838
  O      15.566201     39.193134      8.349198
  O      18.230515     39.254298      8.464277
  O      16.974608     36.914279      8.331030
  O      16.954424     38.439050      6.190269
  O      20.798841     29.796072      8.447022
  O      20.970532     34.545634      8.472071
  H       4.074657     24.986772      8.036591
  H       1.410409     29.602015      8.036749
  H       1.410409     35.007985      8.036749
  H       4.074657     39.623228      8.036591
  H       8.948181     22.173255      8.038302
  H       8.948181     42.436745      8.038302
  H      14.277762     22.173204      8.038282
  H      14.277762     42.436796      8.038282
  H      18.960557     24.876228      8.036406
  H      18.960557     39.733772      8.036406
  H      21.624717     29.491420      8.036583
  H      21.624717     35.118580      8.036583
  H      13.204058     34.167028      5.955830
  H      11.043091     34.729872      5.604171
  H       8.945184     32.928248      5.583231
  H       9.812153     30.352584      5.639256
  H      12.369132     29.875081      5.750087
  H      14.015064     31.818800      5.861731
  H      13.487689     39.726452      5.809401
  H      10.828201     39.220166      5.764727
  H       8.118182     39.685620      5.782997
  H       6.014776     37.741910      5.734984
  H       5.196158     35.045377      5.697257
  H       3.398342     32.980558      5.783102
  H       4.107541     30.247362      5.766782
  H       5.985104     28.198073      5.699050
  H       6.863482     25.642193      5.758987
  H       9.612071     24.808912      5.739741
  H      12.294711     25.524945      5.705880
  H      14.960022     24.897902      5.760027
  H      17.008493     26.856013      5.756538
  H      17.803732     29.532985      5.717043
  H      19.610861     31.575813      5.781797
  H      19.001698     34.311653      5.781666
  H      17.074969     36.297386      5.745034
  H      16.224271     38.921068      5.777749
  N       9.590879     29.810742     12.170449
  C      10.323465     28.931671     11.409493
  N       9.771456     27.694283     11.257089
  C       8.591263     27.220262     11.820010
  C       7.890986     28.205539     12.591944
  C       8.416958     29.436694     12.744542
  O      11.394456     29.241187     10.903745
  O       8.242450     26.064975     11.624442
  C      10.165828     31.167823     12.358223
  C      10.307519     31.912059     11.017971
  C       9.816199     33.321031     11.338468
  C       8.838892     33.083139     12.468870
  O      10.864670     34.156435     11.767040
  O       9.324531     31.921794     13.168577
  C       7.421234     32.903316     11.963778
  O       6.506372     32.909494     13.041363
  P       5.330539     31.799380     13.187338
  O       5.166997     31.060283     11.907299
  O       5.973691     30.734356     14.232693
  O       4.196160     32.500974     13.845382
  H      10.298933     27.049043     10.685049
  H       6.959147     27.940894     13.068602
  H       7.911166     30.202906     13.313576
  H      11.138965     31.032297     12.839384
  H       9.322178     33.761177     10.472649
  H       8.866039     33.909148     13.182423
  H      11.539484     34.124172     11.076953
  H       7.189886     33.746392     11.304682
  H       7.326515     31.986204     11.375808
  H       5.974964     31.093958     15.127332
  O      11.598234     31.965620     10.501936
  H       9.611943     31.455730     10.307257
  H      11.858980     31.052035     10.311422
159
Coordinates from ORCA-job /data/Seafile/ump/al_surf/frames/frame15/ump_al_frame15 E -13365.180710634362
  Si      3.449060     33.829869      7.831060
  Si      3.473495     30.731509      7.829471
  O       2.121794     34.517296      8.478538
  O       2.150470     30.044814      8.484571
  O       3.545675     32.282641      8.354435
  O       3.455921     33.854128      6.194393
  O       3.411096     30.768634      6.197044
  Si      6.153424     26.074751      7.809897
  Si      8.861320     24.534562      7.804091
  O       4.805767     25.450456      8.473860
  O       7.482251     25.261658      8.305674
  O       8.966006     23.048490      8.462067
  O       6.101987     26.071729      6.174572
  O       8.792414     24.525744      6.171985
  Si      6.125700     29.149914      7.686784
  Si      6.088644     35.419128      7.684051
  Si      8.844736     33.837830      7.595365
  Si      8.860138     30.732443      7.578901
  O       4.840141     29.952177      8.303502
  O       4.779465     34.660737      8.312966
  O       7.418761     34.550612      8.006183
  O       7.485801     29.978378      8.023608
  O       6.242146     27.641446      8.296629
  O       8.766339     32.268537      8.108023
  O       5.868852     29.076152      6.074050
  O       5.866814     35.617918      6.074470
  O       8.989073     33.812167      5.959742
  O       9.005112     30.768776      5.951659
  Si      6.162689     38.503311      7.808684
  Si      8.845621     40.093571      7.834169
  O       4.835938     39.189617      8.460981
  O       7.499486     39.296782      8.329062
  O       6.242072     36.932794      8.287597
  O       8.846429     41.585795      8.492127
  O       6.202530     38.582259      6.175527
  O       8.871629     40.130204      6.197648
  Si     11.526920     26.079134      7.700892
  Si     14.201488     24.532483      7.812035
  O      10.156671     25.419712      8.298204
  O      12.851959     25.334252      8.299271
  O      14.175128     23.041436      8.462747
  O      11.473607     25.864470      6.082428
  O      14.167680     24.519577      6.176628
  Si     11.557200     29.244716      7.693948
  Al     11.604614     35.366567      7.758790
  Si     14.246540     33.800435      7.846332
  Si     14.231263     30.749102      7.751667
  O      10.164684     29.950541      8.194241
  O      10.067685     34.630165      8.239514
  O      13.008710     34.570910      8.506318
  O      12.891171     29.973878      8.309869
  O      11.548643     27.664080      8.084656
  O      14.400296     32.240425      8.388512
  O      11.586909     29.415830      6.065480
  O      11.831974     35.091914      6.027235
  O      14.037641     33.670215      6.220023
  O      14.054081     30.896340      6.129415
  Si     11.578050     38.614206      7.769379
  Si     14.297158     40.089315      7.828286
  O      10.195820     39.313730      8.330863
  O      12.897363     39.425400      8.353158
  O      11.656836     37.079253      8.167947
  O      14.538677     41.588534      8.431247
  O      11.641858     38.857949      6.138778
  O      14.311711     40.066430      6.191904
  Si     16.917464     26.035257      7.812997
  O      15.524528     25.344011      8.330047
  O      18.143359     25.182599      8.463431
  O      16.923030     25.983536      6.179892
  Si     16.943252     29.126525      7.714527
  Si     17.014702     35.370760      7.756163
  Si     19.671683     33.801009      7.827721
  Si     19.597713     30.692267      7.813114
  O      15.527788     29.829783      8.111471
  O      15.659639     34.581735      8.171313
  O      18.310388     34.560027      8.343199
  O      18.192535     29.994905      8.305954
  O      16.944644     27.601352      8.304343
  O      19.661020     32.241591      8.337446
  O      17.090284     28.993605      6.092879
  O      17.218298     35.415242      6.132454
  O      19.678470     33.753230      6.193444
  O      19.601784     30.685031      6.177523
  Si     16.952744     38.472394      7.824363
  O      15.577839     39.196999      8.341940
  O      18.250730     39.222864      8.461009
  O      16.970408     36.907140      8.323746
  O      16.964146     38.436805      6.187969
  O      20.795423     29.789559      8.443765
  O      20.999280     34.504870      8.458262
  H       4.074657     24.986772      8.036591
  H       1.410409     29.602015      8.036749
  H       1.410409     35.007985      8.036749
  H       4.074657     39.623228      8.036591
  H       8.948181     22.173255      8.038302
  H       8.948181     42.436745      8.038302
  H      14.277762     22.173204      8.038282
  H      14.277762     42.436796      8.038282
  H      18.960557     24.876228      8.036406
  H      18.960557     39.733772      8.036406
  H      21.624717     29.491420      8.036583
  H      21.624717     35.118580      8.036583
  H      13.202560     34.164456      5.960239
  H      11.054057     34.710990      5.605088
  H       8.938443     32.924899      5.579295
  H       9.823000     30.351322      5.635182
  H      12.368634     29.903614      5.752557
  H      14.018743     31.842518      5.872627
  H      13.490709     39.717516      5.809539
  H      10.840551     39.246754      5.763517
  H       8.118380     39.689034      5.781022
  H       6.011189     37.741274      5.735160
  H       5.176932     35.054776      5.695111
  H       3.394831     32.982766      5.779000
  H       4.100139     30.245355      5.761806
  H       5.973918     28.194870      5.688465
  H       6.853504     25.632939      5.752640
  H       9.606935     24.811894      5.734108
  H      12.287417     25.507562      5.698948
  H      14.951432     24.894121      5.752408
  H      17.008609     26.847394      5.751864
  H      17.806219     29.519191      5.708641
  H      19.610525     31.567182      5.778931
  H      18.991202     34.296446      5.778915
  H      17.089601     36.290686      5.740166
  H      16.232038     38.914106      5.773464
  N       9.528252     29.844759     12.147563
  C      10.280605     28.954058     11.419882
  N       9.730066     27.717389     11.262472
  C       8.533114     27.252972     11.797025
  C       7.812509     28.248371     12.536156
  C       8.334144     29.482239     12.684131
  O      11.363915     29.255382     10.937719
  O       8.180958     26.099762     11.594256
  C      10.105312     31.199692     12.345593
  C      10.311799     31.932815     11.007989
  C       9.846482     33.352736     11.309764
  C       8.791221     33.126468     12.369962
  O      10.891065     34.144992     11.825720
  O       9.236251     31.972570     13.110765
  C       7.408577     32.942604     11.774210
  O       6.434928     32.949933     12.799868
  P       5.175819     31.927063     12.807174
  O       5.075011     31.235552     11.493322
  O       5.642767     30.791237     13.871339
  O       4.037064     32.690543     13.385693
  H      10.275813     27.062201     10.718329
  H       6.854900     27.998574     12.967820
  H       7.826392     30.246603     13.255224
  H      11.053813     31.061849     12.872636
  H       9.428222     33.822730     10.418612
  H       8.770168     33.954361     13.080479
  H      11.616405     34.082544     11.191066
  H       7.213279     33.782311     11.099381
  H       7.348104     32.023829     11.185007
  H       5.554524     31.115637     14.775690
  O      11.619944     31.946763     10.535094
  H       9.628673     31.494979     10.275120
  H      11.864530     31.019889     10.390091
159
Coordinates from ORCA-job /data/Seafile/ump/al_surf/frames/frame15/ump_al_frame15 E -13365.182070344536
  Si      3.448218     33.828184      7.831792
  Si      3.474769     30.728994      7.829011
  O       2.123194     34.519105      8.477590
  O       2.158326     30.031410      8.484223
  O       3.539841     32.280441      8.353297
  O       3.458467     33.854766      6.195036
  O       3.416135     30.765815      6.196201
  Si      6.154530     26.073841      7.812675
  Si      8.862178     24.534654      7.806968
  O       4.810022     25.442562      8.474634
  O       7.484302     25.263361      8.309621
  O       8.959577     23.047965      8.463064
  O       6.107086     26.075544      6.177082
  O       8.798909     24.528898      6.174474
  Si      6.128207     29.148912      7.694274
  Si      6.086968     35.417269      7.694204
  Si      8.842738     33.835411      7.619699
  Si      8.859380     30.733750      7.604459
  O       4.841483     29.952068      8.305288
  O       4.779247     34.654524      8.319188
  O       7.418070     34.555018      8.023322
  O       7.488702     29.970448      8.042448
  O       6.239583     27.639216      8.301950
  O       8.758892     32.267418      8.137013
  O       5.883232     29.079304      6.079258
  O       5.870825     35.609862      6.082835
  O       8.983886     33.798693      5.983726
  O       9.007738     30.773421      5.977134
  Si      6.162351     38.501488      7.813871
  Si      8.845377     40.092405      7.836158
  O       4.841859     39.202557      8.462822
  O       7.504208     39.288260      8.333568
  O       6.232002     36.932332      8.298057
  O       8.824792     41.586605      8.488180
  O       6.200993     38.571903      6.180409
  O       8.874558     40.120207      6.199375
  Si     11.524743     26.083822      7.707022
  Si     14.194630     24.531354      7.811573
  O      10.158458     25.416063      8.303780
  O      12.852275     25.342571      8.303142
  O      14.143087     23.039666      8.457418
  O      11.473783     25.875811      6.086972
  O      14.162208     24.521153      6.176039
  Si     11.553437     29.249112      7.715481
  Al     11.606697     35.364410      7.776413
  Si     14.251867     33.798016      7.854706
  Si     14.227736     30.748876      7.763016
  O      10.164565     29.956842      8.223905
  O      10.071045     34.627086      8.256324
  O      13.019126     34.574024      8.518156
  O      12.892359     29.969544      8.329105
  O      11.540424     27.666390      8.097582
  O      14.397285     32.237808      8.402382
  O      11.578935     29.425923      6.087661
  O      11.827574     35.077881      6.043632
  O      14.044525     33.664918      6.229056
  O      14.043469     30.897017      6.141357
  Si     11.581278     38.617361      7.773962
  Si     14.302186     40.088100      7.827054
  O      10.201513     39.324981      8.335568
  O      12.904519     39.425116      8.356440
  O      11.653259     37.080697      8.170038
  O      14.544047     41.587608      8.425511
  O      11.642834     38.863716      6.143507
  O      14.309801     40.063764      6.190569
  Si     16.914064     26.030934      7.812697
  O      15.524387     25.332130      8.329145
  O      18.144568     25.185672      8.462801
  O      16.918915     25.984665      6.179317
  Si     16.938361     29.122117      7.717963
  Si     17.019070     35.366465      7.756725
  Si     19.675339     33.794945      7.823782
  Si     19.593308     30.686744      7.814263
  O      15.527089     29.831395      8.116501
  O      15.671573     34.569950      8.176336
  O      18.321421     34.563939      8.341673
  O      18.189953     29.987194      8.309567
  O      16.935581     27.596384      8.306891
  O      19.654544     32.236316      8.337903
  O      17.082907     28.990877      6.095920
  O      17.214938     35.409822      6.131721
  O      19.673132     33.753099      6.189284
  O      19.593872     30.680156      6.178373
  Si     16.957331     38.467679      7.823831
  O      15.585301     39.198017      8.340715
  O      18.264530     39.202370      8.457980
  O      16.968910     36.902377      8.323750
  O      16.967770     38.435640      6.187527
  O      20.793672     29.786529      8.442299
  O      21.015127     34.481650      8.446699
  H       4.074657     24.986772      8.036591
  H       1.410409     29.602015      8.036749
  H       1.410409     35.007985      8.036749
  H       4.074657     39.623228      8.036591
  H       8.948181     22.173255      8.038302
  H       8.948181     42.436745      8.038302
  H      14.277762     22.173204      8.038282
  H      14.277762     42.436796      8.038282
  H      18.960557     24.876228      8.036406
  H      18.960557     39.733772      8.036406
  H      21.624717     29.491420      8.036583
  H      21.624717     35.118580      8.036583
  H      13.215404     34.165253      5.964379
  H      11.053000     34.689756      5.622818
  H       8.923841     32.910899      5.606283
  H       9.826553     30.358915      5.659421
  H      12.354783     29.921984      5.773436
  H      14.021687     31.843317      5.881880
  H      13.486295     39.716103      5.811968
  H      10.841259     39.251403      5.767180
  H       8.120981     39.681052      5.781519
  H       6.013758     37.728954      5.742479
  H       5.179193     35.050363      5.701547
  H       3.397840     32.985110      5.776359
  H       4.104467     30.240660      5.762317
  H       5.989402     28.199878      5.690176
  H       6.855744     25.633716      5.753797
  H       9.611180     24.823692      5.738501
  H      12.285862     25.515748      5.702596
  H      14.942771     24.900383      5.750396
  H      17.007701     26.848885      5.753039
  H      17.796126     29.517956      5.709163
  H      19.602568     31.561332      5.778231
  H      18.979224     34.291153      5.779327
  H      17.090459     36.284757      5.737596
  H      16.233980     38.909026      5.772060
  N       9.541680     29.857235     12.199163
  C      10.282963     28.959801     11.469948
  N       9.714452     27.732414     11.303926
  C       8.504555     27.285790     11.824816
  C       7.798130     28.286790     12.570332
  C       8.338999     29.511263     12.728002
  O      11.371380     29.247708     10.989885
  O       8.140585     26.136151     11.622364
  C      10.139717     31.202348     12.398786
  C      10.329162     31.943763     11.064739
  C       9.885482     33.366669     11.386341
  C       8.854242     33.146233     12.471079
  O      10.948071     34.138776     11.900346
  O       9.303223     31.981494     13.191786
  C       7.450903     32.982135     11.927717
  O       6.529977     33.005085     13.001794
  P       5.236896     32.026775     13.069420
  O       5.038913     31.355490     11.755760
  O       5.725661     30.864460     14.095716
  O       4.157701     32.819194     13.720526
  H      10.252293     27.070621     10.758258
  H       6.836817     28.048042     13.000191
  H       7.842017     30.280062     13.302756
  H      11.097373     31.046751     12.903071
  H       9.456011     33.853287     10.507014
  H       8.865155     33.968239     13.188853
  H      11.674750     34.057080     11.269201
  H       7.237709     33.823591     11.259971
  H       7.350300     32.061462     11.346959
  H       5.688617     31.176360     15.007822
  O      11.632405     31.942422     10.575490
  H       9.632021     31.521599     10.335678
  H      11.869155     31.009966     10.451546
159
Coordinates from ORCA-job /data/Seafile/ump/al_surf/frames/frame15/ump_al_frame15 E -13365.183010446091
  Si      3.448706     33.826712      7.830515
  Si      3.477910     30.727065      7.829014
  O       2.126680     34.523294      8.476476
  O       2.167881     30.015381      8.483701
  O       3.534277     32.278973      8.352401
  O       3.458048     33.854362      6.192702
  O       3.423959     30.762952      6.194920
  Si      6.156156     26.075451      7.815750
  Si      8.862669     24.536181      7.811005
  O       4.814632     25.434416      8.475435
  O       7.486583     25.267570      8.315104
  O       8.949459     23.047137      8.464698
  O       6.112675     26.081726      6.179018
  O       8.807827     24.532367      6.177212
  Si      6.131933     29.150484      7.703471
  Si      6.085603     35.416637      7.695567
  Si      8.842038     33.835162      7.630063
  Si      8.860016     30.737385      7.624685
  O       4.845813     29.956375      8.310611
  O       4.781437     34.648723      8.321010
  O       7.420072     34.561450      8.028510
  O       7.494593     29.964258      8.060780
  O       6.236638     27.639362      8.309616
  O       8.751790     32.270705      8.157361
  O       5.896594     29.083844      6.085676
  O       5.871152     35.603811      6.082246
  O       8.982678     33.787041      5.993249
  O       9.008920     30.776072      5.996152
  Si      6.163595     38.500025      7.814014
  Si      8.846367     40.089721      7.834388
  O       4.851065     39.218740      8.462191
  O       7.511838     39.276190      8.334401
  O       6.222436     36.931881      8.302248
  O       8.797542     41.586519      8.480576
  O       6.197910     38.564203      6.179490
  O       8.880458     40.108913      6.196402
  Si     11.521746     26.090089      7.717170
  Si     14.186558     24.531971      7.812433
  O      10.159604     25.412680      8.313285
  O      12.853558     25.354577      8.311215
  O      14.104035     23.037040      8.449230
  O      11.473943     25.888667      6.094587
  O      14.156362     24.526471      6.175791
  Si     11.550288     29.255538      7.733741
  Al     11.609935     35.363904      7.788749
  Si     14.256290     33.795800      7.862994
  Si     14.223257     30.748567      7.778335
  O      10.166143     29.966951      8.249274
  O      10.076463     34.626582      8.261901
  O      13.026629     34.580223      8.528153
  O      12.892692     29.965127      8.349529
  O      11.529673     27.671675      8.110956
  O      14.391269     32.237009      8.419093
  O      11.574724     29.437180      6.105053
  O      11.830351     35.068784      6.057291
  O      14.047745     33.657497      6.238099
  O      14.031359     30.894724      6.156609
  Si     11.585689     38.622267      7.775657
  Si     14.308588     40.085895      7.824893
  O      10.210136     39.338399      8.338657
  O      12.912957     39.422848      8.359799
  O      11.649041     37.080777      8.167406
  O      14.552210     41.586959      8.418609
  O      11.644804     38.870736      6.144697
  O      14.308900     40.059756      6.187641
  Si     16.909176     26.027506      7.816246
  O      15.524655     25.317660      8.331941
  O      18.146561     25.189498      8.463766
  O      16.912346     25.988388      6.181801
  Si     16.932070     29.117659      7.728079
  Si     17.022115     35.361867      7.757605
  Si     19.677262     33.788526      7.819638
  Si     19.586943     30.681384      7.817292
  O      15.525181     29.833450      8.128385
  O      15.682882     34.555443      8.182795
  O      18.332399     34.570143      8.341397
  O      18.187307     29.978723      8.319027
  O      16.923118     27.591427      8.316652
  O      19.645475     32.231574      8.340463
  O      17.073201     28.988011      6.104364
  O      17.209413     35.403010      6.130145
  O      19.664496     33.751161      6.184283
  O      19.582020     30.674283      6.180138
  Si     16.961517     38.461305      7.821424
  O      15.594188     39.199260      8.339198
  O      18.281125     39.177150      8.452349
  O      16.964491     36.896968      8.324354
  O      16.971176     38.433387      6.184128
  O      20.792355     29.784159      8.441709
  O      21.033435     34.454606      8.431232
  H       4.074657     24.986772      8.036591
  H       1.410409     29.602015      8.036749
  H       1.410409     35.007985      8.036749
  H       4.074657     39.623228      8.036591
  H       8.948181     22.173255      8.038302
  H       8.948181     42.436745      8.038302
  H      14.277762     22.173204      8.038282
  H      14.277762     42.436796      8.038282
  H      18.960557     24.876228      8.036406
  H      18.960557     39.733772      8.036406
  H      21.624717     29.491420      8.036583
  H      21.624717     35.118580      8.036583
  H      13.187659     34.103812      5.981805
  H      11.061022     34.672724      5.634932
  H       8.926163     32.897073      5.620291
  H       9.830281     30.366923      5.678073
  H      12.349638     29.934305      5.790246
  H      13.991434     31.840416      5.897553
  H      13.481331     39.716135      5.814008
  H      10.839623     39.249414      5.766934
  H       8.125511     39.674746      5.776331
  H       6.015605     37.719132      5.743916
  H       5.176486     35.047922      5.701669
  H       3.395676     32.986271      5.771672
  H       4.109518     30.232888      5.763106
  H       6.005027     28.206027      5.693991
  H       6.857711     25.635296      5.754610
  H       9.620096     24.832243      5.745046
  H      12.285505     25.528027      5.709950
  H      14.932488     24.913730      5.749780
  H      17.006457     26.853477      5.758551
  H      17.782261     29.518160      5.714465
  H      19.591522     31.553961      5.777508
  H      18.962970     34.283474      5.780257
  H      17.089147     36.277130      5.733843
  H      16.234335     38.900408      5.767729
  N       9.513305     29.890858     12.223900
  C      10.253519     28.982244     11.508867
  N       9.672734     27.760592     11.341148
  C       8.444841     27.334246     11.837076
  C       7.737059     28.349690     12.561914
  C       8.294860     29.564910     12.729721
  O      11.354161     29.254550     11.046927
  O       8.076444     26.184326     11.646309
  C      10.130887     31.224903     12.435099
  C      10.344800     31.969763     11.106877
  C       9.919842     33.396085     11.434087
  C       8.869015     33.180532     12.499924
  O      10.986373     34.141242     11.980673
  O       9.301518     32.012453     13.225249
  C       7.475503     33.015770     11.938023
  O       6.544252     33.037186     13.004092
  P       5.235012     32.076672     13.050948
  O       5.049370     31.411867     11.732401
  O       5.699510     30.908063     14.082978
  O       4.155447     32.878362     13.690544
  H      10.207666     27.090379     10.803172
  H       6.767937     28.124109     12.981074
  H       7.793623     30.346932     13.281614
  H      11.081407     31.051831     12.946749
  H       9.516445     33.900491     10.552946
  H       8.869385     34.003152     13.217569
  H      11.732259     34.039433     11.375051
  H       7.269888     33.854756     11.264406
  H       7.382900     32.092750     11.359431
  H       5.644940     31.217454     14.994455
  O      11.655636     31.948496     10.634686
  H       9.650764     31.562965     10.365979
  H      11.882972     31.010216     10.530952
159
Coordinates from ORCA-job /data/Seafile/ump/al_surf/frames/frame15/ump_al_frame15 E -13365.183879898706
  Si      3.450171     33.825182      7.828433
  Si      3.482779     30.725152      7.827971
  O       2.132188     34.529125      8.473948
  O       2.180275     29.995663      8.480714
  O       3.528599     32.277299      8.349990
  O       3.457751     33.854726      6.188987
  O       3.436389     30.761754      6.191909
  Si      6.159131     26.077713      7.817768
  Si      8.863966     24.538594      7.813866
  O       4.821501     25.424257      8.474095
  O       7.490161     25.272657      8.320599
  O       8.937847     23.046841      8.464791
  O       6.120482     26.089666      6.179346
  O       8.819349     24.535214      6.178149
  Si      6.137159     29.152936      7.714499
  Si      6.084780     35.415082      7.698293
  Si      8.839568     33.834655      7.641954
  Si      8.859701     30.742418      7.647203
  O       4.850890     29.960596      8.316604
  O       4.784179     34.642202      8.323149
  O       7.423171     34.569353      8.039609
  O       7.501975     29.957260      8.085227
  O       6.234233     27.639653      8.317513
  O       8.747250     32.274923      8.182737
  O       5.916316     29.090460      6.092809
  O       5.875671     35.592494      6.081755
  O       8.973103     33.771038      6.003577
  O       9.002151     30.780632      6.016607
  Si      6.165348     38.497569      7.811672
  Si      8.847374     40.085199      7.826700
  O       4.864286     39.240666      8.458517
  O       7.521815     39.260233      8.331912
  O       6.210833     36.931351      8.306098
  O       8.765836     41.584534      8.465500
  O       6.191878     38.551933      6.175540
  O       8.885365     40.094817      6.186739
  Si     11.519378     26.097714      7.725566
  Si     14.178167     24.533223      7.809417
  O      10.161545     25.410155      8.321257
  O      12.855913     25.368023      8.317307
  O      14.056310     23.034217      8.432928
  O      11.475413     25.904702      6.099779
  O      14.152932     24.533427      6.171001
  Si     11.545523     29.262381      7.747084
  Al     11.612351     35.363915      7.791832
  Si     14.264343     33.793815      7.859221
  Si     14.218708     30.746850      7.782781
  O      10.167247     29.976604      8.273042
  O      10.083201     34.627833      8.263275
  O      13.034426     34.584691      8.523064
  O      12.890134     29.965897      8.360448
  O      11.518022     27.677806      8.124753
  O      14.385640     32.235684      8.421219
  O      11.564745     29.445533      6.116448
  O      11.820905     35.058999      6.060531
  O      14.066059     33.666858      6.232065
  O      14.025220     30.883996      6.159900
  Si     11.590527     38.628684      7.768665
  Si     14.315500     40.082570      7.818531
  O      10.220443     39.353771      8.334803
  O      12.921344     39.419444      8.357351
  O      11.643565     37.080713      8.154893
  O      14.558235     41.584626      8.409019
  O      11.644883     38.880423      6.137207
  O      14.310974     40.056147      6.179925
  Si     16.903193     26.024760      7.817630
  O      15.525598     25.300685      8.331594
  O      18.148744     25.196432      8.462581
  O      16.903197     25.993838      6.181635
  Si     16.925225     29.112992      7.736432
  Si     17.024618     35.357799      7.757315
  Si     19.677642     33.782145      7.813658
  Si     19.579428     30.676587      7.819422
  O      15.522675     29.836006      8.136705
  O      15.696774     34.536342      8.187826
  O      18.343202     34.577635      8.339577
  O      18.183661     29.970660      8.327472
  O      16.908302     27.586770      8.325379
  O      19.634323     32.227540      8.343244
  O      17.064879     28.984578      6.110556
  O      17.201329     35.396515      6.126646
  O      19.652376     33.749461      6.177064
  O      19.570162     30.668681      6.180308
  Si     16.965551     38.454153      7.816432
  O      15.603504     39.200251      8.334413
  O      18.300837     39.146476      8.442274
  O      16.958839     36.891434      8.324062
  O      16.975351     38.432295      6.177526
  O      20.790322     29.782186      8.439316
  O      21.051860     34.426310      8.409670
  H       4.074657     24.986772      8.036591
  H       1.410409     29.602015      8.036749
  H       1.410409     35.007985      8.036749
  H       4.074657     39.623228      8.036591
  H       8.948181     22.173255      8.038302
  H       8.948181     42.436745      8.038302
  H      14.277762     22.173204      8.038282
  H      14.277762     42.436796      8.038282
  H      18.960557     24.876228      8.036406
  H      18.960557     39.733772      8.036406
  H      21.624717     29.491420      8.036583
  H      21.624717     35.118580      8.036583
  H      13.249474     34.176468      5.966923
  H      11.051478     34.662302      5.639339
  H       8.924812     32.878184      5.636173
  H       9.824572     30.378485      5.692533
  H      12.343855     29.931414      5.794256
  H      14.007462     31.826665      5.890146
  H      13.479601     39.718193      5.809583
  H      10.834916     39.247657      5.758528
  H       8.127950     39.669055      5.763379
  H       6.019612     37.703102      5.743613
  H       5.175368     35.043489      5.702116
  H       3.396922     32.988881      5.764070
  H       4.119513     30.227841      5.761770
  H       6.023394     28.214215      5.697828
  H       6.861111     25.638367      5.752921
  H       9.629489     24.845419      5.749792
  H      12.285125     25.541114      5.714564
  H      14.921511     24.935191      5.745382
  H      17.004532     26.859520      5.761181
  H      17.771251     29.515668      5.717341
  H      19.580748     31.545679      5.773010
  H      18.940695     34.272817      5.779829
  H      17.089399     36.269395      5.726568
  H      16.232772     38.887280      5.759100
  N       9.472368     29.946413     12.234370
  C      10.210362     29.021734     11.539167
  N       9.611988     27.808511     11.368616
  C       8.360873     27.410868     11.829648
  C       7.651984     28.447207     12.523862
  C       8.232396     29.649119     12.705829
  O      11.328311     29.269508     11.104969
  O       7.980372     26.264083     11.646694
  C      10.115309     31.264978     12.465164
  C      10.372718     32.014180     11.146963
  C       9.973939     33.445821     11.479756
  C       8.891948     33.242092     12.515719
  O      11.043125     34.154837     12.068983
  O       9.287932     32.062754     13.244639
  C       7.512416     33.096999     11.919087
  O       6.554893     33.110351     12.962465
  P       5.233648     32.162582     12.965818
  O       5.083270     31.509821     11.637246
  O       5.665140     30.985178     14.003286
  O       4.141598     32.966144     13.581480
  H      10.143225     27.126433     10.842972
  H       6.669060     28.242732     12.920904
  H       7.731298     30.446938     13.233382
  H      11.051769     31.067805     12.993534
  H       9.609594     33.970860     10.595036
  H       8.884696     34.064251     13.234340
  H      11.812156     34.023107     11.499340
  H       7.330613     33.944290     11.248916
  H       7.426754     32.181349     11.327677
  H       5.587261     31.288488     14.914426
  O      11.695664     31.964005     10.705439
  H       9.687556     31.628196     10.386864
  H      11.905827     31.019453     10.617218
159
Coordinates from ORCA-job /data/Seafile/ump/al_surf/frames/frame15/ump_al_frame15 E -13365.184574783829
  Si      3.448888     33.824829      7.827619
  Si      3.483512     30.723354      7.825138
  O       2.135067     34.534126      8.473283
  O       2.188071     29.982483      8.477990
  O       3.521716     32.275735      8.345294
  O       3.457344     33.857560      6.188275
  O       3.439726     30.762483      6.189076
  Si      6.159701     26.077354      7.817770
  Si      8.864129     24.538550      7.814680
  O       4.826102     25.416952      8.473335
  O       7.492129     25.275216      8.320769
  O       8.929783     23.046753      8.465020
  O       6.122152     26.091923      6.179353
  O       8.822219     24.534699      6.178965
  Si      6.138713     29.152869      7.715726
  Si      6.082992     35.414298      7.701840
  Si      8.836871     33.834356      7.647461
  Si      8.858733     30.744495      7.654722
  O       4.853264     29.962762      8.314218
  O       4.784880     34.636578      8.323878
  O       7.424387     34.575065      8.045464
  O       7.505138     29.951798      8.091264
  O       6.230777     27.639050      8.317452
  O       8.744490     32.275742      8.192864
  O       5.922175     29.091167      6.093640
  O       5.876950     35.589212      6.084939
  O       8.964399     33.763282      6.009112
  O       8.999253     30.784937      6.024315
  Si      6.165256     38.497640      7.810754
  Si      8.847165     40.084035      7.823297
  O       4.873999     39.258202      8.456057
  O       7.527250     39.251085      8.329302
  O       6.201075     36.932002      8.307745
  O       8.745145     41.584293      8.455587
  O       6.188769     38.546766      6.174728
  O       8.889024     40.086543      6.183139
  Si     11.518440     26.100309      7.727004
  Si     14.174197     24.532274      7.805458
  O      10.163223     25.407550      8.322354
  O      12.858204     25.375035      8.316556
  O      14.027449     23.032228      8.420101
  O      11.474456     25.908261      6.101202
  O      14.152344     24.536959      6.167028
  Si     11.543559     29.264696      7.747211
  Al     11.612424     35.365211      7.790076
  Si     14.268391     33.792586      7.851908
  Si     14.218784     30.745261      7.778286
  O      10.168302     29.980579      8.277641
  O      10.083175     34.627233      8.261371
  O      13.040769     34.586086      8.515168
  O      12.889773     29.966818      8.356763
  O      11.511506     27.679973      8.126052
  O      14.382951     32.234336      8.414767
  O      11.558718     29.448519      6.116729
  O      11.815431     35.056993      6.055826
  O      14.070724     33.664578      6.224985
  O      14.026671     30.876568      6.155095
  Si     11.592721     38.634069      7.766584
  Si     14.319582     40.082022      7.815818
  O      10.225809     39.365570      8.333048
  O      12.926877     39.417421      8.356661
  O      11.638851     37.084952      8.146338
  O      14.561255     41.583817      8.404666
  O      11.647159     38.892090      6.136432
  O      14.313488     40.054366      6.177136
  Si     16.901049     26.021919      7.817164
  O      15.527585     25.288248      8.328089
  O      18.150523     25.201395      8.462243
  O      16.898597     25.994032      6.181260
  Si     16.923700     29.109327      7.736805
  Si     17.027348     35.355252      7.749273
  Si     19.679973     33.778082      7.805761
  Si     19.577672     30.672966      7.817731
  O      15.523965     29.837818      8.134201
  O      15.705497     34.525375      8.180385
  O      18.350041     34.581306      8.330515
  O      18.183657     29.965012      8.327196
  O      16.899957     27.583689      8.325735
  O      19.629252     32.224987      8.339075
  O      17.065402     28.978011      6.111304
  O      17.201988     35.393070      6.118364
  O      19.651258     33.744493      6.169290
  O      19.567388     30.661939      6.178565
  Si     16.969124     38.451097      7.809303
  O      15.610737     39.202380      8.328302
  O      18.313863     39.125940      8.432942
  O      16.955980     36.888025      8.315357
  O      16.978370     38.434357      6.170442
  O      20.789291     29.780926      8.437412
  O      21.062131     34.410041      8.394897
  H       4.074657     24.986772      8.036591
  H       1.410409     29.602015      8.036749
  H       1.410409     35.007985      8.036749
  H       4.074657     39.623228      8.036591
  H       8.948181     22.173255      8.038302
  H       8.948181     42.436745      8.038302
  H      14.277762     22.173204      8.038282
  H      14.277762     42.436796      8.038282
  H      18.960557     24.876228      8.036406
  H      18.960557     39.733772      8.036406
  H      21.624717     29.491420      8.036583
  H      21.624717     35.118580      8.036583
  H      13.231480     34.136034      5.964137
  H      11.047418     34.655719      5.636951
  H       8.922680     32.868461      5.645218
  H       9.818854     30.379291      5.696696
  H      12.341489     29.925754      5.789861
  H      14.032642     31.815539      5.875320
  H      13.480714     39.719275      5.807334
  H      10.835886     39.256790      5.757851
  H       8.128990     39.668347      5.757360
  H       6.023177     37.695530      5.744646
  H       5.173168     35.044632      5.704862
  H       3.402715     32.992869      5.760143
  H       4.122055     30.227981      5.758258
  H       6.028911     28.215379      5.697472
  H       6.859409     25.636998      5.751166
  H       9.628416     24.855925      5.751149
  H      12.281949     25.540166      5.715498
  H      14.915684     24.950523      5.743076
  H      17.005729     26.859649      5.761717
  H      17.771966     29.507725      5.716593
  H      19.578965     31.536924      5.767041
  H      18.934116     34.261923      5.773277
  H      17.099349     36.266169      5.716154
  H      16.230353     38.880299      5.751883
  N       9.444687     29.999768     12.220649
  C      10.179886     29.059674     11.542607
  N       9.565009     27.856710     11.361744
  C       8.297193     27.482928     11.795619
  C       7.591632     28.533769     12.472035
  C       8.188843     29.725924     12.664124
  O      11.309051     29.286090     11.128987
  O       7.894700     26.346664     11.594579
  C      10.107594     31.306942     12.466742
  C      10.405814     32.054985     11.156200
  C      10.041999     33.496023     11.490174
  C       8.935663     33.318021     12.506092
  O      11.119736     34.169410     12.106223
  O       9.281029     32.120026     13.232228
  C       7.559156     33.229534     11.888482
  O       6.591039     33.252208     12.920451
  P       5.240781     32.349151     12.887131
  O       5.092372     31.722034     11.546086
  O       5.616009     31.142450     13.911432
  O       4.164372     33.178263     13.496125
  H      10.099808     27.160917     10.857207
  H       6.593163     28.350574     12.839380
  H       7.697746     30.528400     13.194393
  H      11.030477     31.090295     13.011795
  H       9.709815     34.037077     10.601268
  H       8.947023     34.133641     13.231706
  H      11.901176     34.000768     11.563938
  H       7.411571     34.096184     11.235100
  H       7.449997     32.330679     11.275826
  H       5.535817     31.430654     14.827324
  O      11.734837     31.971304     10.737296
  H       9.724201     31.690616     10.382649
  H      11.922876     31.022382     10.660215
159
Coordinates from ORCA-job /data/Seafile/ump/al_surf/frames/frame15/ump_al_frame15 E -13365.185238663975
  Si      3.448516     33.825847      7.830174
  Si      3.485047     30.721714      7.827349
  O       2.139868     34.543865      8.474928
  O       2.195407     29.967864      8.476577
  O       3.511871     32.275117      8.342762
  O       3.459297     33.862024      6.190945
  O       3.448598     30.763049      6.191241
  Si      6.160277     26.078309      7.824470
  Si      8.863637     24.538423      7.820784
  O       4.830510     25.406955      8.475244
  O       7.493957     25.277967      8.325752
  O       8.918092     23.045067      8.467728
  O       6.124516     26.099907      6.186107
  O       8.824915     24.535066      6.185113
  Si      6.141361     29.154544      7.730431
  Si      6.083407     35.413888      7.712689
  Si      8.835485     33.835218      7.661457
  Si      8.858383     30.748635      7.677283
  O       4.856433     29.968385      8.322281
  O       4.787064     34.630439      8.329269
  O       7.429441     34.583925      8.062567
  O       7.509347     29.947879      8.113424
  O       6.224535     27.638936      8.328036
  O       8.744997     32.279584      8.217289
  O       5.930830     29.095003      6.107826
  O       5.884619     35.584339      6.094818
  O       8.952628     33.753744      6.023321
  O       8.993612     30.793247      6.046985
  Si      6.165752     38.499029      7.810145
  Si      8.847397     40.082403      7.818735
  O       4.887794     39.284162      8.451797
  O       7.534388     39.240632      8.325393
  O       6.189633     36.934591      8.312108
  O       8.722293     41.584023      8.442559
  O       6.185280     38.540533      6.174223
  O       8.894675     40.076351      6.178269
  Si     11.517245     26.102122      7.737995
  Si     14.170712     24.532405      7.806036
  O      10.164042     25.403888      8.331150
  O      12.861427     25.381543      8.323229
  O      13.999880     23.029302      8.407100
  O      11.471167     25.911567      6.112420
  O      14.151281     24.544367      6.167572
  Si     11.541021     29.265381      7.753654
  Al     11.613009     35.369273      7.786945
  Si     14.272686     33.793031      7.846039
  Si     14.219257     30.742719      7.775614
  O      10.171547     29.984724      8.291393
  O      10.084280     34.629909      8.263900
  O      13.047475     34.590683      8.505448
  O      12.890131     29.968025      8.355052
  O      11.503702     27.681581      8.136829
  O      14.379610     32.234235      8.406116
  O      11.544781     29.449101      6.123197
  O      11.810093     35.056995      6.050101
  O      14.074194     33.671482      6.218454
  O      14.025237     30.863429      6.152407
  Si     11.595502     38.641455      7.763861
  Si     14.324599     40.081862      7.813972
  O      10.232549     39.379367      8.330401
  O      12.932781     39.414774      8.356051
  O      11.634110     37.092030      8.137922
  O      14.564369     41.583814      8.401921
  O      11.651876     38.904275      6.135023
  O      14.320430     40.050548      6.175128
  Si     16.898989     26.019972      7.819838
  O      15.531074     25.274896      8.328335
  O      18.153445     25.207437      8.463362
  O      16.890401     25.994463      6.184113
  Si     16.923337     29.106191      7.739698
  Si     17.029658     35.353249      7.745233
  Si     19.681668     33.774639      7.800153
  Si     19.577080     30.670129      7.816948
  O      15.526533     29.840390      8.135034
  O      15.713994     34.513296      8.177013
  O      18.356177     34.585217      8.324774
  O      18.185360     29.959772      8.327925
  O      16.891700     27.581537      8.328775
  O      19.625431     32.223174      8.335730
  O      17.068362     28.970396      6.114622
  O      17.202426     35.388805      6.114237
  O      19.650182     33.736188      6.163700
  O      19.566286     30.654263      6.177921
  Si     16.972477     38.447902      7.802766
  O      15.619137     39.206195      8.322802
  O      18.328441     39.104120      8.422064
  O      16.951517     36.885311      8.309006
  O      16.980805     38.435036      6.163933
  O      20.789258     29.780492      8.436722
  O      21.070772     34.396837      8.381359
  H       4.074657     24.986772      8.036591
  H       1.410409     29.602015      8.036749
  H       1.410409     35.007985      8.036749
  H       4.074657     39.623228      8.036591
  H       8.948181     22.173255      8.038302
  H       8.948181     42.436745      8.038302
  H      14.277762     22.173204      8.038282
  H      14.277762     42.436796      8.038282
  H      18.960557     24.876228      8.036406
  H      18.960557     39.733772      8.036406
  H      21.624717     29.491420      8.036583
  H      21.624717     35.118580      8.036583
  H      13.223403     34.123895      5.963321
  H      11.040110     34.653351      5.637216
  H       8.925285     32.855165      5.666679
  H       9.808617     30.383044      5.713757
  H      12.326203     29.921781      5.788163
  H      14.003429     31.797443      5.864370
  H      13.484656     39.724044      5.804298
  H      10.837442     39.262663      5.756624
  H       8.130996     39.668415      5.749551
  H       6.028653     37.685049      5.748809
  H       5.178821     35.041837      5.714761
  H       3.413516     32.997791      5.760575
  H       4.128373     30.224232      5.761754
  H       6.039735     28.219727      5.710933
  H       6.858325     25.641393      5.755919
  H       9.628250     24.866853      5.759624
  H      12.277548     25.542559      5.725033
  H      14.908030     24.974309      5.747605
  H      17.007307     26.859927      5.766101
  H      17.774687     29.500136      5.719182
  H      19.579830     31.526827      5.761293
  H      18.931367     34.252476      5.768551
  H      17.108038     36.261642      5.709340
  H      16.224505     38.868197      5.746397
  N       9.420024     30.090450     12.202086
  C      10.144734     29.125500     11.546364
  N       9.500364     27.940093     11.354392
  C       8.211768     27.605618     11.757346
  C       7.518625     28.680705     12.408342
  C       8.144807     29.855783     12.612269
  O      11.289808     29.316173     11.160274
  O       7.777142     26.483985     11.541723
  C      10.113741     31.378227     12.466623
  C      10.465264     32.120205     11.166257
  C      10.155742     33.573658     11.503671
  C       9.023551     33.437651     12.498321
  O      11.249399     34.198257     12.141527
  O       9.291506     32.213432     13.213586
  C       7.655621     33.434969     11.853525
  O       6.667648     33.472587     12.863404
  P       5.296768     32.607521     12.780890
  O       5.182471     31.980469     11.436861
  O       5.595635     31.391863     13.817548
  O       4.222107     33.469616     13.343839
  H      10.030870     27.224775     10.872680
  H       6.503689     28.530034     12.743930
  H       7.667285     30.672375     13.134002
  H      11.018108     31.133091     13.031157
  H       9.860446     34.131204     10.610552
  H       9.067334     34.241459     13.235620
  H      12.036243     33.975954     11.628042
  H       7.563731     34.329618     11.228348
  H       7.515899     32.564569     11.206949
  H       5.498600     31.680731     14.731821
  O      11.797897     31.987725     10.771809
  H       9.784313     31.786599     10.378303
  H      11.955398     31.033172     10.706398
159
Coordinates from ORCA-job /data/Seafile/ump/al_surf/frames/frame15/ump_al_frame15 E -13365.185933243849
  Si      3.448013     33.828393      7.831656
  Si      3.486972     30.720361      7.829436
  O       2.146719     34.558335      8.476978
  O       2.203458     29.951703      8.473981
  O       3.498037     32.275417      8.336956
  O       3.461065     33.869291      6.192644
  O       3.460637     30.762295      6.193419
  Si      6.160510     26.081516      7.835184
  Si      8.862019     24.538251      7.828221
  O       4.834451     25.396058      8.478541
  O       7.495662     25.281817      8.332544
  O       8.903641     23.042653      8.471163
  O       6.126039     26.113094      6.197003
  O       8.825445     24.533934      6.192740
  Si      6.145181     29.159246      7.752748
  Si      6.085293     35.413896      7.727038
  Si      8.834795     33.838038      7.680847
  Si      8.859630     30.755493      7.708116
  O       4.860988     29.979495      8.335948
  O       4.789805     34.623720      8.335114
  O       7.437314     34.596262      8.088257
  O       7.514787     29.947226      8.145492
  O       6.215802     27.640940      8.344852
  O       8.750659     32.286602      8.250868
  O       5.941180     29.102413      6.129690
  O       5.898382     35.578315      6.107520
  O       8.937447     33.744870      6.043306
  O       8.986910     30.807684      6.077791
  Si      6.166024     38.501370      7.808887
  Si      8.847305     40.080279      7.813928
  O       4.904092     39.316357      8.444379
  O       7.541774     39.229284      8.320493
  O       6.176178     36.938466      8.316844
  O       8.697879     41.583964      8.426758
  O       6.180862     38.534090      6.173142
  O       8.902585     40.063806      6.173270
  Si     11.516015     26.102580      7.751458
  Si     14.168292     24.533313      7.808208
  O      10.163789     25.400156      8.341658
  O      12.864638     25.386294      8.332149
  O      13.976870     23.026291      8.394372
  O      11.466198     25.913258      6.126379
  O      14.151586     24.552407      6.169694
  Si     11.539048     29.263962      7.760644
  Al     11.612484     35.376732      7.781268
  Si     14.274928     33.795139      7.837387
  Si     14.221259     30.740687      7.769642
  O      10.177318     29.988364      8.308367
  O      10.085596     34.636239      8.269221
  O      13.052026     34.597971      8.491545
  O      12.892035     29.970083      8.348850
  O      11.496404     27.681880      8.151383
  O      14.376765     32.236019      8.391615
  O      11.528295     29.445366      6.130377
  O      11.803177     35.064837      6.042144
  O      14.069619     33.682327      6.209160
  O      14.031157     30.851263      6.145793
  Si     11.597878     38.650186      7.763104
  Si     14.329316     40.081767      7.814517
  O      10.239168     39.394345      8.328960
  O      12.938151     39.411207      8.358006
  O      11.628090     37.101097      8.132475
  O      14.566054     41.584467      8.402153
  O      11.658291     38.916217      6.135558
  O      14.329471     40.044364      6.175569
  Si     16.897309     26.019115      7.823192
  O      15.535349     25.262457      8.329944
  O      18.157109     25.214274      8.464736
  O      16.880080     25.994811      6.187733
  Si     16.924595     29.104039      7.741986
  Si     17.030830     35.352253      7.739969
  Si     19.682291     33.772225      7.795600
  Si     19.578043     30.668451      7.816105
  O      15.530528     29.844410      8.135835
  O      15.719977     34.502133      8.172031
  O      18.359592     34.588633      8.319255
  O      18.188651     29.955536      8.327666
  O      16.884449     27.580673      8.331803
  O      19.622970     32.222450      8.332300
  O      17.074809     28.962261      6.117593
  O      17.203725     35.385774      6.109387
  O      19.651420     33.724665      6.159023
  O      19.568283     30.646091      6.177568
  Si     16.974813     38.445544      7.796139
  O      15.627756     39.211405      8.319020
  O      18.343121     39.082718      8.409600
  O      16.945459     36.883317      8.302034
  O      16.981483     38.437814      6.157420
  O      20.790560     29.781607      8.437302
  O      21.075276     34.389265      8.371075
  H       4.074657     24.986772      8.036591
  H       1.410409     29.602015      8.036749
  H       1.410409     35.007985      8.036749
  H       4.074657     39.623228      8.036591
  H       8.948181     22.173255      8.038302
  H       8.948181     42.436745      8.038302
  H      14.277762     22.173204      8.038282
  H      14.277762     42.436796      8.038282
  H      18.960557     24.876228      8.036406
  H      18.960557     39.733772      8.036406
  H      21.624717     29.491420      8.036583
  H      21.624717     35.118580      8.036583
  H      13.206819     34.117285      5.964073
  H      11.029401     34.658884      5.638460
  H       8.929460     32.841260      5.697154
  H       9.794076     30.388473      5.737126
  H      12.315100     29.900109      5.785110
  H      14.023519     31.778610      5.844271
  H      13.490368     39.729199      5.802548
  H      10.839940     39.267308      5.758047
  H       8.134985     39.667589      5.741026
  H       6.038217     37.672296      5.755042
  H       5.190825     35.037060      5.728196
  H       3.425622     33.004884      5.761244
  H       4.138538     30.218540      5.767195
  H       6.052723     28.226863      5.733753
  H       6.855836     25.650250      5.764660
  H       9.626060     24.877047      5.770581
  H      12.272497     25.546072      5.736779
  H      14.902538     24.999541      5.756525
  H      17.008698     26.860108      5.771929
  H      17.781333     29.492868      5.723209
  H      19.582798     31.516062      5.755583
  H      18.933538     34.241913      5.763127
  H      17.116247     36.258473      5.702611
  H      16.215084     38.857202      5.743609
  N       9.422632     30.198360     12.188691
  C      10.126050     29.203854     11.552342
  N       9.441557     28.043867     11.346591
  C       8.131886     27.760619     11.718935
  C       7.463294     28.864717     12.346556
  C       8.127916     30.016142     12.563516
  O      11.287378     29.346783     11.194385
  O       7.657200     26.657837     11.490942
  C      10.156303     31.460317     12.466579
  C      10.554002     32.189069     11.173026
  C      10.317664     33.654241     11.517767
  C       9.163516     33.569224     12.493032
  O      11.436026     34.215601     12.168520
  O       9.349852     32.324722     13.198001
  C       7.811884     33.643290     11.818183
  O       6.795918     33.707340     12.796125
  P       5.443261     32.817731     12.697699
  O       5.427810     32.073742     11.410357
  O       5.675472     31.697163     13.849567
  O       4.326453     33.711875     13.104343
  H       9.959529     27.306036     10.885000
  H       6.432591     28.756015     12.649180
  H       7.671639     30.850784     13.075870
  H      11.043987     31.182044     13.042760
  H      10.060335     34.228660     10.622410
  H       9.238243     34.362755     13.238923
  H      12.216363     33.924271     11.679904
  H       7.779965     34.555621     11.212781
  H       7.650761     32.795552     11.147271
  H       5.530533     32.059934     14.731155
  O      11.881664     31.998064     10.789623
  H       9.862533     31.892270     10.378461
  H      12.002990     31.038195     10.741429
159
Coordinates from ORCA-job /data/Seafile/ump/al_surf/frames/frame15/ump_al_frame15 E -13365.186420000238
  Si      3.447014     33.831037      7.828281
  Si      3.486992     30.720053      7.821679
  O       2.153759     34.571951      8.477775
  O       2.213005     29.937188      8.468207
  O       3.486482     32.275746      8.325743
  O       3.457269     33.877364      6.189536
  O       3.460549     30.763360      6.186139
  Si      6.159921     26.083961      7.831473
  Si      8.860553     24.537667      7.824367
  O       4.839070     25.389582      8.476989
  O       7.497645     25.287732      8.325866
  O       8.889913     23.042575      8.470497
  O       6.122814     26.116309      6.193350
  O       8.826805     24.526735      6.189087
  Si      6.146617     29.163054      7.746994
  Si      6.085907     35.414780      7.727944
  Si      8.834397     33.840879      7.680480
  Si      8.861054     30.761168      7.706618
  O       4.865816     29.989003      8.329850
  O       4.793700     34.617307      8.332702
  O       7.443934     34.607700      8.094490
  O       7.518897     29.946749      8.142841
  O       6.209468     27.644445      8.338580
  O       8.752408     32.290360      8.258130
  O       5.941451     29.105028      6.124304
  O       5.903777     35.575375      6.107381
  O       8.924319     33.744248      6.043106
  O       8.987887     30.822694      6.076478
  Si      6.165893     38.504041      7.801889
  Si      8.847758     40.079318      7.805105
  O       4.918420     39.343072      8.434547
  O       7.548779     39.219270      8.310408
  O       6.164576     36.941702      8.312552
  O       8.675424     41.583425      8.410762
  O       6.174178     38.531488      6.166311
  O       8.910573     40.055206      6.164636
  Si     11.514377     26.103718      7.747614
  Si     14.165321     24.533801      7.801788
  O      10.163822     25.397908      8.338244
  O      12.866710     25.393520      8.327731
  O      13.956104     23.025379      8.379473
  O      11.463407     25.910625      6.123155
  O      14.153331     24.555158      6.163226
  Si     11.538769     29.264873      7.744179
  Al     11.613279     35.382046      7.769330
  Si     14.276576     33.796027      7.825595
  Si     14.224467     30.739469      7.756736
  O      10.181937     29.993335      8.295239
  O      10.087770     34.638337      8.260642
  O      13.056381     34.605818      8.476787
  O      12.893513     29.969986      8.327596
  O      11.489305     27.684872      8.141041
  O      14.373436     32.236800      8.374762
  O      11.523466     29.446199      6.114359
  O      11.803728     35.069897      6.029440
  O      14.067713     33.687606      6.196818
  O      14.042807     30.847817      6.131698
  Si     11.600465     38.657175      7.756310
  Si     14.334583     40.081923      7.811696
  O      10.245706     39.407635      8.322437
  O      12.943991     39.407600      8.354579
  O      11.622542     37.107429      8.119909
  O      14.569029     41.584648      8.401186
  O      11.665508     38.927639      6.129775
  O      14.337387     40.041036      6.172891
  Si     16.895978     26.016710      7.820849
  O      15.537502     25.251562      8.324515
  O      18.159211     25.219227      8.464444
  O      16.875308     25.993532      6.185475
  Si     16.925512     29.100906      7.738734
  Si     17.033363     35.350225      7.731906
  Si     19.683957     33.769091      7.789653
  Si     19.578277     30.665723      7.814237
  O      15.533651     29.846661      8.129296
  O      15.726301     34.491196      8.161809
  O      18.364484     34.591510      8.312298
  O      18.190134     29.950504      8.324713
  O      16.877268     27.578195      8.329037
  O      19.620407     32.220450      8.327694
  O      17.081719     28.954647      6.115184
  O      17.207465     35.384079      6.101867
  O      19.652843     33.716090      6.152904
  O      19.570398     30.639661      6.176307
  Si     16.977558     38.442671      7.788786
  O      15.635981     39.215625      8.313812
  O      18.355913     39.063789      8.397487
  O      16.939568     36.880241      8.293766
  O      16.982506     38.440098      6.150400
  O      20.790679     29.781122      8.437999
  O      21.080409     34.380933      8.361450
  H       4.074657     24.986772      8.036591
  H       1.410409     29.602015      8.036749
  H       1.410409     35.007985      8.036749
  H       4.074657     39.623228      8.036591
  H       8.948181     22.173255      8.038302
  H       8.948181     42.436745      8.038302
  H      14.277762     22.173204      8.038282
  H      14.277762     42.436796      8.038282
  H      18.960557     24.876228      8.036406
  H      18.960557     39.733772      8.036406
  H      21.624717     29.491420      8.036583
  H      21.624717     35.118580      8.036583
  H      13.210366     34.136045      5.952973
  H      11.026449     34.664746      5.631388
  H       8.924739     32.838079      5.702757
  H       9.790521     30.395438      5.733652
  H      12.313889     29.893424      5.767524
  H      14.048752     31.773186      5.824887
  H      13.494934     39.736193      5.798507
  H      10.844451     39.273510      5.752865
  H       8.140157     39.668197      5.729361
  H       6.043065     37.664880      5.754138
  H       5.194266     35.035145      5.730267
  H       3.425075     33.013361      5.757293
  H       4.135779     30.216276      5.759865
  H       6.056083     28.228176      5.731366
  H       6.847287     25.645920      5.760170
  H       9.627191     24.873846      5.769485
  H      12.271720     25.547941      5.733361
  H      14.903860     25.009694      5.756664
  H      17.013291     26.858860      5.772390
  H      17.786653     29.489052      5.722959
  H      19.585750     31.508563      5.752180
  H      18.936799     34.235880      5.757217
  H      17.119595     36.256563      5.694994
  H      16.209517     38.852127      5.741147
  N       9.386897     30.332869     12.103327
  C      10.072195     29.300827     11.508400
  N       9.347641     28.168073     11.285888
  C       8.012394     27.946500     11.605480
  C       7.366397     29.087028     12.190274
  C       8.071196     30.211042     12.425964
  O      11.251476     29.394583     11.197681
  O       7.502285     26.859434     11.378587
  C      10.165600     31.559323     12.411011
  C      10.650335     32.270123     11.137711
  C      10.494361     33.744964     11.488680
  C       9.300392     33.724394     12.418974
  O      11.625180     34.228634     12.178752
  O       9.369551     32.459864     13.108690
  C       7.987883     33.899874     11.688853
  O       6.934953     34.034439     12.618048
  P       5.547622     33.205714     12.471874
  O       5.553002     32.437148     11.198945
  O       5.677716     32.097582     13.650308
  O       4.455406     34.155695     12.813040
  H       9.852011     27.404036     10.851935
  H       6.322407     29.022861     12.457884
  H       7.627043     31.077387     12.894940
  H      11.015202     31.240187     13.022648
  H      10.304209     34.338564     10.589253
  H       9.398636     34.498922     13.182294
  H      12.399555     33.874582     11.721095
  H       8.051268     34.815944     11.091086
  H       7.794148     33.067812     11.007582
  H       5.518337     32.481406     14.520018
  O      11.975884     32.002019     10.797134
  H       9.967442     32.023791     10.318143
  H      12.050917     31.035796     10.764964
159
Coordinates from ORCA-job /data/Seafile/ump/al_surf/frames/frame15/ump_al_frame15 E -13365.187082162493
  Si      3.446317     33.832854      7.820478
  Si      3.485679     30.721024      7.812886
  O       2.159979     34.580196      8.477691
  O       2.217052     29.933615      8.464523
  O       3.481741     32.277019      8.316160
  O       3.447741     33.880117      6.181750
  O       3.452774     30.761949      6.177819
  Si      6.159670     26.086213      7.824493
  Si      8.859760     24.535434      7.816823
  O       4.839871     25.391672      8.475030
  O       7.499312     25.291829      8.317114
  O       8.883988     23.042379      8.468341
  O       6.119072     26.113487      6.186176
  O       8.827624     24.518347      6.181670
  Si      6.146061     29.167138      7.731239
  Si      6.087507     35.415480      7.712874
  Si      8.837096     33.843464      7.663416
  Si      8.863664     30.762875      7.692230
  O       4.868300     29.995918      8.318998
  O       4.796960     34.616461      8.319599
  O       7.447636     34.611877      8.081887
  O       7.518119     29.952761      8.127172
  O       6.207393     27.649267      8.324996
  O       8.758453     32.292889      8.242018
  O       5.937349     29.107943      6.108772
  O       5.904366     35.575065      6.091567
  O       8.923231     33.746532      6.026289
  O       8.995537     30.828040      6.061614
  Si      6.165374     38.505438      7.793525
  Si      8.847825     40.080328      7.797842
  O       4.922383     39.348692      8.430038
  O       7.550685     39.217084      8.301096
  O       6.163372     36.941782      8.299323
  O       8.670311     41.582983      8.405697
  O       6.166663     38.535797      6.157848
  O       8.913342     40.057748      6.157569
  Si     11.515213     26.099413      7.739165
  Si     14.166981     24.533421      7.798864
  O      10.164447     25.393823      8.328568
  O      12.866497     25.390711      8.321751
  O      13.963128     23.026387      8.381571
  O      11.464272     25.906909      6.114355
  O      14.156157     24.551715      6.160040
  Si     11.538542     29.258997      7.739851
  Al     11.615449     35.386733      7.749239
  Si     14.276004     33.798224      7.811095
  Si     14.222610     30.740726      7.746649
  O      10.181433     29.991412      8.287683
  O      10.091609     34.641853      8.244532
  O      13.055809     34.612050      8.457352
  O      12.895374     29.964494      8.319191
  O      11.489654     27.680284      8.138467
  O      14.372377     32.239539      8.360631
  O      11.523781     29.433017      6.109650
  O      11.810651     35.080713      6.010681
  O      14.068748     33.690071      6.181572
  O      14.039751     30.850079      6.121360
  Si     11.601884     38.659933      7.747055
  Si     14.337104     40.083962      7.809253
  O      10.247349     39.410031      8.314891
  O      12.946189     39.407382      8.347650
  O      11.621660     37.109416      8.109030
  O      14.567331     41.585876      8.404359
  O      11.669191     38.932679      6.120472
  O      14.343150     40.043155      6.170681
  Si     16.896915     26.017365      7.817249
  O      15.537696     25.253466      8.322390
  O      18.160337     25.221746      8.464308
  O      16.877171     25.991076      6.181659
  Si     16.925082     29.102019      7.729553
  Si     17.034718     35.351101      7.727571
  Si     19.683790     33.769491      7.789451
  Si     19.579129     30.666091      7.811047
  O      15.533051     29.849088      8.120076
  O      15.725533     34.491980      8.152187
  O      18.363457     34.590534      8.311412
  O      18.189030     29.951319      8.316897
  O      16.876999     27.579696      8.322521
  O      19.621625     32.220035      8.324895
  O      17.085307     28.954773      6.106562
  O      17.213452     35.388911      6.098438
  O      19.655548     33.715688      6.152252
  O      19.575502     30.641781      6.173543
  Si     16.977774     38.443059      7.789419
  O      15.637640     39.218219      8.314435
  O      18.356421     39.063916      8.398141
  O      16.937066     36.879948      8.292596
  O      16.982163     38.443182      6.151293
  O      20.790756     29.781917      8.439030
  O      21.075435     34.387205      8.367084
  H       4.074657     24.986772      8.036591
  H       1.410409     29.602015      8.036749
  H       1.410409     35.007985      8.036749
  H       4.074657     39.623228      8.036591
  H       8.948181     22.173255      8.038302
  H       8.948181     42.436745      8.038302
  H      14.277762     22.173204      8.038282
  H      14.277762     42.436796      8.038282
  H      18.960557     24.876228      8.036406
  H      18.960557     39.733772      8.036406
  H      21.624717     29.491420      8.036583
  H      21.624717     35.118580      8.036583
  H      13.230140     34.171837      5.930870
  H      11.031518     34.677533      5.613960
  H       8.925684     32.838078      5.690403
  H       9.796323     30.397262      5.720671
  H      12.310635     29.885271      5.763055
  H      14.019472     31.777399      5.818180
  H      13.499660     39.742512      5.794598
  H      10.846911     39.277908      5.745257
  H       8.141883     39.673663      5.721551
  H       6.042121     37.667219      5.747627
  H       5.191925     35.036809      5.717678
  H       3.410351     33.015432      5.751819
  H       4.127597     30.214757      5.750979
  H       6.051227     28.229143      5.719601
  H       6.840664     25.637576      5.754339
  H       9.630732     24.862456      5.764283
  H      12.275777     25.552079      5.723921
  H      14.911132     25.001824      5.756842
  H      17.016446     26.856289      5.769059
  H      17.790314     29.492342      5.718372
  H      19.591081     31.512479      5.752847
  H      18.945321     34.242020      5.755487
  H      17.117689     36.261908      5.694646
  H      16.208156     38.858731      5.747051
  N       9.409730     30.315263     12.106367
  C      10.104805     29.288948     11.517678
  N       9.394092     28.145932     11.312156
  C       8.066053     27.904666     11.647635
  C       7.408277     29.040975     12.225406
  C       8.098994     30.177489     12.442851
  O      11.284878     29.386456     11.206655
  O       7.576314     26.802708     11.449291
  C      10.178210     31.546317     12.409556
  C      10.670195     32.259141     11.138815
  C      10.518894     33.732901     11.501348
  C       9.318153     33.713495     12.421491
  O      11.649169     34.201531     12.198711
  O       9.369310     32.441707     13.098312
  C       8.018776     33.906298     11.672901
  O       6.945292     34.049353     12.579367
  P       5.579313     33.178903     12.448308
  O       5.615372     32.363892     11.204612
  O       5.732225     32.119315     13.668396
  O       4.456543     34.107697     12.749023
  H       9.905043     27.390630     10.875530
  H       6.370485     28.960697     12.512143
  H       7.643452     31.046704     12.894441
  H      11.023801     31.235666     13.030860
  H      10.336976     34.334641     10.607017
  H       9.412059     34.478917     13.194849
  H      12.416590     33.847120     11.731575
  H       8.103228     34.823804     11.080051
  H       7.827284     33.076952     10.988255
  H       5.562539     32.532416     14.522143
  O      11.995262     31.984489     10.794494
  H       9.983891     32.024433     10.319272
  H      12.072624     31.015260     10.762247
159
Coordinates from ORCA-job /data/Seafile/ump/al_surf/frames/frame15/ump_al_frame15 E -13365.187658102142
  Si      3.444492     33.835181      7.815600
  Si      3.484508     30.721804      7.806487
  O       2.168105     34.595102      8.477978
  O       2.224818     29.921432      8.459348
  O       3.469822     32.278315      8.308371
  O       3.440617     33.884724      6.176742
  O       3.450340     30.761327      6.171603
  Si      6.158283     26.089592      7.817838
  Si      8.857469     24.534015      7.809357
  O       4.842828     25.388588      8.472079
  O       7.501193     25.299697      8.308655
  O       8.870188     23.042558      8.465593
  O       6.115926     26.117456      6.179138
  O       8.829468     24.510654      6.174134
  Si      6.145861     29.172573      7.723661
  Si      6.087745     35.414960      7.709161
  Si      8.836453     33.844223      7.670321
  Si      8.865005     30.765462      7.695611
  O       4.871313     30.005791      8.314188
  O       4.799461     34.611661      8.313776
  O       7.449869     34.620169      8.088340
  O       7.518833     29.954072      8.126198
  O       6.200887     27.653537      8.315072
  O       8.759303     32.293327      8.252993
  O       5.940699     29.116675      6.100296
  O       5.910581     35.568211      6.085694
  O       8.917695     33.742985      6.033369
  O       9.000092     30.839952      6.064586
  Si      6.164374     38.505344      7.788574
  Si      8.848294     40.079502      7.793023
  O       4.930317     39.363853      8.422604
  O       7.554918     39.209744      8.295063
  O       6.154034     36.942396      8.295245
  O       8.653837     41.583026      8.393924
  O       6.158878     38.530515      6.152504
  O       8.922060     40.049182      6.153102
  Si     11.514157     26.096168      7.731193
  Si     14.166538     24.532876      7.793244
  O      10.165301     25.387205      8.319785
  O      12.866673     25.391550      8.315555
  O      13.956951     23.026601      8.375012
  O      11.464276     25.905918      6.105572
  O      14.159494     24.552620      6.154007
  Si     11.536927     29.255012      7.738723
  Al     11.615286     35.388842      7.754639
  Si     14.273652     33.796161      7.819697
  Si     14.221756     30.738035      7.749451
  O      10.181604     29.990519      8.289095
  O      10.093926     34.640754      8.248811
  O      13.054500     34.616948      8.464902
  O      12.897385     29.953390      8.315470
  O      11.485740     27.676257      8.135811
  O      14.366148     32.236549      8.365717
  O      11.523414     29.430644      6.108705
  O      11.814079     35.085448      6.017667
  O      14.068946     33.686805      6.189778
  O      14.041810     30.851401      6.123549
  Si     11.603995     38.661794      7.752622
  Si     14.340800     40.084383      7.815393
  O      10.250842     39.419134      8.316623
  O      12.951018     39.405869      8.354723
  O      11.615266     37.109978      8.116078
  O      14.566632     41.588041      8.408747
  O      11.673836     38.933147      6.125304
  O      14.346118     40.039561      6.177101
  Si     16.896760     26.016344      7.815969
  O      15.538569     25.248544      8.319961
  O      18.163014     25.226339      8.464730
  O      16.877147     25.991984      6.179843
  Si     16.924262     29.100864      7.731472
  Si     17.033594     35.348373      7.734771
  Si     19.683039     33.768669      7.793188
  Si     19.578759     30.665101      7.815272
  O      15.533910     29.849495      8.124437
  O      15.727627     34.483940      8.160943
  O      18.365551     34.592002      8.318488
  O      18.189111     29.948266      8.320282
  O      16.873221     27.577715      8.323393
  O      19.620509     32.218889      8.329365
  O      17.084067     28.954834      6.108281
  O      17.209532     35.386702      6.105432
  O      19.649840     33.715018      6.155584
  O      19.574104     30.643122      6.177838
  Si     16.978572     38.440714      7.794625
  O      15.643788     39.222969      8.323066
  O      18.364910     39.053759      8.394515
  O      16.931464     36.877618      8.300038
  O      16.976077     38.441728      6.156527
  O      20.792806     29.782614      8.442757
  O      21.076304     34.386606      8.367483
  H       4.074657     24.986772      8.036591
  H       1.410409     29.602015      8.036749
  H       1.410409     35.007985      8.036749
  H       4.074657     39.623228      8.036591
  H       8.948181     22.173255      8.038302
  H       8.948181     42.436745      8.038302
  H      14.277762     22.173204      8.038282
  H      14.277762     42.436796      8.038282
  H      18.960557     24.876228      8.036406
  H      18.960557     39.733772      8.036406
  H      21.624717     29.491420      8.036583
  H      21.624717     35.118580      8.036583
  H      13.239400     34.179828      5.934294
  H      11.035388     34.680680      5.621310
  H       8.927497     32.832382      5.703042
  H       9.798890     30.405792      5.722845
  H      12.308728     29.887964      5.764383
  H      14.008362     31.780699      5.824963
  H      13.501297     39.742161      5.801817
  H      10.849810     39.273667      5.749387
  H       8.147772     39.674308      5.714268
  H       6.045641     37.657950      5.747364
  H       5.193791     35.035076      5.713029
  H       3.401048     33.020047      5.747192
  H       4.125101     30.213736      5.745490
  H       6.052341     28.236902      5.712711
  H       6.834176     25.637581      5.746519
  H       9.631572     24.860125      5.759298
  H      12.277473     25.556384      5.714297
  H      14.916667     25.003815      5.755865
  H      17.018879     26.857861      5.769477
  H      17.788177     29.494882      5.722082
  H      19.587560     31.515087      5.759896
  H      18.941407     34.244363      5.760272
  H      17.107093     36.258930      5.702036
  H      16.197573     38.855240      5.758745
  N       9.412195     30.362033     12.054176
  C      10.107174     29.314929     11.501996
  N       9.385747     28.179693     11.292092
  C       8.046508     27.960448     11.596975
  C       7.389910     29.115741     12.137212
  C       8.089277     30.248002     12.351573
  O      11.297032     29.389486     11.223362
  O       7.550953     26.858598     11.412830
  C      10.196695     31.578919     12.378816
  C      10.744881     32.288883     11.130183
  C      10.649059     33.761135     11.513490
  C       9.416986     33.778018     12.391030
  O      11.779344     34.160165     12.257578
  O       9.388376     32.492416     13.045093
  C       8.157455     34.038808     11.597597
  O       7.046486     34.200643     12.458298
  P       5.695591     33.303807     12.325689
  O       5.785148     32.426744     11.127340
  O       5.824271     32.312111     13.605603
  O       4.548819     34.228328     12.540928
  H       9.898610     27.411497     10.879544
  H       6.341358     29.057038     12.388430
  H       7.635016     31.128794     12.780171
  H      11.016256     31.250486     13.025772
  H      10.523615     34.387265     10.626501
  H       9.512731     34.525563     13.181544
  H      12.544160     33.769486     11.810061
  H       8.299803     34.966606     11.033701
  H       7.964432     33.233098     10.885552
  H       5.630131     32.769578     14.431211
  O      12.064430     31.969101     10.816280
  H      10.067960     32.096686     10.289973
  H      12.105240     30.999328     10.785476
159
Coordinates from ORCA-job /data/Seafile/ump/al_surf/frames/frame15/ump_al_frame15 E -13365.188186533967
  Si      3.442893     33.838364      7.813782
  Si      3.481976     30.724420      7.805807
  O       2.176995     34.612483      8.480105
  O       2.228662     29.914347      8.457908
  O       3.458259     32.281515      8.307697
  O       3.432793     33.886921      6.174883
  O       3.445676     30.761753      6.171211
  Si      6.156239     26.093346      7.809683
  Si      8.855707     24.532544      7.800082
  O       4.844556     25.388452      8.469044
  O       7.503205     25.308563      8.298054
  O       8.856776     23.043513      8.462027
  O       6.111346     26.122100      6.170762
  O       8.831781     24.503815      6.164987
  Si      6.144045     29.178789      7.717124
  Si      6.089617     35.414050      7.703877
  Si      8.838429     33.843897      7.674531
  Si      8.866354     30.765165      7.697752
  O       4.872326     30.014712      8.313281
  O       4.802616     34.608974      8.308257
  O       7.451826     34.625289      8.091613
  O       7.517042     29.957702      8.124263
  O       6.194968     27.657841      8.303798
  O       8.761601     32.291794      8.258121
  O       5.942641     29.128921      6.093002
  O       5.916398     35.561658      6.078764
  O       8.917280     33.739590      6.037745
  O       9.004938     30.844957      6.066218
  Si      6.163584     38.504841      7.785883
  Si      8.850075     40.079914      7.790897
  O       4.933796     39.370157      8.419188
  O       7.557432     39.207032      8.291521
  O       6.149727     36.942203      8.291646
  O       8.647518     41.583202      8.389217
  O       6.151254     38.526370      6.149375
  O       8.930214     40.045961      6.151581
  Si     11.515427     26.091843      7.720705
  Si     14.169594     24.532826      7.790682
  O      10.168077     25.379515      8.307302
  O      12.866453     25.388636      8.308553
  O      13.967566     23.028986      8.378930
  O      11.467245     25.905593      6.094392
  O      14.164833     24.553198      6.151208
  Si     11.536385     29.250235      7.742766
  Al     11.616951     35.390002      7.755662
  Si     14.270473     33.795672      7.819784
  Si     14.220311     30.739012      7.755776
  O      10.180376     29.987093      8.294612
  O      10.099748     34.637768      8.253258
  O      13.053886     34.620730      8.465104
  O      12.900205     29.941794      8.318370
  O      11.487521     27.670437      8.135368
  O      14.363602     32.237414      8.370175
  O      11.526133     29.425188      6.112712
  O      11.818881     35.093856      6.020096
  O      14.064055     33.675625      6.191104
  O      14.043496     30.857645      6.129470
  Si     11.606167     38.659837      7.757501
  Si     14.343390     40.085755      7.820189
  O      10.253011     39.422343      8.319079
  O      12.955481     39.405332      8.358113
  O      11.610990     37.107944      8.125166
  O      14.563061     41.589473      8.415132
  O      11.676892     38.929286      6.129069
  O      14.347246     40.040718      6.182452
  Si     16.898538     26.018130      7.816748
  O      15.538985     25.251798      8.321704
  O      18.166288     25.231480      8.467019
  O      16.881348     25.993245      6.180163
  Si     16.923466     29.103409      7.733672
  Si     17.033021     35.348250      7.734574
  Si     19.682417     33.770599      7.797077
  Si     19.579869     30.666433      7.819204
  O      15.534357     29.852489      8.130921
  O      15.726435     34.485467      8.158643
  O      18.363803     34.591426      8.321769
  O      18.189269     29.949543      8.323020
  O      16.874404     27.579087      8.325246
  O      19.622756     32.219880      8.333102
  O      17.080034     28.959768      6.110426
  O      17.211645     35.390424      6.105838
  O      19.649380     33.718614      6.159343
  O      19.574150     30.648859      6.181764
  Si     16.979105     38.441134      7.799806
  O      15.647347     39.226741      8.332185
  O      18.366882     39.053042      8.395948
  O      16.929128     36.877130      8.303782
  O      16.968957     38.444561      6.161732
  O      20.796256     29.786032      8.447590
  O      21.069845     34.396272      8.377342
  H       4.074657     24.986772      8.036591
  H       1.410409     29.602015      8.036749
  H       1.410409     35.007985      8.036749
  H       4.074657     39.623228      8.036591
  H       8.948181     22.173255      8.038302
  H       8.948181     42.436745      8.038302
  H      14.277762     22.173204      8.038282
  H      14.277762     42.436796      8.038282
  H      18.960557     24.876228      8.036406
  H      18.960557     39.733772      8.036406
  H      21.624717     29.491420      8.036583
  H      21.624717     35.118580      8.036583
  H      13.235039     34.165487      5.932224
  H      11.042227     34.687770      5.621222
  H       8.933787     32.827256      5.711819
  H       9.801620     30.406895      5.724705
  H      12.310818     29.886355      5.771149
  H      14.033072     31.790744      5.836758
  H      13.502689     39.740786      5.808177
  H      10.852042     39.267703      5.752859
  H       8.152667     39.681431      5.710170
  H       6.046298     37.651089      5.747801
  H       5.194645     35.035152      5.706585
  H       3.389853     33.021600      5.746895
  H       4.122392     30.216580      5.745511
  H       6.049367     28.248617      5.705615
  H       6.827144     25.640290      5.736657
  H       9.633016     24.857455      5.752101
  H      12.282064     25.561720      5.701931
  H      14.927072     24.999003      5.756522
  H      17.019580     26.859783      5.769971
  H      17.785212     29.500024      5.726134
  H      19.584376     31.523873      5.769559
  H      18.943606     34.250190      5.762127
  H      17.102599     36.263230      5.705066
  H      16.188344     38.862681      5.771974
  N       9.424003     30.355590     11.993537
  C      10.137089     29.300641     11.483054
  N       9.423661     28.159963     11.274234
  C       8.079208     27.937973     11.554656
  C       7.403807     29.102715     12.048084
  C       8.092472     30.242805     12.253018
  O      11.335603     29.370824     11.233308
  O       7.597676     26.826899     11.390324
  C      10.199603     31.568210     12.344873
  C      10.798262     32.289893     11.128297
  C      10.718284     33.753916     11.544474
  C       9.455948     33.779736     12.377327
  O      11.827764     34.105611     12.343949
  O       9.367318     32.476817     12.989262
  C       8.237842     34.103015     11.544043
  O       7.088909     34.265429     12.356270
  P       5.755667     33.344302     12.206796
  O       5.874411     32.475622     11.004300
  O       5.888332     32.352062     13.488193
  O       4.590078     34.249452     12.411277
  H       9.950121     27.385875     10.891053
  H       6.347285     29.047902     12.264553
  H       7.623768     31.130944     12.648955
  H      10.994367     31.234683     13.020430
  H      10.638563     34.407494     10.672510
  H       9.539693     34.500610     13.193680
  H      12.597698     33.714644     11.907292
  H       8.426187     35.046527     11.023561
  H       8.055476     33.326901     10.796344
  H       5.685628     32.809719     14.311568
  O      12.119258     31.947524     10.849059
  H      10.143766     32.133212     10.263002
  H      12.141158     30.976251     10.811641
159
Coordinates from ORCA-job /data/Seafile/ump/al_surf/frames/frame15/ump_al_frame15 E -13365.188465084080
  Si      3.441240     33.840083      7.814829
  Si      3.479764     30.726631      7.812222
  O       2.180543     34.622063      8.481634
  O       2.226279     29.915323      8.461400
  O       3.453192     32.284389      8.314299
  O       3.428202     33.883931      6.175926
  O       3.444375     30.762937      6.177596
  Si      6.154667     26.094028      7.809698
  Si      8.855842     24.532483      7.800060
  O       4.844572     25.387737      8.469687
  O       7.504177     25.312610      8.296829
  O       8.849896     23.043693      8.461790
  O       6.108917     26.126367      6.170907
  O       8.833667     24.505050      6.165067
  Si      6.141280     29.180240      7.721979
  Si      6.090307     35.413520      7.698282
  Si      8.839984     33.842043      7.674268
  Si      8.865016     30.761582      7.703095
  O       4.869873     30.016290      8.319432
  O       4.803052     34.609924      8.303639
  O       7.450670     34.624331      8.086438
  O       7.513281     29.959282      8.128335
  O       6.191263     27.657849      8.304685
  O       8.760491     32.289753      8.255805
  O       5.942202     29.134205      6.097680
  O       5.916223     35.560946      6.073560
  O       8.923744     33.733908      6.037829
  O       9.005506     30.836953      6.071390
  Si      6.162868     38.504361      7.784467
  Si      8.851259     40.081394      7.790378
  O       4.932011     39.365824      8.420358
  O       7.556713     39.209092      8.289417
  O       6.151028     36.941592      8.288538
  O       8.651182     41.583348      8.391810
  O       6.148530     38.526402      6.147764
  O       8.933392     40.049525      6.151365
  Si     11.517920     26.090709      7.720832
  Si     14.174143     24.533374      7.793336
  O      10.171780     25.375109      8.305955
  O      12.867640     25.385669      8.308337
  O      13.983784     23.031351      8.388084
  O      11.470119     25.909205      6.094510
  O      14.167719     24.556110      6.154036
  Si     11.535289     29.248965      7.754811
  Al     11.617509     35.388829      7.756205
  Si     14.267897     33.796784      7.816873
  Si     14.217019     30.742532      7.761445
  O      10.177100     29.983817      8.308484
  O      10.102723     34.633219      8.256653
  O      13.053704     34.620621      8.464240
  O      12.901267     29.937891      8.329229
  O      11.492506     27.667527      8.143626
  O      14.364441     32.240042      8.373773
  O      11.524548     29.422969      6.124462
  O      11.820225     35.097432      6.020563
  O      14.060570     33.667083      6.189829
  O      14.033550     30.862173      6.136093
  Si     11.606146     38.655952      7.760072
  Si     14.342573     40.086660      7.822919
  O      10.251939     39.420254      8.319713
  O      12.955778     39.405487      8.358359
  O      11.608625     37.105311      8.132087
  O      14.558857     41.589249      8.419709
  O      11.676829     38.924625      6.131231
  O      14.346112     40.045066      6.185479
  Si     16.900929     26.021661      7.819494
  O      15.540034     25.258837      8.326540
  O      18.169221     25.235879      8.469744
  O      16.885697     25.993764      6.182929
  Si     16.922321     29.107964      7.734375
  Si     17.032163     35.350105      7.730411
  Si     19.682228     33.773919      7.798582
  Si     19.581109     30.668960      7.819830
  O      15.533066     29.856176      8.133339
  O      15.723040     34.493150      8.151517
  O      18.360216     34.590564      8.320358
  O      18.189033     29.953745      8.323223
  O      16.877668     27.583231      8.326652
  O      19.625432     32.222342      8.333647
  O      17.075254     28.965074      6.111242
  O      17.215928     35.395007      6.102363
  O      19.652480     33.723702      6.161324
  O      19.574220     30.654485      6.182028
  Si     16.978835     38.443408      7.801549
  O      15.646605     39.227574      8.336998
  O      18.363318     39.058470      8.399464
  O      16.930398     36.878711      8.302618
  O      16.963816     38.447309      6.163199
  O      20.798216     29.789510      8.449374
  O      21.063402     34.405789      8.386652
  H       4.074657     24.986772      8.036591
  H       1.410409     29.602015      8.036749
  H       1.410409     35.007985      8.036749
  H       4.074657     39.623228      8.036591
  H       8.948181     22.173255      8.038302
  H       8.948181     42.436745      8.038302
  H      14.277762     22.173204      8.038282
  H      14.277762     42.436796      8.038282
  H      18.960557     24.876228      8.036406
  H      18.960557     39.733772      8.036406
  H      21.624717     29.491420      8.036583
  H      21.624717     35.118580      8.036583
  H      13.224068     34.141840      5.930567
  H      11.045350     34.693696      5.616250
  H       8.945049     32.820630      5.713897
  H       9.800227     30.395300      5.730489
  H      12.303986     29.892846      5.782677
  H      14.028694     31.797513      5.848942
  H      13.504243     39.737014      5.811305
  H      10.852951     39.264728      5.754150
  H       8.153753     39.692437      5.707755
  H       6.045429     37.651488      5.744861
  H       5.191130     35.039605      5.700373
  H       3.387018     33.017684      5.749181
  H       4.125126     30.222418      5.752027
  H       6.045889     28.254638      5.708058
  H       6.823128     25.644959      5.734062
  H       9.632553     24.862930      5.751828
  H      12.284211     25.565391      5.700548
  H      14.933326     24.995150      5.758058
  H      17.016691     26.860005      5.769728
  H      17.782511     29.502156      5.726084
  H      19.583778     31.531689      5.773691
  H      18.947092     34.253772      5.760578
  H      17.107547     36.268925      5.703023
  H      16.183694     38.870026      5.776589
  N       9.451560     30.286235     11.993746
  C      10.188879     29.243514     11.495040
  N       9.499457     28.086817     11.289922
  C       8.158436     27.839014     11.566189
  C       7.455550     28.994698     12.042091
  C       8.120094     30.148925     12.243357
  O      11.387189     29.334391     11.246327
  O       7.699308     26.718942     11.399443
  C      10.198605     31.513670     12.351570
  C      10.793951     32.250903     11.144701
  C      10.685245     33.707750     11.574383
  C       9.407052     33.707231     12.384377
  O      11.769283     34.062090     12.406957
  O       9.336906     32.401001     12.989492
  C       8.193286     34.005845     11.533912
  O       7.031146     34.155839     12.328393
  P       5.742126     33.171453     12.221760
  O       5.887961     32.277807     11.040701
  O       5.926157     32.220015     13.528396
  O       4.540417     34.031995     12.411712
  H      10.045030     27.316991     10.922990
  H       6.397887     28.922538     12.247553
  H       7.632385     31.029172     12.633932
  H      10.995512     31.196835     13.033192
  H      10.615904     34.373874     10.710154
  H       9.462145     34.428074     13.203006
  H      12.552908     33.686751     11.984035
  H       8.368619     34.949511     11.010170
  H       8.032892     33.221116     10.789603
  H       5.714095     32.694494     14.340106
  O      12.122675     31.928646     10.872860
  H      10.150228     32.091481     10.274169
  H      12.156938     30.956959     10.834807
159
Coordinates from ORCA-job /data/Seafile/ump/al_surf/frames/frame15/ump_al_frame15 E -13365.188930698670
  Si      3.440594     33.842267      7.816733
  Si      3.479200     30.727190      7.815904
  O       2.186102     34.635571      8.482266
  O       2.228174     29.909073      8.461339
  O       3.443843     32.285792      8.315011
  O       3.428972     33.885853      6.177969
  O       3.450127     30.764674      6.181076
  Si      6.153384     26.094910      7.814990
  Si      8.855003     24.532716      7.806636
  O       4.847006     25.380933      8.472039
  O       7.504811     25.316425      8.299534
  O       8.835791     23.041783      8.463301
  O       6.106818     26.133706      6.176446
  O       8.837552     24.507733      6.171690
  Si      6.141478     29.182015      7.735871
  Si      6.092531     35.412339      7.705862
  Si      8.840712     33.840555      7.688393
  Si      8.865275     30.761558      7.723490
  O       4.869638     30.020708      8.328015
  O       4.805175     34.605863      8.305719
  O       7.454632     34.628891      8.098139
  O       7.513734     29.958193      8.145843
  O       6.184325     27.657774      8.312929
  O       8.760437     32.290016      8.275702
  O       5.947360     29.138897      6.111230
  O       5.924606     35.557686      6.081116
  O       8.920326     33.726220      6.052339
  O       9.005479     30.837649      6.092348
  Si      6.162026     38.504348      7.782296
  Si      8.851233     40.081309      7.787071
  O       4.937482     39.376220      8.415487
  O       7.558231     39.205754      8.284175
  O       6.145882     36.942948      8.290793
  O       8.643052     41.583342      8.385069
  O       6.146025     38.521639      6.145722
  O       8.939444     40.045936      6.148245
  Si     11.517688     26.092230      7.736561
  Si     14.175649     24.534929      7.801004
  O      10.172590     25.371052      8.317336
  O      12.869703     25.387025      8.319420
  O      13.985854     23.031020      8.391259
  O      11.468684     25.914942      6.110715
  O      14.167332     24.563809      6.162028
  Si     11.534808     29.249471      7.764491
  Al     11.616568     35.389793      7.760913
  Si     14.267388     33.799007      7.817322
  Si     14.217323     30.743924      7.760663
  O      10.179357     29.984185      8.323351
  O      10.104211     34.629314      8.266142
  O      13.056029     34.622887      8.466936
  O      12.903373     29.939974      8.330246
  O      11.492093     27.668882      8.159334
  O      14.365126     32.241750      8.370694
  O      11.514652     29.422453      6.133857
  O      11.815937     35.098884      6.023787
  O      14.059443     33.671756      6.190324
  O      14.026366     30.858181      6.136058
  Si     11.605265     38.656179      7.763145
  Si     14.341840     40.086497      7.826868
  O      10.252585     39.425583      8.319130
  O      12.955558     39.403308      8.361086
  O      11.601888     37.107646      8.138006
  O      14.555684     41.589066      8.423453
  O      11.679666     38.923711      6.134613
  O      14.348599     40.044526      6.189376
  Si     16.901784     26.023744      7.824428
  O      15.543190     25.258450      8.333370
  O      18.173666     25.242734      8.472862
  O      16.882482     25.992613      6.188209
  Si     16.923165     29.110063      7.735636
  Si     17.031741     35.351362      7.729725
  Si     19.682527     33.775349      7.799383
  Si     19.582684     30.670107      7.819835
  O      15.534760     29.859621      8.133070
  O      15.723275     34.493761      8.149193
  O      18.359572     34.592079      8.319742
  O      18.190911     29.954898      8.323356
  O      16.877132     27.586095      8.328807
  O      19.626258     32.223822      8.333216
  O      17.076316     28.964096      6.112799
  O      17.218442     35.395532      6.102045
  O      19.655038     33.721879      6.162719
  O      19.575611     30.654328      6.181767
  Si     16.978349     38.444383      7.800362
  O      15.648213     39.230235      8.339558
  O      18.365962     39.053978      8.396033
  O      16.928795     36.880043      8.300847
  O      16.959169     38.448605      6.161666
  O      20.799589     29.791980      8.450497
  O      21.062986     34.406826      8.388394
  H       4.074657     24.986772      8.036591
  H       1.410409     29.602015      8.036749
  H       1.410409     35.007985      8.036749
  H       4.074657     39.623228      8.036591
  H       8.948181     22.173255      8.038302
  H       8.948181     42.436745      8.038302
  H      14.277762     22.173204      8.038282
  H      14.277762     42.436796      8.038282
  H      18.960557     24.876228      8.036406
  H      18.960557     39.733772      8.036406
  H      21.624717     29.491420      8.036583
  H      21.624717     35.118580      8.036583
  H      13.219912     34.142029      5.933471
  H      11.038302     34.700985      5.619010
  H       8.950619     32.811643      5.731946
  H       9.797033     30.391018      5.749610
  H      12.291178     29.893248      5.787042
  H      14.003947     31.792584      5.849009
  H      13.507729     39.735675      5.813569
  H      10.855396     39.260855      5.755413
  H       8.157380     39.700837      5.699806
  H       6.050454     37.644844      5.744885
  H       5.198991     35.038434      5.705845
  H       3.396445     33.019534      5.750380
  H       4.133271     30.225774      5.756616
  H       6.050246     28.259702      5.720016
  H       6.814775     25.646730      5.735804
  H       9.634355     24.871859      5.760176
  H      12.282050     25.572139      5.714367
  H      14.933221     25.003179      5.766580
  H      17.013419     26.857717      5.772472
  H      17.783206     29.500328      5.725830
  H      19.588045     31.531373      5.772949
  H      18.950837     34.251641      5.759304
  H      17.112866     36.269212      5.701284
  H      16.176165     38.868323      5.777285
  N       9.471992     30.316437     11.955012
  C      10.211483     29.260166     11.488833
  N       9.523097     28.102564     11.289801
  C       8.174520     27.868506     11.540269
  C       7.466404     29.039331     11.972062
  C       8.133924     30.191666     12.176462
  O      11.413334     29.341675     11.267543
  O       7.709534     26.750868     11.374934
  C      10.221933     31.539299     12.326618
  C      10.861629     32.261381     11.134006
  C      10.788104     33.717171     11.571494
  C       9.482079     33.750929     12.337989
  O      11.853982     34.027447     12.444916
  O       9.352497     32.443659     12.931280
  C       8.303823     34.090341     11.451168
  O       7.127334     34.298290     12.205469
  P       5.841319     33.313016     12.124647
  O       6.001220     32.370848     10.984544
  O       5.998417     32.410872     13.467729
  O       4.641085     34.184723     12.259958
  H      10.074959     27.320791     10.955600
  H       6.405171     28.975312     12.160686
  H       7.643074     31.082651     12.537705
  H      10.998048     31.217851     13.030054
  H      10.771004     34.392099     10.710527
  H       9.534954     34.466164     13.161656
  H      12.637876     33.609597     12.061874
  H       8.530122     35.022375     10.925558
  H       8.132799     33.306021     10.709362
  H       5.786774     32.919091     14.258805
  O      12.187933     31.905253     10.891147
  H      10.232528     32.122907     10.248827
  H      12.203450     30.933142     10.874318
159
Coordinates from ORCA-job /data/Seafile/ump/al_surf/frames/frame15/ump_al_frame15 E -13365.189239210500
  Si      3.442482     33.842869      7.820180
  Si      3.479935     30.727921      7.818714
  O       2.189402     34.642059      8.482983
  O       2.227832     29.908900      8.462413
  O       3.442308     32.286172      8.318741
  O       3.431219     33.884861      6.181265
  O       3.454241     30.768035      6.183322
  Si      6.152967     26.094431      7.815197
  Si      8.855615     24.533008      7.807880
  O       4.849193     25.376643      8.472455
  O       7.505678     25.317867      8.297505
  O       8.827176     23.040702      8.461993
  O       6.103738     26.136221      6.176685
  O       8.843524     24.509623      6.172664
  Si      6.141798     29.181649      7.741953
  Si      6.095717     35.410674      7.709674
  Si      8.843795     33.838627      7.689725
  Si      8.866372     30.759864      7.730577
  O       4.869458     30.020437      8.331580
  O       4.809116     34.602680      8.308740
  O       7.459372     34.628127      8.098552
  O       7.514414     29.956911      8.151615
  O       6.181720     27.656596      8.316187
  O       8.760306     32.289604      8.278446
  O       5.948477     29.139114      6.116896
  O       5.927180     35.556507      6.085455
  O       8.921476     33.723425      6.053330
  O       9.008393     30.830856      6.099703
  Si      6.162041     38.503092      7.781056
  Si      8.851384     40.080987      7.784410
  O       4.937839     39.375556      8.414963
  O       7.558274     39.205016      8.280344
  O       6.147543     36.942315      8.292268
  O       8.642599     41.582706      8.383874
  O       6.144605     38.519419      6.144528
  O       8.941314     40.047064      6.145171
  Si     11.518799     26.094427      7.747448
  Si     14.177664     24.535959      7.807416
  O      10.173282     25.369181      8.323457
  O      12.871336     25.387144      8.327260
  O      13.991686     23.030582      8.396366
  O      11.471163     25.922504      6.121175
  O      14.167911     24.566980      6.168509
  Si     11.534993     29.250522      7.772409
  Al     11.617957     35.389095      7.758164
  Si     14.269389     33.800531      7.811368
  Si     14.216416     30.744851      7.760767
  O      10.180525     29.984481      8.332925
  O      10.107995     34.625546      8.267266
  O      13.059234     34.623419      8.461921
  O      12.903112     29.943469      8.335583
  O      11.492805     27.670630      8.170981
  O      14.368687     32.243815      8.366543
  O      11.510324     29.421787      6.140990
  O      11.814747     35.097812      6.020346
  O      14.060862     33.674908      6.184224
  O      14.018815     30.853653      6.136451
  Si     11.604265     38.655345      7.759712
  Si     14.339926     40.086572      7.825329
  O      10.252693     39.425907      8.315450
  O      12.953723     39.401736      8.357136
  O      11.599453     37.107504      8.136483
  O      14.552940     41.588868      8.423504
  O      11.680311     38.922127      6.131333
  O      14.349292     40.046728      6.187164
  Si     16.902215     26.025450      7.828533
  O      15.544753     25.260666      8.339418
  O      18.175946     25.245002      8.474654
  O      16.880567     25.992268      6.192346
  Si     16.923422     29.111642      7.737353
  Si     17.032495     35.353712      7.725362
  Si     19.683020     33.776496      7.798525
  Si     19.582967     30.671282      7.818788
  O      15.534744     29.861196      8.132961
  O      15.723403     34.496759      8.141574
  O      18.358781     34.593220      8.316260
  O      18.191851     29.956320      8.323746
  O      16.877909     27.588307      8.331424
  O      19.626287     32.225283      8.332028
  O      17.076045     28.964754      6.114029
  O      17.222599     35.398258      6.097544
  O      19.658924     33.721798      6.162119
  O      19.575721     30.654068      6.180095
  Si     16.976994     38.445811      7.797006
  O      15.646333     39.230359      8.337454
  O      18.363829     39.055205      8.395095
  O      16.929292     36.881844      8.296409
  O      16.958024     38.450180      6.157665
  O      20.800029     29.793966      8.450010
  O      21.062967     34.407341      8.389692
  H       4.074657     24.986772      8.036591
  H       1.410409     29.602015      8.036749
  H       1.410409     35.007985      8.036749
  H       4.074657     39.623228      8.036591
  H       8.948181     22.173255      8.038302
  H       8.948181     42.436745      8.038302
  H      14.277762     22.173204      8.038282
  H      14.277762     42.436796      8.038282
  H      18.960557     24.876228      8.036406
  H      18.960557     39.733772      8.036406
  H      21.624717     29.491420      8.036583
  H      21.624717     35.118580      8.036583
  H      13.223879     34.151259      5.928454
  H      11.035881     34.705326      5.613021
  H       8.950546     32.809272      5.732089
  H       9.800386     30.383949      5.757983
  H      12.289901     29.883930      5.790098
  H      14.001878     31.786832      5.845846
  H      13.508578     39.738749      5.810332
  H      10.856597     39.258578      5.750536
  H       8.158667     39.708466      5.693174
  H       6.049414     37.642965      5.743202
  H       5.204176     35.034942      5.708984
  H       3.403108     33.018836      5.753146
  H       4.136920     30.228601      5.758738
  H       6.049630     28.260456      5.723894
  H       6.807241     25.646131      5.732443
  H       9.640303     24.875689      5.762522
  H      12.284641     25.581135      5.723782
  H      14.935805     25.000870      5.771102
  H      17.013388     26.855737      5.774215
  H      17.781021     29.501285      5.724424
  H      19.591804     31.530591      5.770493
  H      18.958054     34.254170      5.756796
  H      17.114720     36.270998      5.695612
  H      16.177235     38.872818      5.772226
  N       9.476716     30.305887     11.937648
  C      10.226805     29.248498     11.489337
  N       9.544727     28.086341     11.293428
  C       8.191992     27.852856     11.520715
  C       7.473499     29.025656     11.929041
  C       8.134877     30.180385     12.138368
  O      11.432097     29.333372     11.284253
  O       7.732878     26.731548     11.365058
  C      10.214130     31.533023     12.318942
  C      10.873221     32.257645     11.137690
  C      10.786683     33.711761     11.578939
  C       9.463754     33.741108     12.316911
  O      11.828709     34.018729     12.480385
  O       9.327542     32.432505     12.905042
  C       8.298783     34.079846     11.411380
  O       7.113810     34.313216     12.143664
  P       5.830699     33.325441     12.073778
  O       5.984553     32.377430     10.938059
  O       5.988615     32.424343     13.416183
  O       4.632269     34.198159     12.211087
  H      10.100827     27.303380     10.974610
  H       6.409506     28.960541     12.100713
  H       7.636527     31.074425     12.481399
  H      10.980412     31.217362     13.035520
  H      10.791779     34.390545     10.721216
  H       9.502577     34.456213     13.141622
  H      12.620414     33.586040     12.131896
  H       8.541432     35.002977     10.876970
  H       8.131250     33.288385     10.677521
  H       5.781144     32.933233     14.207686
  O      12.206185     31.905490     10.919182
  H      10.262820     32.115601     10.239847
  H      12.227018     30.932473     10.908093
159
Coordinates from ORCA-job /data/Seafile/ump/al_surf/frames/frame15/ump_al_frame15 E -13365.189419568336
  Si      3.444280     33.843877      7.819110
  Si      3.479953     30.729783      7.817590
  O       2.193380     34.648444      8.481232
  O       2.227483     29.910802      8.462211
  O       3.442419     32.287446      8.319817
  O       3.429058     33.882762      6.180121
  O       3.454465     30.772041      6.181835
  Si      6.152107     26.094358      7.811143
  Si      8.856242     24.533587      7.804133
  O       4.851845     25.372695      8.471231
  O       7.506694     25.320030      8.290716
  O       8.819423     23.041031      8.458456
  O       6.097733     26.137561      6.172783
  O       8.849763     24.508307      6.168871
  Si      6.140962     29.181433      7.739345
  Si      6.098257     35.410089      7.702774
  Si      8.847583     33.837366      7.678330
  Si      8.867333     30.758121      7.725255
  O       4.868960     30.020281      8.328693
  O       4.813736     34.600484      8.304527
  O       7.463693     34.626836      8.084729
  O       7.514691     29.956043      8.146178
  O       6.179429     27.656403      8.313979
  O       8.759841     32.289695      8.266817
  O       5.945019     29.137622      6.114175
  O       5.924650     35.558425      6.079435
  O       8.927381     33.722990      6.041698
  O       9.013412     30.822057      6.094701
  Si      6.161979     38.502298      7.776054
  Si      8.851783     40.081017      7.779466
  O       4.936973     39.371387      8.414359
  O       7.558186     39.204724      8.273372
  O       6.150927     36.941101      8.287005
  O       8.642626     41.581932      8.382439
  O       6.140967     38.521526      6.139810
  O       8.943187     40.050798      6.139951
  Si     11.519379     26.096930      7.750807
  Si     14.178663     24.536383      7.809046
  O      10.173831     25.368344      8.323939
  O      12.872032     25.387602      8.328738
  O      13.995602     23.030593      8.399236
  O      11.474226     25.930482      6.123690
  O      14.168538     24.566381      6.170279
  Si     11.534692     29.251745      7.773739
  Al     11.619589     35.388041      7.751509
  Si     14.271022     33.800954      7.802787
  Si     14.214512     30.744793      7.755136
  O      10.180721     29.985518      8.335554
  O      10.111766     34.621375      8.259573
  O      13.061223     34.623242      8.455237
  O      12.901788     29.946678      8.336059
  O      11.492933     27.672499      8.176110
  O      14.371186     32.244404      8.359607
  O      11.508365     29.420834      6.141734
  O      11.817107     35.097910      6.013886
  O      14.062125     33.676828      6.175517
  O      14.011890     30.850700      6.130863
  Si     11.603590     38.654001      7.753429
  Si     14.338632     40.085688      7.822298
  O      10.253041     39.425509      8.309312
  O      12.952140     39.399113      8.351845
  O      11.596994     37.106103      8.131487
  O      14.551146     41.587962      8.422190
  O      11.681172     38.919757      6.125217
  O      14.349989     40.049052      6.183427
  Si     16.901827     26.025989      7.828651
  O      15.544920     25.262575      8.341392
  O      18.176857     25.246517      8.474540
  O      16.879770     25.990133      6.192443
  Si     16.922885     29.112029      7.734263
  Si     17.034097     35.354691      7.718906
  Si     19.684380     33.776243      7.795667
  Si     19.582320     30.671266      7.815665
  O      15.533346     29.861254      8.126973
  O      15.723564     34.498367      8.131759
  O      18.359242     34.593606      8.310984
  O      18.191443     29.956525      8.321166
  O      16.877546     27.589453      8.329820
  O      19.625487     32.225409      8.329522
  O      17.075999     28.964506      6.110589
  O      17.227271     35.400304      6.090968
  O      19.664127     33.721845      6.159327
  O      19.575999     30.652854      6.176570
  Si     16.976108     38.446210      7.792919
  O      15.644376     39.228745      8.334408
  O      18.361545     39.056776      8.394119
  O      16.930745     36.882165      8.290884
  O      16.959027     38.451555      6.153245
  O      20.799171     29.794280      8.447815
  O      21.065036     34.405053      8.388787
  H       4.074657     24.986772      8.036591
  H       1.410409     29.602015      8.036749
  H       1.410409     35.007985      8.036749
  H       4.074657     39.623228      8.036591
  H       8.948181     22.173255      8.038302
  H       8.948181     42.436745      8.038302
  H      14.277762     22.173204      8.038282
  H      14.277762     42.436796      8.038282
  H      18.960557     24.876228      8.036406
  H      18.960557     39.733772      8.036406
  H      21.624717     29.491420      8.036583
  H      21.624717     35.118580      8.036583
  H      13.226416     34.157516      5.921088
  H      11.039080     34.709699      5.601359
  H       8.956921     32.809471      5.719471
  H       9.808626     30.377866      5.756596
  H      12.290442     29.878078      5.789407
  H      14.008419     31.782932      5.836614
  H      13.510035     39.740183      5.805973
  H      10.858499     39.256819      5.743049
  H       8.159985     39.718810      5.684345
  H       6.044558     37.646260      5.736452
  H       5.202881     35.035160      5.703309
  H       3.401675     33.016432      5.752767
  H       4.134851     30.230118      5.756937
  H       6.044848     28.259282      5.720425
  H       6.797586     25.646402      5.724382
  H       9.645282     24.878168      5.759849
  H      12.287775     25.589107      5.726510
  H      14.938169     24.994944      5.770617
  H      17.013539     26.852064      5.771831
  H      17.779572     29.501075      5.719033
  H      19.595601     31.528882      5.766389
  H      18.965249     34.255546      5.752726
  H      17.114714     36.271996      5.688472
  H      16.181671     38.878356      5.765978
  N       9.488792     30.269314     11.944098
  C      10.251994     29.217393     11.503991
  N       9.582337     28.047365     11.312969
  C       8.229378     27.804142     11.527673
  C       7.496720     28.972244     11.922916
  C       8.145846     30.133633     12.133407
  O      11.457832     29.314379     11.304848
  O       7.782511     26.676546     11.382200
  C      10.212808     31.502039     12.334178
  C      10.874333     32.237220     11.159840
  C      10.778232     33.687704     11.612249
  C       9.449449     33.705739     12.340056
  O      11.809935     33.988114     12.526251
  O       9.316332     32.391696     12.918047
  C       8.288352     34.048856     11.432755
  O       7.099531     34.289784     12.157832
  P       5.822261     33.293789     12.092521
  O       5.972650     32.351218     10.951731
  O       5.991440     32.384010     13.427128
  O       4.622043     34.161145     12.243617
  H      10.145795     27.267819     11.000170
  H       6.431443     28.899034     12.082937
  H       7.636646     31.025891     12.465001
  H      10.978146     31.190699     13.053569
  H      10.791668     34.374245     10.761313
  H       9.483302     34.415669     13.169639
  H      12.601209     33.538335     12.199614
  H       8.537335     34.970647     10.899385
  H       8.121976     33.258705     10.697900
  H       5.785746     32.886333     14.223150
  O      12.212010     31.894665     10.948700
  H      10.271004     32.093717     10.256801
  H      12.241309     30.921686     10.940273
159
Coordinates from ORCA-job /data/Seafile/ump/al_surf/frames/frame15/ump_al_frame15 E -13365.189549828921
  Si      3.446154     33.846077      7.815790
  Si      3.479501     30.732732      7.814536
  O       2.200149     34.659115      8.477643
  O       2.228106     29.912341      8.460304
  O       3.440823     32.289853      8.318345
  O       3.425173     33.882174      6.177004
  O       3.453658     30.777176      6.178811
  Si      6.151036     26.095381      7.803072
  Si      8.856565     24.533720      7.794539
  O       4.856070     25.367805      8.467719
  O       7.508567     25.324042      8.277629
  O       8.808634     23.042420      8.451816
  O       6.089151     26.140588      6.165151
  O       8.856989     24.502676      6.159655
  Si      6.140183     29.182744      7.732824
  Si      6.101949     35.409638      7.695597
  Si      8.851773     33.835957      7.668938
  Si      8.869229     30.756683      7.717382
  O       4.868682     30.021634      8.323501
  O       4.819088     34.598069      8.298641
  O       7.469518     34.627708      8.075101
  O       7.515531     29.955534      8.138980
  O       6.176708     27.657369      8.307269
  O       8.763426     32.288714      8.259004
  O       5.942861     29.138757      6.107600
  O       5.926624     35.557994      6.072357
  O       8.928020     33.722939      6.032073
  O       9.016899     30.816675      6.087256
  Si      6.161535     38.502060      7.770371
  Si      8.852072     40.081492      7.773802
  O       4.937316     39.370181      8.412244
  O       7.558520     39.204112      8.265358
  O       6.153209     36.940339      8.280802
  O       8.640831     41.581545      8.378688
  O       6.134101     38.522723      6.134733
  O       8.946321     40.053979      6.134417
  Si     11.520380     26.097992      7.746450
  Si     14.180068     24.536479      7.808064
  O      10.174730     25.366769      8.317078
  O      12.872103     25.387067      8.325069
  O      13.999247     23.031120      8.400439
  O      11.478350     25.936246      6.118518
  O      14.172450     24.563368      6.169588
  Si     11.535705     29.251278      7.767930
  Al     11.620572     35.389012      7.739193
  Si     14.273145     33.802167      7.788367
  Si     14.214271     30.745060      7.748601
  O      10.181467     29.983718      8.329957
  O      10.116361     34.618672      8.249771
  O      13.062364     34.623717      8.439837
  O      12.900054     29.950690      8.331169
  O      11.493229     27.672821      8.174741
  O      14.372270     32.246722      8.348208
  O      11.507483     29.419001      6.135931
  O      11.816453     35.102707      6.001300
  O      14.064954     33.677173      6.160978
  O      14.011873     30.845150      6.123724
  Si     11.602794     38.653657      7.745095
  Si     14.338032     40.084527      7.818024
  O      10.253873     39.426839      8.302309
  O      12.951466     39.395850      8.344224
  O      11.592630     37.105951      8.124245
  O      14.546994     41.586140      8.421086
  O      11.681922     38.918657      6.117178
  O      14.352370     40.050787      6.178675
  Si     16.901466     26.026843      7.827774
  O      15.544839     25.264534      8.341929
  O      18.177834     25.249238      8.473647
  O      16.878447     25.989233      6.191575
  Si     16.922732     29.112839      7.731998
  Si     17.036428     35.355973      7.710895
  Si     19.685799     33.775901      7.793037
  Si     19.582154     30.671431      7.813766
  O      15.533093     29.862566      8.123445
  O      15.724381     34.499577      8.118947
  O      18.359526     34.593335      8.304949
  O      18.191423     29.956965      8.319214
  O      16.877597     27.590620      8.328180
  O      19.625371     32.225627      8.327907
  O      17.076323     28.965342      6.108291
  O      17.233335     35.404143      6.083396
  O      19.669924     33.721521      6.156621
  O      19.577192     30.651958      6.174774
  Si     16.975611     38.446711      7.789429
  O      15.642955     39.227395      8.331346
  O      18.360147     39.057887      8.392637
  O      16.932325     36.882191      8.285206
  O      16.960128     38.455164      6.150016
  O      20.798948     29.795032      8.446243
  O      21.065086     34.405613      8.389032
  H       4.074657     24.986772      8.036591
  H       1.410409     29.602015      8.036749
  H       1.410409     35.007985      8.036749
  H       4.074657     39.623228      8.036591
  H       8.948181     22.173255      8.038302
  H       8.948181     42.436745      8.038302
  H      14.277762     22.173204      8.038282
  H      14.277762     42.436796      8.038282
  H      18.960557     24.876228      8.036406
  H      18.960557     39.733772      8.036406
  H      21.624717     29.491420      8.036583
  H      21.624717     35.118580      8.036583
  H      13.231490     34.162008      5.905468
  H      11.040573     34.714129      5.585471
  H       8.958427     32.810273      5.708941
  H       9.814514     30.374400      5.751220
  H      12.288473     29.877585      5.782713
  H      14.010745     31.775086      5.823187
  H      13.513376     39.740792      5.799858
  H      10.860637     39.258208      5.734451
  H       8.161983     39.731768      5.674274
  H       6.039988     37.647504      5.730869
  H       5.204592     35.035202      5.696451
  H       3.400117     33.015196      5.750953
  H       4.131131     30.232185      5.753589
  H       6.039791     28.260221      5.713874
  H       6.784242     25.648094      5.711380
  H       9.649460     24.880449      5.752198
  H      12.291471     25.593266      5.722164
  H      14.943092     24.989943      5.769799
  H      17.013770     26.849998      5.769296
  H      17.780088     29.500902      5.715934
  H      19.598525     31.527641      5.764018
  H      18.972537     34.255841      5.748422
  H      17.116194     36.275133      5.681050
  H      16.184238     38.884514      5.762567
  N       9.486699     30.278569     11.898200
  C      10.254175     29.217596     11.489022
  N       9.578920     28.052618     11.286845
  C       8.216440     27.825696     11.454757
  C       7.482601     29.003783     11.814812
  C       8.135936     30.160362     12.037258
  O      11.466439     29.305292     11.320024
  O       7.763630     26.700464     11.308635
  C      10.209505     31.503375     12.307437
  C      10.907854     32.237072     11.154126
  C      10.815270     33.685385     11.615360
  C       9.468402     33.714555     12.308504
  O      11.824572     33.963657     12.560881
  O       9.306069     32.397300     12.871294
  C       8.336232     34.079716     11.375575
  O       7.130461     34.345141     12.067153
  P       5.860314     33.336599     12.022325
  O       6.031714     32.352272     10.919901
  O       6.015191     32.475981     13.390538
  O       4.654402     34.203267     12.125098
  H      10.143207     27.264205     10.998522
  H       6.410656     28.944160     11.930447
  H       7.625760     31.060873     12.344574
  H      10.953773     31.183672     13.045098
  H      10.861784     34.379243     10.771514
  H       9.491306     34.417348     13.144746
  H      12.610278     33.479253     12.273107
  H       8.616401     34.996868     10.850272
  H       8.174527     33.293174     10.635609
  H       5.801649     33.006247     14.166282
  O      12.247385     31.881438     10.977259
  H      10.326569     32.103350     10.234274
  H      12.272063     30.907393     10.976215
159
Coordinates from ORCA-job /data/Seafile/ump/al_surf/frames/frame15/ump_al_frame15 E -13365.189673570458
  Si      3.447444     33.846754      7.817931
  Si      3.478421     30.734732      7.816215
  O       2.202794     34.663623      8.477185
  O       2.226039     29.915709      8.461598
  O       3.441162     32.291070      8.322759
  O       3.425253     33.879914      6.179373
  O       3.451815     30.781660      6.180776
  Si      6.149952     26.095472      7.797784
  Si      8.856927     24.533109      7.788468
  O       4.858061     25.365122      8.465955
  O       7.508965     25.325028      8.267841
  O       8.803964     23.043213      8.448010
  O       6.082191     26.142436      6.160340
  O       8.863608     24.498245      6.154130
  Si      6.138150     29.182442      7.728894
  Si      6.102994     35.409303      7.696302
  Si      8.853294     33.833978      7.668925
  Si      8.869789     30.753936      7.713567
  O       4.867562     30.021273      8.321936
  O       4.821441     34.596635      8.300679
  O       7.470501     34.625888      8.072372
  O       7.514697     29.953747      8.133156
  O       6.175362     27.657076      8.303596
  O       8.762528     32.285694      8.255581
  O       5.937955     29.139168      6.103934
  O       5.925068     35.558710      6.073196
  O       8.930942     33.724163      6.031901
  O       9.021136     30.812203      6.084087
  Si      6.160862     38.501242      7.772073
  Si      8.851314     40.082303      7.775285
  O       4.934012     39.364616      8.415385
  O       7.556946     39.205892      8.265434
  O       6.155756     36.939317      8.282646
  O       8.641019     41.582375      8.380632
  O       6.130789     38.522526      6.136951
  O       8.946892     40.056082      6.136297
  Si     11.520490     26.096418      7.744981
  Si     14.180302     24.535293      7.808820
  O      10.174546     25.364945      8.313945
  O      12.871434     25.384879      8.323982
  O      14.002427     23.030750      8.403302
  O      11.480474     25.937237      6.116432
  O      14.173053     24.559866      6.170709
  Si     11.535866     29.248475      7.768970
  Al     11.620607     35.387653      7.743244
  Si     14.273257     33.800070      7.792299
  Si     14.213230     30.742488      7.751065
  O      10.180728     29.980363      8.329858
  O      10.117332     34.615154      8.252491
  O      13.062636     34.622521      8.444734
  O      12.899014     29.948448      8.334623
  O      11.492629     27.670339      8.175578
  O      14.371457     32.244181      8.352384
  O      11.510602     29.416515      6.137347
  O      11.818870     35.101035      6.005755
  O      14.063599     33.673506      6.165266
  O      14.009390     30.844508      6.126353
  Si     11.601670     38.652628      7.747367
  Si     14.337445     40.083803      7.819245
  O      10.252922     39.426841      8.303821
  O      12.950909     39.394737      8.345649
  O      11.590453     37.105092      8.128391
  O      14.545897     41.586182      8.421144
  O      11.681036     38.915131      6.119234
  O      14.351296     40.049721      6.179843
  Si     16.901099     26.025948      7.827570
  O      15.543999     25.265311      8.342820
  O      18.177488     25.248586      8.473507
  O      16.877966     25.987632      6.191458
  Si     16.922718     29.111829      7.731747
  Si     17.037412     35.354796      7.713134
  Si     19.686922     33.774883      7.793932
  Si     19.581746     30.670730      7.814297
  O      15.532509     29.860255      8.123119
  O      15.724448     34.498657      8.120215
  O      18.360800     34.592143      8.306004
  O      18.191083     29.956034      8.319447
  O      16.877994     27.589678      8.327450
  O      19.625403     32.224688      8.328833
  O      17.075885     28.965297      6.108137
  O      17.234332     35.403602      6.085806
  O      19.671162     33.721730      6.157389
  O      19.576647     30.651504      6.175700
  Si     16.975166     38.446050      7.791833
  O      15.641714     39.225879      8.333049
  O      18.358361     39.060680      8.394990
  O      16.933695     36.881151      8.287398
  O      16.960222     38.453947      6.152984
  O      20.798389     29.793891      8.445784
  O      21.066655     34.404617      8.389745
  H       4.074657     24.986772      8.036591
  H       1.410409     29.602015      8.036749
  H       1.410409     35.007985      8.036749
  H       4.074657     39.623228      8.036591
  H       8.948181     22.173255      8.038302
  H       8.948181     42.436745      8.038302
  H      14.277762     22.173204      8.038282
  H      14.277762     42.436796      8.038282
  H      18.960557     24.876228      8.036406
  H      18.960557     39.733772      8.036406
  H      21.624717     29.491420      8.036583
  H      21.624717     35.118580      8.036583
  H      13.231086     34.159839      5.909572
  H      11.044732     34.711996      5.587211
  H       8.960697     32.812417      5.706835
  H       9.821870     30.372605      5.751736
  H      12.292157     29.876555      5.786641
  H      14.003187     31.774158      5.825520
  H      13.512765     39.737940      5.801669
  H      10.860568     39.255675      5.735704
  H       8.161881     39.738852      5.674065
  H       6.034716     37.647725      5.732886
  H       5.205249     35.033158      5.697016
  H       3.402012     33.011896      5.755145
  H       4.127128     30.234203      5.755201
  H       6.034235     28.260768      5.709805
  H       6.774195     25.649546      5.702632
  H       9.655365     24.879514      5.748752
  H      12.292849     25.591541      5.721140
  H      14.942797     24.987370      5.770254
  H      17.012781     26.848082      5.768455
  H      17.779380     29.500872      5.715401
  H      19.598080     31.527073      5.764787
  H      18.973848     34.256508      5.749658
  H      17.113430     36.274048      5.683430
  H      16.185611     38.884756      5.764664
  N       9.489589     30.268750     11.897049
  C      10.261635     29.206408     11.499149
  N       9.590264     28.039492     11.299424
  C       8.227333     27.810844     11.462229
  C       7.487718     28.991747     11.800364
  C       8.137231     30.151281     12.019180
  O      11.474813     29.294883     11.339549
  O       7.777943     26.683286     11.323632
  C      10.209527     31.493513     12.311623
  C      10.916018     32.228426     11.164461
  C      10.823675     33.675480     11.628215
  C       9.469505     33.705137     12.308050
  O      11.826614     33.945474     12.583479
  O       9.304051     32.388001     12.870841
  C       8.345500     34.067188     11.364778
  O       7.136201     34.346474     12.047501
  P       5.861897     33.340173     12.017799
  O       6.028355     32.340582     10.927762
  O       6.018063     32.498105     13.397471
  O       4.659346     34.213242     12.111249
  H      10.157796     27.250537     11.016150
  H       6.414550     28.931440     11.903816
  H       7.621572     31.055738     12.304567
  H      10.948105     31.172648     13.054680
  H      10.881115     34.372275     10.787072
  H       9.483289     34.407863     13.144502
  H      12.605010     33.438095     12.313209
  H       8.633812     34.977632     10.832615
  H       8.183003     33.273820     10.631906
  H       5.806723     33.038467     14.167026
  O      12.255606     31.871155     10.998550
  H      10.341218     32.097920     10.240798
  H      12.278169     30.897662     10.999397
159
Coordinates from ORCA-job /data/Seafile/ump/al_surf/frames/frame15/ump_al_frame15 E -13365.189782852303
  Si      3.449550     33.847043      7.822955
  Si      3.476964     30.737806      7.822095
  O       2.204662     34.667370      8.476591
  O       2.220175     29.924620      8.465687
  O       3.444656     32.292820      8.333004
  O       3.427032     33.873981      6.184611
  O       3.449779     30.789073      6.186985
  Si      6.148983     26.096116      7.792372
  Si      8.858730     24.532736      7.781162
  O       4.860218     25.362664      8.464439
  O       7.509711     25.325384      8.254868
  O       8.802026     23.044810      8.443931
  O       6.071865     26.146475      6.155682
  O       8.873920     24.491740      6.147784
  Si      6.134838     29.181809      7.725592
  Si      6.104404     35.408532      7.699165
  Si      8.855902     33.831089      7.667038
  Si      8.870222     30.749506      7.704573
  O       4.865481     30.019789      8.322973
  O       4.823987     34.595754      8.306380
  O       7.471344     34.620806      8.068920
  O       7.513309     29.951919      8.124430
  O       6.175533     27.656753      8.301608
  O       8.763702     32.281050      8.246846
  O       5.928181     29.139108      6.101454
  O       5.921231     35.560851      6.076450
  O       8.936046     33.726876      6.029636
  O       9.023273     30.804315      6.075799
  Si      6.159956     38.499690      7.776317
  Si      8.849417     40.083789      7.779062
  O       4.926734     39.351649      8.422587
  O       7.553239     39.210336      8.267464
  O       6.162419     36.937225      8.286707
  O       8.644904     41.583598      8.386849
  O       6.126687     38.522731      6.141886
  O       8.945123     40.061597      6.140544
  Si     11.521958     26.094025      7.741186
  Si     14.181437     24.533694      7.810088
  O      10.174814     25.365004      8.309954
  O      12.871045     25.381433      8.321569
  O      14.008688     23.030447      8.408539
  O      11.484298     25.935399      6.112095
  O      14.175337     24.553026      6.172346
  Si     11.537548     29.245013      7.766551
  Al     11.620664     35.386798      7.744315
  Si     14.274215     33.797828      7.792516
  Si     14.212970     30.739985      7.753825
  O      10.179822     29.974512      8.324016
  O      10.118641     34.612575      8.255223
  O      13.062937     34.620441      8.444247
  O      12.896723     29.949514      8.338417
  O      11.493715     27.667321      8.173290
  O      14.371297     32.242499      8.354705
  O      11.518397     29.413512      6.135484
  O      11.821022     35.100950      6.006918
  O      14.060390     33.668412      6.166152
  O      14.009865     30.842812      6.129278
  Si     11.599285     38.652152      7.748783
  Si     14.336036     40.082736      7.818799
  O      10.250302     39.424906      8.306198
  O      12.949232     39.394081      8.345305
  O      11.589596     37.104729      8.131612
  O      14.544495     41.585324      8.420080
  O      11.677439     38.911611      6.120319
  O      14.349408     40.048545      6.179409
  Si     16.900935     26.025524      7.827339
  O      15.542802     25.267845      8.343907
  O      18.176000     25.246268      8.473004
  O      16.877063     25.986586      6.191345
  Si     16.923112     29.111092      7.731440
  Si     17.039059     35.354044      7.713353
  Si     19.688134     33.773825      7.794289
  Si     19.581455     30.670359      7.814322
  O      15.531796     29.857527      8.122942
  O      15.723957     34.499159      8.118027
  O      18.361226     34.589587      8.305084
  O      18.190485     29.956322      8.318858
  O      16.879737     27.589171      8.326489
  O      19.626042     32.223897      8.329011
  O      17.076248     28.965700      6.108116
  O      17.237234     35.404165      6.086489
  O      19.674180     33.721842      6.157388
  O      19.576826     30.651161      6.176384
  Si     16.974429     38.445727      7.793903
  O      15.638378     39.222265      8.332594
  O      18.353324     39.067755      8.399576
  O      16.936621     36.880116      8.288233
  O      16.962337     38.453685      6.155906
  O      20.797046     29.791995      8.444528
  O      21.066407     34.405771      8.391718
  H       4.074657     24.986772      8.036591
  H       1.410409     29.602015      8.036749
  H       1.410409     35.007985      8.036749
  H       4.074657     39.623228      8.036591
  H       8.948181     22.173255      8.038302
  H       8.948181     42.436745      8.038302
  H      14.277762     22.173204      8.038282
  H      14.277762     42.436796      8.038282
  H      18.960557     24.876228      8.036406
  H      18.960557     39.733772      8.036406
  H      21.624717     29.491420      8.036583
  H      21.624717     35.118580      8.036583
  H      13.227086     34.153515      5.912076
  H      11.048450     34.711470      5.585996
  H       8.968555     32.816719      5.700704
  H       9.827114     30.367059      5.747683
  H      12.301825     29.873644      5.788519
  H      13.997499     31.771004      5.825510
  H      13.511158     39.735406      5.801754
  H      10.857989     39.254191      5.736566
  H       8.159613     39.749352      5.675976
  H       6.027214     37.648752      5.736954
  H       5.204718     35.030842      5.700283
  H       3.409186     33.003513      5.764620
  H       4.123081     30.239525      5.760559
  H       6.022656     28.260476      5.707177
  H       6.758046     25.651954      5.691483
  H       9.664208     24.878932      5.745231
  H      12.295365     25.583834      5.719214
  H      14.943105     24.983383      5.771086
  H      17.011129     26.846881      5.767744
  H      17.780830     29.500177      5.715629
  H      19.598005     31.526139      5.764166
  H      18.976385     34.256508      5.750082
  H      17.115453     36.274796      5.684640
  H      16.188926     38.884582      5.765314
  N       9.476137     30.258119     11.896018
  C      10.252763     29.195419     11.509165
  N       9.584730     28.027902     11.305045
  C       8.220344     27.798954     11.455441
  C       7.475038     28.983494     11.768086
  C       8.121466     30.144303     11.989742
  O      11.467092     29.283267     11.363136
  O       7.773360     26.670293     11.318025
  C      10.194840     31.479413     12.322181
  C      10.908375     32.218284     11.182025
  C      10.806266     33.666081     11.644868
  C       9.450419     33.689715     12.323980
  O      11.809791     33.943247     12.597058
  O       9.289199     32.371392     12.884743
  C       8.324662     34.049724     11.381761
  O       7.120640     34.341614     12.069688
  P       5.839153     33.341392     12.061163
  O       5.991622     32.329647     10.979624
  O       6.006887     32.515293     13.448707
  O       4.642333     34.223033     12.154864
  H      10.156331     27.238097     11.031809
  H       6.399958     28.924274     11.849374
  H       7.599339     31.053687     12.246199
  H      10.928254     31.151272     13.067262
  H      10.859649     34.362307     10.802801
  H       9.460025     34.389197     13.162982
  H      12.576983     33.412318     12.341456
  H       8.614537     34.954022     10.840567
  H       8.152435     33.250359     10.657552
  H       5.806133     33.063801     14.215341
  O      12.251067     31.864206     11.028199
  H      10.341408     32.087362     10.255321
  H      12.279153     30.890393     11.026944
159
Coordinates from ORCA-job /data/Seafile/ump/al_surf/frames/frame15/ump_al_frame15 E -13365.189844847557
  Si      3.450248     33.848119      7.825668
  Si      3.475562     30.740437      7.827199
  O       2.207870     34.674372      8.475830
  O       2.217258     29.928245      8.468490
  O       3.443676     32.295032      8.339978
  O       3.427743     33.870101      6.187357
  O       3.449261     30.793883      6.192086
  Si      6.147700     26.097741      7.790033
  Si      8.859367     24.532270      7.777460
  O       4.862105     25.359640      8.463809
  O       7.510367     25.327644      8.246518
  O       8.796389     23.045217      8.441350
  O       6.064677     26.153037      6.153777
  O       8.881941     24.488048      6.144727
  Si      6.132270     29.183041      7.727706
  Si      6.104950     35.408541      7.700574
  Si      8.856555     33.829387      7.670302
  Si      8.869576     30.747819      7.707118
  O       4.864075     30.021641      8.327175
  O       4.825485     34.595224      8.309111
  O       7.471335     34.619999      8.068918
  O       7.511793     29.951273      8.125401
  O       6.173070     27.657297      8.302266
  O       8.763042     32.279181      8.250206
  O       5.923835     29.142927      6.103832
  O       5.919877     35.561670      6.077933
  O       8.938827     33.724945      6.032802
  O       9.023240     30.802461      6.078558
  Si      6.158916     38.499131      7.776968
  Si      8.848448     40.084991      7.779177
  O       4.924067     39.346973      8.425324
  O       7.551754     39.211962      8.266060
  O       6.164501     36.936841      8.288202
  O       8.643416     41.584372      8.387700
  O       6.122717     38.521625      6.142765
  O       8.946831     40.063353      6.141053
  Si     11.522647     26.092054      7.741761
  Si     14.182276     24.532902      7.812119
  O      10.175276     25.362878      8.309105
  O      12.871575     25.380237      8.322665
  O      14.011018     23.030028      8.411535
  O      11.486076     25.933885      6.112530
  O      14.176578     24.551317      6.174420
  Si     11.536833     29.243007      7.768786
  Al     11.619508     35.386781      7.748073
  Si     14.272438     33.796345      7.796803
  Si     14.211572     30.738564      7.758772
  O      10.178239     29.971300      8.326015
  O      10.118610     34.610884      8.259420
  O      13.062023     34.620977      8.448368
  O      12.895407     29.947606      8.343457
  O      11.493033     27.665289      8.174545
  O      14.368497     32.241294      8.360153
  O      11.520379     29.413080      6.138099
  O      11.821424     35.100712      6.011057
  O      14.055987     33.664513      6.171054
  O      14.008343     30.842954      6.134547
  Si     11.597886     38.652204      7.751401
  Si     14.335614     40.082456      7.819898
  O      10.249078     39.426192      8.307613
  O      12.949038     39.393624      8.347014
  O      11.586598     37.104989      8.135760
  O      14.544193     41.585220      8.420235
  O      11.676285     38.909746      6.122636
  O      14.348124     40.047653      6.180710
  Si     16.901145     26.025570      7.828768
  O      15.543072     25.268125      8.346265
  O      18.176482     25.246526      8.473781
  O      16.876343     25.986268      6.192815
  Si     16.922768     29.111124      7.732908
  Si     17.038266     35.353216      7.714819
  Si     19.688014     33.774026      7.795426
  Si     19.581254     30.670538      7.815284
  O      15.530962     29.856603      8.125226
  O      15.722793     34.498335      8.119159
  O      18.360793     34.589240      8.306042
  O      18.189952     29.956903      8.319858
  O      16.879990     27.589198      8.327694
  O      19.626113     32.224024      8.329964
  O      17.074984     28.966160      6.109735
  O      17.236633     35.403094      6.088127
  O      19.674159     33.722442      6.158435
  O      19.576067     30.651879      6.177538
  Si     16.974137     38.445476      7.794894
  O      15.637799     39.221623      8.333480
  O      18.352192     39.069085      8.400752
  O      16.936047     36.879646      8.289320
  O      16.961590     38.452954      6.157123
  O      20.796736     29.791411      8.444767
  O      21.065996     34.406506      8.393208
  H       4.074657     24.986772      8.036591
  H       1.410409     29.602015      8.036749
  H       1.410409     35.007985      8.036749
  H       4.074657     39.623228      8.036591
  H       8.948181     22.173255      8.038302
  H       8.948181     42.436745      8.038302
  H      14.277762     22.173204      8.038282
  H      14.277762     42.436796      8.038282
  H      18.960557     24.876228      8.036406
  H      18.960557     39.733772      8.036406
  H      21.624717     29.491420      8.036583
  H      21.624717     35.118580      8.036583
  H      13.221925     34.148587      5.918110
  H      11.047730     34.714829      5.588579
  H       8.975811     32.815107      5.703558
  H       9.828373     30.366259      5.752151
  H      12.303107     29.876895      5.793812
  H      13.996940     31.771502      5.831307
  H      13.509956     39.733648      5.803643
  H      10.857240     39.252870      5.738403
  H       8.160445     39.757323      5.673888
  H       6.024145     37.647186      5.738263
  H       5.204029     35.030683      5.701795
  H       3.415861     32.997569      5.770909
  H       4.123248     30.244965      5.765539
  H       6.016928     28.264244      5.709023
  H       6.744411     25.655062      5.684154
  H       9.671297     24.880795      5.745296
  H      12.296735     25.579961      5.720716
  H      14.943799     24.983059      5.773446
  H      17.009258     26.846631      5.769010
  H      17.779793     29.500487      5.717415
  H      19.597006     31.526674      5.764975
  H      18.975438     34.256163      5.751404
  H      17.116173     36.274022      5.686342
  H      16.187513     38.882573      5.766435
  N       9.473335     30.264604     11.875673
  C      10.251860     29.195378     11.510659
  N       9.583196     28.028300     11.305253
  C       8.215791     27.805669     11.437263
  C       7.469415     28.997961     11.718096
  C       8.116237     30.158542     11.939768
  O      11.468806     29.277189     11.385192
  O       7.767507     26.676690     11.307910
  C      10.191297     31.482471     12.312848
  C      10.925430     32.220025     11.185140
  C      10.826527     33.666355     11.651350
  C       9.459147     33.696558     12.308023
  O      11.818492     33.931004     12.620694
  O       9.282650     32.378529     12.865105
  C       8.347831     34.063476     11.349866
  O       7.139976     34.373272     12.021915
  P       5.854492     33.378469     12.027236
  O       6.016378     32.335627     10.977068
  O       6.001995     32.593021     13.439898
  O       4.659952     34.266811     12.078583
  H      10.156600     27.233707     11.051252
  H       6.392481     28.944701     11.774842
  H       7.591529     31.073792     12.169362
  H      10.912612     31.148965     13.067273
  H      10.898118     34.365968     10.813603
  H       9.458579     34.395145     13.147700
  H      12.577967     33.378195     12.385590
  H       8.651779     34.961565     10.806398
  H       8.173832     33.261102     10.629492
  H       5.794552     33.164547     14.187573
  O      12.268055     31.858979     11.053374
  H      10.372096     32.096013     10.248104
  H      12.290489     30.885578     11.056228
159
Coordinates from ORCA-job /data/Seafile/ump/al_surf/frames/frame15/ump_al_frame15 E -13365.189922983765
  Si      3.451397     33.848985      7.829638
  Si      3.474117     30.743646      7.835209
  O       2.210776     34.680833      8.474978
  O       2.212159     29.935178      8.473051
  O       3.444618     32.297719      8.350652
  O       3.430015     33.863455      6.191248
  O       3.449497     30.799257      6.199823
  Si      6.146059     26.100065      7.788972
  Si      8.860407     24.531545      7.774383
  O       4.863275     25.357480      8.463736
  O       7.510817     25.329681      8.237962
  O       8.792411     23.045468      8.439587
  O       6.056336     26.162507      6.153194
  O       8.891052     24.483561      6.142336
  Si      6.129186     29.184630      7.732840
  Si      6.105874     35.408267      7.703789
  Si      8.857305     33.827534      7.675703
  Si      8.868219     30.745767      7.710871
  O       4.861857     30.023061      8.335179
  O       4.826367     34.596110      8.313724
  O       7.470450     34.617417      8.071463
  O       7.509355     29.951696      8.128451
  O       6.171337     27.657958      8.305317
  O       8.763595     32.276989      8.254280
  O       5.918427     29.148014      6.109371
  O       5.919047     35.562427      6.081339
  O       8.942998     33.723277      6.038075
  O       9.021022     30.800874      6.082178
  Si      6.157486     38.498142      7.778897
  Si      8.847368     40.086405      7.780729
  O       4.918903     39.337873      8.430312
  O       7.548902     39.215315      8.266073
  O       6.168907     36.936186      8.291266
  O       8.645094     41.585186      8.391433
  O       6.118884     38.520176      6.144777
  O       8.948291     40.066363      6.142981
  Si     11.523936     26.089652      7.741980
  Si     14.183962     24.532011      7.814292
  O      10.175790     25.361636      8.308584
  O      12.872280     25.378169      8.323687
  O      14.016485     23.029791      8.416146
  O      11.488512     25.931164      6.112877
  O      14.178270     24.548787      6.176427
  Si     11.536303     29.241129      7.771051
  Al     11.617796     35.386775      7.753072
  Si     14.270107     33.795044      7.801087
  Si     14.210119     30.737686      7.763577
  O      10.176027     29.966858      8.328388
  O      10.118220     34.609917      8.267117
  O      13.060118     34.620328      8.452077
  O      12.893821     29.946747      8.349307
  O      11.494399     27.663009      8.175252
  O      14.365764     32.240359      8.365594
  O      11.522596     29.412673      6.140742
  O      11.819641     35.102101      6.016132
  O      14.052605     33.661442      6.175731
  O      14.006439     30.843443      6.139914
  Si     11.595959     38.651388      7.755764
  Si     14.334183     40.082237      7.821530
  O      10.246521     39.425244      8.310845
  O      12.947859     39.394001      8.349874
  O      11.584589     37.104780      8.142749
  O      14.543303     41.584903      8.420621
  O      11.673870     38.906375      6.126507
  O      14.345567     40.047051      6.182661
  Si     16.901888     26.026264      7.829851
  O      15.543357     25.270076      8.348583
  O      18.176584     25.246164      8.474284
  O      16.876408     25.986195      6.193909
  Si     16.922544     29.111993      7.733388
  Si     17.036293     35.353019      7.716851
  Si     19.687078     33.775461      7.797179
  Si     19.581464     30.671597      7.815403
  O      15.529787     29.855644      8.127260
  O      15.720393     34.498948      8.121306
  O      18.358561     34.588512      8.307677
  O      18.189016     29.959380      8.319616
  O      16.881762     27.590051      8.328277
  O      19.627136     32.224918      8.330645
  O      17.073316     28.967832      6.110327
  O      17.234145     35.402448      6.090204
  O      19.673797     33.725061      6.160157
  O      19.576114     30.654240      6.177690
  Si     16.973501     38.446018      7.796435
  O      15.636014     39.220605      8.334788
  O      18.349149     39.073056      8.403539
  O      16.935659     36.879994      8.291187
  O      16.960961     38.452484      6.158638
  O      20.796143     29.790710      8.444446
  O      21.063135     34.410278      8.396557
  H       4.074657     24.986772      8.036591
  H       1.410409     29.602015      8.036749
  H       1.410409     35.007985      8.036749
  H       4.074657     39.623228      8.036591
  H       8.948181     22.173255      8.038302
  H       8.948181     42.436745      8.038302
  H      14.277762     22.173204      8.038282
  H      14.277762     42.436796      8.038282
  H      18.960557     24.876228      8.036406
  H      18.960557     39.733772      8.036406
  H      21.624717     29.491420      8.036583
  H      21.624717     35.118580      8.036583
  H      13.219398     34.146861      5.922661
  H      11.043829     34.721806      5.592477
  H       8.980835     32.813932      5.707632
  H       9.826556     30.365519      5.755933
  H      12.303532     29.881558      5.798727
  H      13.991698     31.773058      5.838734
  H      13.508011     39.731201      5.805997
  H      10.855889     39.251808      5.742177
  H       8.161538     39.765529      5.673193
  H       6.020162     37.645519      5.740521
  H       5.204212     35.030137      5.704992
  H       3.425831     32.987888      5.780340
  H       4.125756     30.252910      5.773210
  H       6.008540     28.269211      5.713805
  H       6.727957     25.660636      5.676556
  H       9.679509     24.882054      5.746358
  H      12.299292     25.575563      5.722445
  H      14.945631     24.980421      5.775436
  H      17.007120     26.846675      5.769710
  H      17.778888     29.501610      5.718580
  H      19.596655     31.528951      5.765023
  H      18.973887     34.257489      5.753457
  H      17.116516     36.273922      5.688688
  H      16.186788     38.881273      5.767391
  N       9.466732     30.260289     11.851988
  C      10.249649     29.186867     11.509802
  N       9.582840     28.018692     11.300561
  C       8.212670     27.800043     11.408344
  C       7.463329     28.998290     11.656962
  C       8.107895     30.159209     11.882442
  O      11.468880     29.265743     11.406549
  O       7.765284     26.670047     11.286635
  C      10.179577     31.475818     12.303927
  C      10.930678     32.217715     11.190562
  C      10.827166     33.662056     11.661425
  C       9.451641     33.690828     12.302107
  O      11.808644     33.921586     12.643559
  O       9.264445     32.370013     12.849278
  C       8.347350     34.069006     11.338568
  O       7.146099     34.403616     12.008236
  P       5.850393     33.424773     12.040634
  O       5.987808     32.370114     10.999017
  O       6.006098     32.653296     13.459100
  O       4.665252     34.325242     12.095292
  H      10.160083     27.219990     11.070473
  H       6.385058     28.949345     11.685102
  H       7.577976     31.078601     12.085281
  H      10.890681     31.137190     13.065642
  H      10.908384     34.365916     10.828341
  H       9.444231     34.384798     13.145610
  H      12.563653     33.356381     12.422520
  H       8.663922     34.958355     10.788200
  H       8.159931     33.263662     10.625012
  H       5.811083     33.234992     14.202006
  O      12.275039     31.854513     11.080454
  H      10.392826     32.098897     10.243391
  H      12.295526     30.881565     11.085206
159
Coordinates from ORCA-job /data/Seafile/ump/al_surf/frames/frame15/ump_al_frame15 E -13365.189991828731
  Si      3.453737     33.850148      7.834842
  Si      3.472716     30.748160      7.845611
  O       2.215569     34.690583      8.473166
  O       2.205289     29.944985      8.478702
  O       3.447140     32.301434      8.365315
  O       3.434119     33.853302      6.196171
  O       3.449918     30.807388      6.209567
  Si      6.143892     26.103684      7.785488
  Si      8.862301     24.529883      7.769031
  O       4.865223     25.355023      8.462638
  O       7.511701     25.332578      8.222984
  O       8.786643     23.045458      8.437201
  O       6.043758     26.176293      6.150228
  O       8.905568     24.474595      6.137810
  Si      6.125633     29.187565      7.737513
  Si      6.108074     35.407911      7.707332
  Si      8.859170     33.826076      7.679176
  Si      8.867074     30.744442      7.712236
  O       4.859739     30.025333      8.345421
  O       4.828272     34.597997      8.319588
  O       7.470844     34.614348      8.074714
  O       7.506679     29.954206      8.129667
  O       6.169959     27.659529      8.306693
  O       8.767813     32.275387      8.257754
  O       5.910311     29.155225      6.114608
  O       5.918697     35.563082      6.085059
  O       8.946363     33.722270      6.041255
  O       9.017549     30.802125      6.082817
  Si      6.155536     38.497220      7.779651
  Si      8.846146     40.088402      7.780867
  O       4.912780     39.327023      8.435972
  O       7.545612     39.219321      8.263845
  O       6.175611     36.935735      8.293482
  O       8.646703     41.586151      8.395127
  O       6.112862     38.518355      6.145472
  O       8.951007     40.070756      6.143393
  Si     11.525898     26.086753      7.741704
  Si     14.186147     24.531119      7.816886
  O      10.176015     25.361045      8.307218
  O      12.873644     25.376475      8.325162
  O      14.022081     23.029197      8.421183
  O      11.492416     25.925680      6.112975
  O      14.180772     24.545793      6.178404
  Si     11.536131     29.239271      7.768466
  Al     11.616078     35.388722      7.752058
  Si     14.267743     33.794459      7.799416
  Si     14.208929     30.737464      7.763751
  O      10.173724     29.961652      8.325020
  O      10.118477     34.611432      8.272079
  O      13.057691     34.620576      8.447671
  O      12.891431     29.948513      8.350658
  O      11.496765     27.661300      8.173000
  O      14.362969     32.240607      8.364782
  O      11.525130     29.411000      6.138339
  O      11.816736     35.107840      6.015044
  O      14.049886     33.659988      6.173935
  O      14.006535     30.843149      6.140411
  Si     11.593737     38.651934      7.757838
  Si     14.332608     40.082388      7.821255
  O      10.243668     39.424472      8.312885
  O      12.946406     39.395077      8.350663
  O      11.583188     37.105649      8.146782
  O      14.542475     41.584291      8.420333
  O      11.670949     38.905348      6.128051
  O      14.343539     40.046898      6.182707
  Si     16.902821     26.027365      7.830724
  O      15.544120     25.272014      8.351039
  O      18.176598     25.245672      8.474585
  O      16.875663     25.985926      6.194632
  Si     16.922463     29.113270      7.731779
  Si     17.033637     35.353688      7.715784
  Si     19.685477     33.777731      7.797745
  Si     19.582053     30.673069      7.813572
  O      15.528180     29.855007      8.126570
  O      15.717561     34.499780      8.119639
  O      18.354724     34.587749      8.307273
  O      18.187519     29.963524      8.316805
  O      16.883676     27.591620      8.327868
  O      19.628849     32.226299      8.329260
  O      17.072922     28.968783      6.108817
  O      17.231194     35.402920      6.089044
  O      19.674028     33.728142      6.160578
  O      19.577405     30.656828      6.175691
  Si     16.973042     38.447303      7.795898
  O      15.634051     39.219844      8.333696
  O      18.345784     39.077285      8.405731
  O      16.934381     36.880950      8.290493
  O      16.961943     38.453635      6.157655
  O      20.794915     29.789261      8.443189
  O      21.057845     34.416621      8.400305
  H       4.074657     24.986772      8.036591
  H       1.410409     29.602015      8.036749
  H       1.410409     35.007985      8.036749
  H       4.074657     39.623228      8.036591
  H       8.948181     22.173255      8.038302
  H       8.948181     42.436745      8.038302
  H      14.277762     22.173204      8.038282
  H      14.277762     42.436796      8.038282
  H      18.960557     24.876228      8.036406
  H      18.960557     39.733772      8.036406
  H      21.624717     29.491420      8.036583
  H      21.624717     35.118580      8.036583
  H      13.218404     34.147984      5.920169
  H      11.037360     34.733981      5.592292
  H       8.981313     32.813429      5.709157
  H       9.820883     30.364617      5.754502
  H      12.305662     29.881469      5.797408
  H      13.992437     31.773711      5.840719
  H      13.506033     39.731598      5.805589
  H      10.853946     39.253868      5.744514
  H       8.164200     39.776591      5.669793
  H       6.013704     37.643092      5.742484
  H       5.206384     35.027299      5.708934
  H       3.440922     32.973049      5.794486
  H       4.128964     30.264721      5.782341
  H       5.996172     28.275847      5.718775
  H       6.701993     25.667353      5.663198
  H       9.694036     24.879194      5.747579
  H      12.305025     25.571301      5.724760
  H      14.948706     24.977577      5.778405
  H      17.005850     26.846323      5.770076
  H      17.779514     29.502389      5.718509
  H      19.597292     31.531213      5.762419
  H      18.973926     34.260539      5.754098
  H      17.118457     36.275366      5.688206
  H      16.187544     38.881383      5.765821
  N       9.447181     30.271641     11.799830
  C      10.233156     29.189288     11.498429
  N       9.565260     28.021004     11.286840
  C       8.190904     27.813002     11.355362
  C       7.442389     29.022614     11.549088
  C       8.086881     30.182516     11.777464
  O      11.455834     29.260911     11.433488
  O       7.740461     26.682740     11.251742
  C      10.153833     31.480651     12.275725
  C      10.938660     32.224606     11.187589
  C      10.830337     33.667776     11.663906
  C       9.443615     33.700776     12.280308
  O      11.794891     33.921359     12.664488
  O       9.229193     32.374961     12.804306
  C       8.355190     34.109923     11.309876
  O       7.158786     34.470851     11.971859
  P       5.858000     33.504124     12.041300
  O       5.992195     32.406825     11.044448
  O       6.001720     32.793144     13.490619
  O       4.676006     34.409685     12.050839
  H      10.144361     27.214659     11.093195
  H       6.363397     28.983162     11.533470
  H       7.553432     31.109857     11.936680
  H      10.844267     31.132611     13.051966
  H      10.927085     34.375862     10.836399
  H       9.430966     34.384020     13.132722
  H      12.546606     33.345924     12.460483
  H       8.694746     34.993781     10.764715
  H       8.154084     33.311724     10.592232
  H       5.798402     33.405748     14.205825
  O      12.284898     31.852049     11.114326
  H      10.427587     32.114681     10.224225
  H      12.303851     30.878694     11.122740
159
Coordinates from ORCA-job /data/Seafile/ump/al_surf/frames/frame15/ump_al_frame15 E -13365.190047204567
  Si      3.453120     33.849017      7.832177
  Si      3.473844     30.745795      7.840594
  O       2.212979     34.684661      8.473610
  O       2.208276     29.941128      8.476003
  O       3.448272     32.299363      8.359351
  O       3.434576     33.855727      6.193333
  O       3.449729     30.803336      6.204419
  Si      6.144487     26.102708      7.786818
  Si      8.861634     24.529545      7.771812
  O       4.863855     25.357304      8.463124
  O       7.511077     25.331028      8.228103
  O       8.790762     23.044762      8.440008
  O       6.048503     26.172364      6.151048
  O       8.900214     24.475903      6.139938
  Si      6.127673     29.186848      7.734461
  Si      6.106897     35.408462      7.705598
  Si      8.858203     33.828523      7.676627
  Si      8.867285     30.747321      7.710966
  O       4.861272     30.024363      8.341147
  O       4.826737     34.598649      8.317139
  O       7.470063     34.615654      8.073843
  O       7.507846     29.955174      8.127285
  O       6.171887     27.659483      8.305032
  O       8.766923     32.278305      8.255975
  O       5.912915     29.152130      6.111404
  O       5.918259     35.563669      6.083477
  O       8.945965     33.723791      6.039046
  O       9.018752     30.807759      6.081215
  Si      6.156282     38.498167      7.778454
  Si      8.847332     40.087580      7.779925
  O       4.915833     39.332634      8.433678
  O       7.547630     39.217265      8.264025
  O       6.173040     36.936620      8.291900
  O       8.644935     41.585731      8.392753
  O       6.116256     38.519615      6.144007
  O       8.951254     40.068017      6.142158
  Si     11.524401     26.088462      7.741650
  Si     14.183983     24.531436      7.814397
  O      10.174960     25.362527      8.308145
  O      12.873261     25.379240      8.324718
  O      14.013569     23.028873      8.415989
  O      11.489871     25.925423      6.113187
  O      14.177994     24.548189      6.175711
  Si     11.535807     29.241759      7.767093
  Al     11.617386     35.389036      7.752271
  Si     14.268683     33.795270      7.800698
  Si     14.209238     30.738629      7.760430
  O      10.174805     29.966096      8.324581
  O      10.117559     34.614018      8.269501
  O      13.059086     34.621489      8.449115
  O      12.892822     29.948029      8.347375
  O      11.495578     27.663568      8.170381
  O      14.363529     32.240588      8.364145
  O      11.522688     29.413341      6.136782
  O      11.818666     35.106131      6.015290
  O      14.053225     33.663621      6.174603
  O      14.006236     30.845864      6.137024
  Si     11.595705     38.652996      7.756714
  Si     14.334005     40.083003      7.820415
  O      10.245613     39.425341      8.312110
  O      12.947657     39.396330      8.350770
  O      11.586694     37.106282      8.143290
  O      14.545575     41.585041      8.419140
  O      11.672960     38.908873      6.127237
  O      14.344322     40.046962      6.181821
  Si     16.902117     26.026212      7.829290
  O      15.543956     25.268774      8.348002
  O      18.175809     25.244723      8.473936
  O      16.876039     25.985845      6.193135
  Si     16.922104     29.112204      7.730345
  Si     17.033856     35.353394      7.716339
  Si     19.685600     33.777025      7.796268
  Si     19.581638     30.672057      7.812452
  O      15.528285     29.855294      8.123860
  O      15.719666     34.497900      8.122495
  O      18.356469     34.589176      8.307588
  O      18.187346     29.962024      8.315967
  O      16.881599     27.590513      8.326886
  O      19.627999     32.225504      8.327953
  O      17.073794     28.966694      6.107266
  O      17.229113     35.401445      6.089085
  O      19.671652     33.727395      6.159241
  O      19.576811     30.655204      6.174324
  Si     16.974209     38.446815      7.794467
  O      15.636284     39.221266      8.332305
  O      18.349395     39.072614      8.403103
  O      16.933535     36.880884      8.290067
  O      16.963387     38.452495      6.155846
  O      20.794441     29.788393      8.442685
  O      21.060799     34.412165      8.396034
  H       4.074657     24.986772      8.036591
  H       1.410409     29.602015      8.036749
  H       1.410409     35.007985      8.036749
  H       4.074657     39.623228      8.036591
  H       8.948181     22.173255      8.038302
  H       8.948181     42.436745      8.038302
  H      14.277762     22.173204      8.038282
  H      14.277762     42.436796      8.038282
  H      18.960557     24.876228      8.036406
  H      18.960557     39.733772      8.036406
  H      21.624717     29.491420      8.036583
  H      21.624717     35.118580      8.036583
  H      13.221581     34.151525      5.920292
  H      11.039679     34.729621      5.594275
  H       8.976421     32.814193      5.708056
  H       9.820757     30.369690      5.750977
  H      12.303357     29.881855      5.794211
  H      13.993142     31.777244      5.839861
  H      13.506194     39.733046      5.804822
  H      10.855059     39.255969      5.744159
  H       8.165255     39.768267      5.670568
  H       6.015205     37.644621      5.741064
  H       5.206450     35.027188      5.707359
  H       3.435918     32.976394      5.789776
  H       4.128226     30.260100      5.777144
  H       6.000766     28.272671      5.716310
  H       6.709432     25.663521      5.667400
  H       9.690863     24.874680      5.748247
  H      12.303324     25.573815      5.724337
  H      14.946044     24.979774      5.775876
  H      17.008132     26.846380      5.769417
  H      17.779430     29.501537      5.716938
  H      19.596717     31.529595      5.761096
  H      18.970985     34.259835      5.753804
  H      17.117128     36.273801      5.687904
  H      16.189042     38.880051      5.763772
  N       9.446489     30.272255     11.824738
  C      10.229968     29.192851     11.505196
  N       9.559907     28.025667     11.295388
  C       8.186908     27.815191     11.380755
  C       7.439912     29.020350     11.603420
  C       8.086227     30.179569     11.829832
  O      11.451980     29.266097     11.423153
  O       7.735957     26.685790     11.269259
  C      10.156101     31.483542     12.290635
  C      10.921834     32.229517     11.190567
  C      10.814324     33.673119     11.666031
  C       9.437198     33.700869     12.302237
  O      11.790293     33.934040     12.651998
  O       9.235335     32.374835     12.830241
  C       8.335369     34.102722     11.345357
  O       7.138704     34.438098     12.021172
  P       5.842032     33.464786     12.061256
  O       5.989340     32.386421     11.045610
  O       5.974926     32.728947     13.499645
  O       4.655548     34.364075     12.078098
  H      10.136732     27.221661     11.086040
  H       6.360874     28.978665     11.610702
  H       7.553690     31.103370     12.013567
  H      10.858590     31.139104     13.057649
  H      10.896149     34.379445     10.835307
  H       9.433643     34.385835     13.153493
  H      12.551927     33.382444     12.424206
  H       8.659195     34.996150     10.805925
  H       8.142626     33.309122     10.620376
  H       5.750715     33.325700     14.222151
  O      12.267679     31.859738     11.095307
  H      10.396698     32.116432     10.236105
  H      12.286795     30.886051     11.104161
159
Coordinates from ORCA-job /data/Seafile/ump/al_surf/frames/frame15/ump_al_frame15 E -13365.190096280097
  Si      3.453714     33.849149      7.829833
  Si      3.473879     30.746168      7.837668
  O       2.215122     34.687057      8.471880
  O       2.209147     29.940810      8.474307
  O       3.448437     32.299494      8.357437
  O       3.433874     33.854462      6.190993
  O       3.448812     30.804254      6.201456
  Si      6.143639     26.102531      7.782482
  Si      8.861277     24.528493      7.767791
  O       4.865262     25.356105      8.461389
  O       7.511225     25.331759      8.221469
  O       8.787712     23.044868      8.438545
  O       6.044758     26.172884      6.146830
  O       8.902415     24.471507      6.135956
  Si      6.127511     29.187046      7.729251
  Si      6.107588     35.408366      7.701144
  Si      8.859228     33.829237      7.671406
  Si      8.867720     30.748113      7.706543
  O       4.861507     30.024306      8.337165
  O       4.828083     34.598255      8.313202
  O       7.471163     34.615764      8.068524
  O       7.507726     29.956190      8.120908
  O       6.171397     27.659735      8.299681
  O       8.767511     32.279223      8.251052
  O       5.911283     29.151251      6.106221
  O       5.917819     35.563989      6.079331
  O       8.948435     33.724819      6.034189
  O       9.021485     30.809610      6.076769
  Si      6.156068     38.498375      7.775787
  Si      8.848096     40.087478      7.778080
  O       4.916600     39.333608      8.432502
  O       7.548290     39.216317      8.260902
  O       6.173153     36.936530      8.288267
  O       8.643430     41.585580      8.390900
  O       6.114981     38.520979      6.141527
  O       8.953738     40.067985      6.140326
  Si     11.523471     26.088894      7.739977
  Si     14.183226     24.531327      7.813240
  O      10.173915     25.362163      8.305034
  O      12.872553     25.379879      8.323524
  O      14.010734     23.028680      8.414193
  O      11.490088     25.926080      6.111378
  O      14.177511     24.548767      6.174569
  Si     11.535680     29.242277      7.764527
  Al     11.618333     35.389132      7.751441
  Si     14.269220     33.795470      7.801340
  Si     14.208973     30.738830      7.756971
  O      10.174783     29.966844      8.322390
  O      10.117704     34.613848      8.266014
  O      13.059570     34.621517      8.449778
  O      12.892719     29.948087      8.343916
  O      11.495504     27.663983      8.168114
  O      14.363775     32.239985      8.363030
  O      11.521495     29.413441      6.134199
  O      11.821610     35.106670      6.014530
  O      14.056535     33.665276      6.174662
  O      14.005615     30.846981      6.133339
  Si     11.596397     38.652916      7.755695
  Si     14.334321     40.082921      7.820342
  O      10.246376     39.425847      8.310694
  O      12.947689     39.396469      8.350680
  O      11.586965     37.106321      8.142164
  O      14.546188     41.585316      8.418798
  O      11.674159     38.909369      6.126399
  O      14.344985     40.046791      6.181603
  Si     16.901574     26.025553      7.828638
  O      15.543700     25.267491      8.346974
  O      18.175673     25.244814      8.473658
  O      16.875849     25.985104      6.192454
  Si     16.921698     29.111584      7.729363
  Si     17.034241     35.353005      7.717372
  Si     19.686034     33.776359      7.796123
  Si     19.581207     30.671167      7.811995
  O      15.527748     29.854872      8.121332
  O      15.720774     34.496745      8.124116
  O      18.357512     34.589342      8.308540
  O      18.186887     29.961205      8.315676
  O      16.880424     27.589917      8.326138
  O      19.628036     32.224661      8.327682
  O      17.074116     28.965513      6.106179
  O      17.228508     35.400857      6.089844
  O      19.671031     33.727053      6.159234
  O      19.576131     30.653858      6.173788
  Si     16.974541     38.446454      7.794680
  O      15.636972     39.221701      8.332583
  O      18.350878     39.070884      8.402317
  O      16.933673     36.880629      8.290671
  O      16.964019     38.451639      6.155920
  O      20.793731     29.787127      8.442078
  O      21.062547     34.410031      8.394465
  H       4.074657     24.986772      8.036591
  H       1.410409     29.602015      8.036749
  H       1.410409     35.007985      8.036749
  H       4.074657     39.623228      8.036591
  H       8.948181     22.173255      8.038302
  H       8.948181     42.436745      8.038302
  H      14.277762     22.173204      8.038282
  H      14.277762     42.436796      8.038282
  H      18.960557     24.876228      8.036406
  H      18.960557     39.733772      8.036406
  H      21.624717     29.491420      8.036583
  H      21.624717     35.118580      8.036583
  H      13.225879     34.153887      5.919035
  H      11.044483     34.727028      5.592824
  H       8.977055     32.814938      5.703679
  H       9.823003     30.371280      5.745832
  H      12.302278     29.880961      5.790720
  H      13.994751     31.778669      5.837298
  H      13.507043     39.732653      5.804364
  H      10.855928     39.255853      5.743278
  H       8.167734     39.770430      5.667424
  H       6.013081     37.646200      5.738443
  H       5.207791     35.025391      5.702986
  H       3.432200     32.974509      5.788724
  H       4.125807     30.259387      5.773944
  H       5.997632     28.271439      5.711691
  H       6.702076     25.661616      5.661086
  H       9.693204     24.870410      5.744876
  H      12.304141     25.576012      5.722637
  H      14.946197     24.979273      5.774905
  H      17.009212     26.845250      5.768420
  H      17.778988     29.500922      5.715386
  H      19.596241     31.528293      5.760763
  H      18.970476     34.259818      5.754155
  H      17.115367     36.272902      5.688462
  H      16.190436     38.880355      5.763664
  N       9.446107     30.264636     11.807894
  C      10.235396     29.185810     11.501615
  N       9.571654     28.016258     11.292136
  C       8.198269     27.802558     11.361939
  C       7.445503     29.006739     11.568590
  C       8.085971     30.169066     11.797298
  O      11.457297     29.261937     11.428773
  O       7.751351     26.671488     11.250252
  C      10.147996     31.477357     12.281372
  C      10.920344     32.228076     11.189494
  C      10.812238     33.668366     11.673032
  C       9.430514     33.695286     12.299752
  O      11.780699     33.918799     12.668339
  O       9.221505     32.365608     12.815287
  C       8.336515     34.105095     11.338883
  O       7.135066     34.441482     12.008114
  P       5.839515     33.466481     12.050259
  O       5.987730     32.384438     11.037922
  O       5.970837     32.736373     13.492039
  O       4.652353     34.365174     12.064367
  H      10.153825     27.212294     11.094398
  H       6.366541     28.962438     11.563145
  H       7.548832     31.093049     11.964728
  H      10.845995     31.133741     13.053072
  H      10.903308     34.379840     10.847432
  H       9.423791     34.374176     13.155992
  H      12.545316     33.370726     12.440833
  H       8.667693     34.999835     10.806347
  H       8.147831     33.315637     10.608306
  H       5.731460     33.332368     14.210465
  O      12.265981     31.856851     11.099354
  H      10.400998     32.120663     10.231554
  H      12.283149     30.883183     11.112296
159
Coordinates from ORCA-job /data/Seafile/ump/al_surf/frames/frame15/ump_al_frame15 E -13365.190136185820
  Si      3.454963     33.849352      7.829421
  Si      3.473697     30.747577      7.837055
  O       2.217455     34.690243      8.469949
  O       2.208330     29.943128      8.473698
  O       3.450031     32.300226      8.359301
  O       3.435409     33.850810      6.190567
  O       3.447725     30.807897      6.200865
  Si      6.142523     26.102814      7.776344
  Si      8.861905     24.527038      7.762168
  O       4.867417     25.354378      8.458910
  O       7.511724     25.332608      8.209896
  O       8.784854     23.045212      8.437012
  O       6.037723     26.176059      6.141051
  O       8.909113     24.463789      6.130727
  Si      6.126381     29.187575      7.723612
  Si      6.108463     35.408625      7.699222
  Si      8.860310     33.830391      7.667973
  Si      8.867589     30.749396      7.701451
  O       4.861111     30.023892      8.334682
  O       4.829349     34.598770      8.311932
  O       7.471882     34.615195      8.065796
  O       7.506561     29.958262      8.112660
  O       6.171310     27.660141      8.293270
  O       8.768594     32.280217      8.246917
  O       5.907113     29.151352      6.100857
  O       5.917458     35.565092      6.077750
  O       8.951555     33.727126      6.031199
  O       9.023691     30.813557      6.071761
  Si      6.155735     38.498757      7.774665
  Si      8.849021     40.087556      7.777703
  O       4.916083     39.332913      8.432982
  O       7.548484     39.216475      8.258807
  O       6.174522     36.936785      8.286678
  O       8.643407     41.585646      8.390771
  O       6.113343     38.522281      6.140651
  O       8.956666     40.068695      6.140032
  Si     11.523009     26.089321      7.738423
  Si     14.182447     24.531303      7.812960
  O      10.172840     25.362552      8.301720
  O      12.872103     25.380827      8.323315
  O      14.007206     23.028343      8.412640
  O      11.491372     25.925409      6.109742
  O      14.177066     24.549509      6.174274
  Si     11.535051     29.242778      7.761197
  Al     11.619196     35.389520      7.751505
  Si     14.269558     33.795133      7.802615
  Si     14.208315     30.738588      7.754743
  O      10.173695     29.966722      8.318768
  O      10.117482     34.614988      8.264771
  O      13.059764     34.620914      8.450352
  O      12.891194     29.948713      8.341243
  O      11.495500     27.664705      8.164918
  O      14.363336     32.239056      8.362994
  O      11.520644     29.413534      6.130946
  O      11.823662     35.107949      6.014487
  O      14.059112     33.666090      6.175388
  O      14.006052     30.847770      6.130890
  Si     11.597178     38.652908      7.755605
  Si     14.334724     40.082550      7.820053
  O      10.246880     39.425501      8.310668
  O      12.947644     39.397269      8.351173
  O      11.588638     37.106567      8.142248
  O      14.547792     41.585277      8.417856
  O      11.674718     38.909564      6.126419
  O      14.345222     40.045823      6.181279
  Si     16.901066     26.024772      7.828654
  O      15.543586     25.265879      8.346610
  O      18.175286     25.244088      8.473514
  O      16.875096     25.984690      6.192466
  Si     16.920896     29.110765      7.729611
  Si     17.034409     35.352008      7.718947
  Si     19.686251     33.775357      7.796079
  Si     19.580452     30.669925      7.811854
  O      15.526488     29.853722      8.120332
  O      15.721718     34.494948      8.126911
  O      18.358220     34.588647      8.309971
  O      18.185906     29.960622      8.316139
  O      16.879408     27.589061      8.326420
  O      19.628559     32.223455      8.327471
  O      17.074005     28.964076      6.106373
  O      17.227269     35.399534      6.091166
  O      19.669825     33.726273      6.159287
  O      19.574702     30.651964      6.173672
  Si     16.975028     38.445657      7.795227
  O      15.637483     39.221385      8.332459
  O      18.352027     39.069673      8.402056
  O      16.934150     36.879869      8.291693
  O      16.965445     38.450200      6.156397
  O      20.792362     29.784637      8.441134
  O      21.063688     34.408353      8.392846
  H       4.074657     24.986772      8.036591
  H       1.410409     29.602015      8.036749
  H       1.410409     35.007985      8.036749
  H       4.074657     39.623228      8.036591
  H       8.948181     22.173255      8.038302
  H       8.948181     42.436745      8.038302
  H      14.277762     22.173204      8.038282
  H      14.277762     42.436796      8.038282
  H      18.960557     24.876228      8.036406
  H      18.960557     39.733772      8.036406
  H      21.624717     29.491420      8.036583
  H      21.624717     35.118580      8.036583
  H      13.228563     34.154104      5.919061
  H      11.047998     34.724579      5.593268
  H       8.977857     32.817010      5.700882
  H       9.823711     30.373687      5.739480
  H      12.301048     29.880809      5.786645
  H      13.996194     31.779789      5.835996
  H      13.507225     39.731878      5.803983
  H      10.856290     39.256530      5.744005
  H       8.170227     39.775218      5.665410
  H       6.010082     37.647590      5.737752
  H       5.210343     35.023144      5.700829
  H       3.433410     32.969138      5.791751
  H       4.124138     30.262710      5.772748
  H       5.989966     28.270711      5.707302
  H       6.687955     25.660489      5.650693
  H       9.699356     24.865588      5.741612
  H      12.306329     25.576669      5.721804
  H      14.945954     24.980175      5.775166
  H      17.008929     26.844775      5.768433
  H      17.778893     29.499381      5.715467
  H      19.594292     31.526346      5.760527
  H      18.968386     34.258377      5.754839
  H      17.115535     36.271851      5.689993
  H      16.191974     38.878667      5.763668
  N       9.437642     30.263381     11.789236
  C      10.231152     29.182103     11.502093
  N       9.569862     28.010679     11.296263
  C       8.195577     27.797770     11.351069
  C       7.440368     29.004346     11.531821
  C       8.077644     30.169244     11.756704
  O      11.454245     29.258922     11.443634
  O       7.749751     26.665675     11.245275
  C      10.132286     31.476889     12.269605
  C      10.914182     32.230619     11.187365
  C      10.804945     33.668475     11.677065
  C       9.417984     33.695904     12.293119
  O      11.764785     33.910825     12.681918
  O       9.198929     32.362742     12.794849
  C       8.332399     34.117239     11.328188
  O       7.129377     34.460833     11.992011
  P       5.833431     33.487088     12.048709
  O       5.981944     32.388724     11.053232
  O       5.962456     32.782676     13.503573
  O       4.646368     34.386446     12.047659
  H      10.153546     27.205809     11.107463
  H       6.361598     28.960952     11.508080
  H       7.537365     31.096091     11.898648
  H      10.823466     31.133699     13.047790
  H      10.904969     34.383669     10.855471
  H       9.408877     34.367573     13.155045
  H      12.533345     33.368485     12.453492
  H       8.673122     35.011196     10.800495
  H       8.142865     33.331262     10.594017
  H       5.700089     33.385485     14.208173
  O      12.259372     31.855807     11.105608
  H      10.402565     32.128963     10.225090
  H      12.273986     30.882066     11.126988
159
Coordinates from ORCA-job /data/Seafile/ump/al_surf/frames/frame15/ump_al_frame15 E -13365.190152965040
  Si      3.454985     33.849203      7.829011
  Si      3.474012     30.747412      7.836286
  O       2.217126     34.689348      8.469785
  O       2.208863     29.942721      8.472979
  O       3.450314     32.299981      8.358435
  O       3.435962     33.850925      6.190169
  O       3.448023     30.808085      6.200243
  Si      6.142629     26.102205      7.775405
  Si      8.862311     24.526838      7.762311
  O       4.867919     25.353803      8.458374
  O       7.511919     25.332303      8.208761
  O       8.785714     23.045121      8.437781
  O       6.037488     26.175495      6.140181
  O       8.910270     24.462281      6.130962
  Si      6.126440     29.187186      7.722508
  Si      6.108296     35.408957      7.699435
  Si      8.860016     33.831129      7.668703
  Si      8.867421     30.750194      7.701360
  O       4.861107     30.023167      8.333678
  O       4.828954     34.599141      8.311436
  O       7.471541     34.615446      8.066806
  O       7.506244     29.958719      8.111133
  O       6.171484     27.659753      8.291850
  O       8.767935     32.280813      8.247259
  O       5.907531     29.150632      6.099699
  O       5.918407     35.565305      6.077890
  O       8.952091     33.727869      6.032149
  O       9.024394     30.815121      6.071965
  Si      6.156135     38.499175      7.774980
  Si      8.849738     40.087077      7.778432
  O       4.917081     39.334972      8.432379
  O       7.549165     39.216056      8.259375
  O       6.173677     36.937217      8.286863
  O       8.644002     41.585429      8.390753
  O       6.114114     38.522875      6.141000
  O       8.957271     40.068099      6.140707
  Si     11.522721     26.090077      7.739595
  Si     14.181911     24.531781      7.813419
  O      10.172643     25.363014      8.302510
  O      12.871907     25.381435      8.324652
  O      14.005252     23.028327      8.411426
  O      11.491215     25.926060      6.110820
  O      14.176378     24.551411      6.174835
  Si     11.534818     29.243489      7.761833
  Al     11.619680     35.389206      7.753353
  Si     14.270101     33.795181      7.804642
  Si     14.208529     30.738856      7.756116
  O      10.173362     29.967308      8.319376
  O      10.117096     34.615638      8.265869
  O      13.060063     34.620308      8.452627
  O      12.890848     29.949375      8.341530
  O      11.495444     27.665382      8.165759
  O      14.363881     32.239036      8.364761
  O      11.520076     29.413987      6.131503
  O      11.823723     35.107284      6.016190
  O      14.060022     33.666455      6.177343
  O      14.007189     30.848114      6.132158
  Si     11.598011     38.652602      7.756206
  Si     14.335127     40.082367      7.820409
  O      10.247435     39.424896      8.311225
  O      12.947828     39.397791      8.351991
  O      11.590233     37.106358      8.143019
  O      14.548804     41.585377      8.417701
  O      11.675228     38.909080      6.127050
  O      14.345393     40.045169      6.181622
  Si     16.900889     26.024626      7.829417
  O      15.543688     25.265048      8.346962
  O      18.175361     25.243938      8.473770
  O      16.874811     25.985395      6.193268
  Si     16.920487     29.110553      7.731751
  Si     17.034784     35.351510      7.720678
  Si     19.686298     33.774639      7.796458
  Si     19.579994     30.669328      7.812922
  O      15.526334     29.853589      8.122622
  O      15.722438     34.494358      8.129805
  O      18.358892     34.588293      8.311439
  O      18.185902     29.959892      8.318146
  O      16.879034     27.588633      8.328006
  O      19.628699     32.222873      8.328276
  O      17.073356     28.964019      6.108423
  O      17.226986     35.398805      6.092839
  O      19.668575     33.725310      6.159706
  O      19.573383     30.651019      6.174774
  Si     16.975156     38.445057      7.796124
  O      15.637924     39.221323      8.333062
  O      18.352871     39.068808      8.401917
  O      16.934727     36.879454      8.293057
  O      16.965388     38.449223      6.157368
  O      20.792145     29.783886      8.441238
  O      21.064514     34.407216      8.391889
  H       4.074657     24.986772      8.036591
  H       1.410409     29.602015      8.036749
  H       1.410409     35.007985      8.036749
  H       4.074657     39.623228      8.036591
  H       8.948181     22.173255      8.038302
  H       8.948181     42.436745      8.038302
  H      14.277762     22.173204      8.038282
  H      14.277762     42.436796      8.038282
  H      18.960557     24.876228      8.036406
  H      18.960557     39.733772      8.036406
  H      21.624717     29.491420      8.036583
  H      21.624717     35.118580      8.036583
  H      13.228891     34.153513      5.921406
  H      11.048816     34.721440      5.595755
  H       8.978642     32.817428      5.702533
  H       9.823617     30.373933      5.739399
  H      12.301037     29.879675      5.786430
  H      13.997355     31.780062      5.837153
  H      13.507258     39.731265      5.804596
  H      10.856643     39.256137      5.745030
  H       8.170413     39.775501      5.666240
  H       6.011212     37.648213      5.737960
  H       5.211645     35.023331      5.700363
  H       3.433173     32.969350      5.791135
  H       4.124267     30.262642      5.772147
  H       5.988775     28.269609      5.706629
  H       6.687005     25.659192      5.649630
  H       9.699808     24.865314      5.741761
  H      12.306129     25.577443      5.722700
  H      14.945039     24.982645      5.775882
  H      17.008026     26.845783      5.769583
  H      17.778532     29.498785      5.717262
  H      19.592518     31.525522      5.761775
  H      18.966752     34.257107      5.755477
  H      17.116056     36.271309      5.691781
  H      16.191388     38.876821      5.764702
  N       9.435255     30.261412     11.792311
  C      10.230749     29.181369     11.506030
  N       9.572337     28.008017     11.302613
  C       8.198491     27.792210     11.358367
  C       7.440720     28.997341     11.538075
  C       8.075448     30.164326     11.760188
  O      11.453361     29.260874     11.446846
  O       7.755291     26.658971     11.253408
  C      10.127769     31.477250     12.269891
  C      10.907920     32.231023     11.186338
  C      10.798677     33.668873     11.676364
  C       9.411717     33.695795     12.293017
  O      11.758461     33.911730     12.681260
  O       9.192534     32.362183     12.793602
  C       8.326507     34.117624     11.327555
  O       7.122260     34.457724     11.990377
  P       5.828684     33.480377     12.044920
  O       5.982047     32.383972     11.047891
  O       5.958470     32.775306     13.499697
  O       4.639416     34.377122     12.043997
  H      10.157632     27.204400     11.112455
  H       6.362058     28.951495     11.514699
  H       7.533099     31.090060     11.902420
  H      10.819801     31.136822     13.048571
  H      10.898013     34.383838     10.854501
  H       9.403099     34.366273     13.155760
  H      12.530871     33.377177     12.447476
  H       8.665862     35.013585     10.802364
  H       8.138856     33.332663     10.591770
  H       5.684739     33.374550     14.202945
  O      12.252872     31.856399     11.101602
  H      10.394576     32.129563     10.224854
  H      12.267633     30.882765     11.126658
159
Coordinates from ORCA-job /data/Seafile/ump/al_surf/frames/frame15/ump_al_frame15 E -13365.190175607006
  Si      3.455133     33.848757      7.829498
  Si      3.474501     30.747444      7.837413
  O       2.216626     34.688155      8.469569
  O       2.208613     29.943382      8.473110
  O       3.451242     32.299818      8.359610
  O       3.437083     33.849309      6.190699
  O       3.449428     30.809267      6.201538
  Si      6.142714     26.101361      7.773915
  Si      8.863620     24.526344      7.761647
  O       4.869397     25.351524      8.457601
  O       7.512588     25.331839      8.204799
  O       8.787367     23.045034      8.438676
  O       6.035208     26.176784      6.139041
  O       8.914682     24.458386      6.130778
  Si      6.126028     29.186344      7.722940
  Si      6.107782     35.409670      7.699937
  Si      8.859552     33.831916      7.670774
  Si      8.866915     30.750988      7.702121
  O       4.860875     30.022015      8.334478
  O       4.828397     34.599806      8.311495
  O       7.470464     34.615319      8.067643
  O       7.505649     29.958739      8.109565
  O       6.171493     27.658701      8.291353
  O       8.765587     32.281293      8.248380
  O       5.906992     29.149961      6.100136
  O       5.918852     35.566271      6.078314
  O       8.954465     33.728710      6.034402
  O       9.025001     30.816532      6.073337
  Si      6.156606     38.499791      7.775332
  Si      8.850565     40.086671      7.779535
  O       4.917856     39.336545      8.432035
  O       7.549718     39.216074      8.259592
  O       6.173018     36.937880      8.287151
  O       8.645299     41.585167      8.391437
  O       6.114433     38.523934      6.141428
  O       8.958320     40.068305      6.141769
  Si     11.522657     26.090999      7.740706
  Si     14.181061     24.532253      7.813844
  O      10.172692     25.363717      8.303205
  O      12.871804     25.382233      8.326227
  O      14.002225     23.028195      8.409626
  O      11.491561     25.926531      6.111747
  O      14.175465     24.553473      6.175407
  Si     11.534262     29.244555      7.763017
  Al     11.620267     35.388395      7.757713
  Si     14.270901     33.794762      7.809142
  Si     14.208720     30.738767      7.759962
  O      10.172745     29.967917      8.320983
  O      10.116199     34.616455      8.269129
  O      13.060669     34.619185      8.457802
  O      12.889989     29.949973      8.343593
  O      11.495100     27.666236      8.166152
  O      14.364444     32.238548      8.369330
  O      11.519842     29.415943      6.132726
  O      11.823486     35.104873      6.020341
  O      14.059968     33.666479      6.181934
  O      14.008834     30.848684      6.136046
  Si     11.599046     38.652295      7.757484
  Si     14.335656     40.082302      7.820661
  O      10.247800     39.423829      8.312076
  O      12.947986     39.399012      8.353244
  O      11.593047     37.106126      8.144795
  O      14.551035     41.585728      8.416888
  O      11.675617     38.907817      6.128260
  O      14.345083     40.044072      6.181901
  Si     16.900647     26.024218      7.830425
  O      15.543688     25.263781      8.347161
  O      18.175102     25.243017      8.474098
  O      16.874666     25.986539      6.194356
  Si     16.919893     29.110011      7.735078
  Si     17.035296     35.350627      7.723626
  Si     19.686296     33.773491      7.796810
  Si     19.579153     30.668453      7.814374
  O      15.526008     29.852797      8.126657
  O      15.723417     34.493327      8.134724
  O      18.360024     34.587786      8.313573
  O      18.185846     29.958692      8.321110
  O      16.878678     27.587749      8.330285
  O      19.628627     32.221990      8.329230
  O      17.072182     28.964254      6.111605
  O      17.226323     35.397378      6.095715
  O      19.666284     33.723888      6.160070
  O      19.571223     30.649818      6.176286
  Si     16.975237     38.444047      7.797188
  O      15.638284     39.220943      8.333246
  O      18.353591     39.068054      8.401882
  O      16.935556     36.878807      8.295020
  O      16.965398     38.447172      6.158603
  O      20.791513     29.782400      8.441036
  O      21.066110     34.404896      8.390013
  H       4.074657     24.986772      8.036591
  H       1.410409     29.602015      8.036749
  H       1.410409     35.007985      8.036749
  H       4.074657     39.623228      8.036591
  H       8.948181     22.173255      8.038302
  H       8.948181     42.436745      8.038302
  H      14.277762     22.173204      8.038282
  H      14.277762     42.436796      8.038282
  H      18.960557     24.876228      8.036406
  H      18.960557     39.733772      8.036406
  H      21.624717     29.491420      8.036583
  H      21.624717     35.118580      8.036583
  H      13.227811     34.152826      5.927368
  H      11.048854     34.716880      5.601249
  H       8.981429     32.817963      5.705470
  H       9.824654     30.375803      5.741203
  H      12.301398     29.880307      5.787407
  H      13.997391     31.780479      5.840758
  H      13.506631     39.729958      5.805704
  H      10.857073     39.255645      5.746760
  H       8.170909     39.777713      5.666985
  H       6.012116     37.649434      5.737864
  H       5.213035     35.023797      5.699778
  H       3.434846     32.967392      5.792273
  H       4.125096     30.262829      5.773627
  H       5.985871     28.268437      5.707552
  H       6.681834     25.658898      5.646402
  H       9.702921     24.864568      5.741985
  H      12.306309     25.577146      5.723825
  H      14.943692     24.985563      5.776507
  H      17.007154     26.847483      5.771466
  H      17.777620     29.498506      5.720130
  H      19.589643     31.524392      5.763300
  H      18.963960     34.255600      5.756502
  H      17.116327     36.270168      5.694807
  H      16.190799     38.873282      5.765483
  N       9.429399     30.257775     11.799086
  C      10.227926     29.178814     11.515977
  N       9.572525     28.003643     11.312403
  C       8.198679     27.785874     11.363120
  C       7.438209     28.989967     11.538823
  C       8.069957     30.158571     11.761039
  O      11.450560     29.260779     11.458777
  O       7.758116     26.651672     11.257247
  C      10.118277     31.476535     12.274014
  C      10.894475     32.232183     11.189183
  C      10.783396     33.669766     11.680186
  C       9.397322     33.693502     12.299527
  O      11.744536     33.915053     12.683681
  O       9.179914     32.358499     12.797642
  C       8.310429     34.116759     11.335853
  O       7.106153     34.451581     11.999846
  P       5.815393     33.469715     12.050262
  O       5.975643     32.377591     11.049649
  O       5.945727     32.761749     13.503666
  O       4.623136     34.362789     12.050444
  H      10.159298     27.200762     11.124546
  H       6.359766     28.942056     11.510785
  H       7.525245     31.083711     11.900865
  H      10.812238     31.139091     13.052301
  H      10.878993     34.384892     10.858117
  H       9.389702     34.361292     13.164235
  H      12.521204     33.390114     12.442637
  H       8.646317     35.015837     10.813843
  H       8.123416     33.333508     10.598174
  H       5.654199     33.354369     14.205255
  O      12.239352     31.859400     11.100437
  H      10.378393     32.130717     10.228638
  H      12.255003     30.885964     11.132348
159
Coordinates from ORCA-job /data/Seafile/ump/al_surf/frames/frame15/ump_al_frame15 E -13365.190180008731
  Si      3.455023     33.848571      7.828786
  Si      3.474600     30.747468      7.837288
  O       2.216520     34.687513      8.469122
  O       2.208475     29.943916      8.472894
  O       3.451653     32.299805      8.359326
  O       3.436477     33.848575      6.190024
  O       3.449704     30.809674      6.201406
  Si      6.142767     26.100993      7.772638
  Si      8.864670     24.526070      7.761191
  O       4.870451     25.350009      8.456994
  O       7.513149     25.331887      8.201951
  O       8.788308     23.045010      8.439169
  O       6.033397     26.177447      6.137979
  O       8.918231     24.455629      6.130711
  Si      6.125714     29.185949      7.722152
  Si      6.107454     35.410115      7.698665
  Si      8.859339     33.832359      7.670542
  Si      8.866763     30.751264      7.700872
  O       4.860672     30.021442      8.334009
  O       4.828119     34.600179      8.310124
  O       7.469788     34.615274      8.066594
  O       7.505295     29.958822      8.107260
  O       6.171392     27.658275      8.290448
  O       8.764422     32.281387      8.247406
  O       5.906533     29.149547      6.099334
  O       5.919114     35.566768      6.076946
  O       8.955853     33.729617      6.034064
  O       9.025695     30.816683      6.072435
  Si      6.156774     38.500183      7.774459
  Si      8.850943     40.086575      7.779309
  O       4.918425     39.337273      8.431350
  O       7.549889     39.216194      8.258585
  O       6.172721     36.938181      8.285855
  O       8.646532     41.584859      8.391744
  O       6.113703     38.524823      6.140557
  O       8.959068     40.069256      6.141506
  Si     11.522887     26.091442      7.740953
  Si     14.180822     24.532674      7.813837
  O      10.173014     25.364126      8.303600
  O      12.871825     25.382456      8.326840
  O      14.001837     23.028370      8.408926
  O      11.492147     25.926786      6.111938
  O      14.175183     24.554410      6.175414
  Si     11.534084     29.245064      7.762484
  Al     11.620380     35.388095      7.758614
  Si     14.271251     33.794785      7.809934
  Si     14.209054     30.738913      7.761338
  O      10.172309     29.968047      8.320278
  O      10.115674     34.617016      8.269719
  O      13.060563     34.618462      8.458996
  O      12.889376     29.950921      8.343631
  O      11.495192     27.666762      8.165974
  O      14.364921     32.238697      8.370402
  O      11.520282     29.416450      6.132180
  O      11.822652     35.104273      6.021100
  O      14.059715     33.666866      6.182797
  O      14.010758     30.848726      6.137396
  Si     11.599516     38.652109      7.757428
  Si     14.335838     40.082430      7.820396
  O      10.247688     39.422842      8.311682
  O      12.947911     39.399818      8.353209
  O      11.594645     37.105934      8.145079
  O      14.552066     41.585824      8.416458
  O      11.675781     38.906905      6.128105
  O      14.345029     40.043887      6.181668
  Si     16.900711     26.024311      7.830619
  O      15.543675     25.263811      8.347075
  O      18.175003     25.242736      8.474166
  O      16.874956     25.987187      6.194577
  Si     16.919675     29.110057      7.736103
  Si     17.035404     35.350530      7.724315
  Si     19.686078     33.773241      7.796812
  Si     19.578867     30.668353      7.814673
  O      15.525878     29.852536      8.128516
  O      15.723448     34.493520      8.136196
  O      18.360017     34.587413      8.314118
  O      18.185799     29.958584      8.321918
  O      16.878994     27.587659      8.330947
  O      19.628722     32.221842      8.329404
  O      17.071574     28.964931      6.112569
  O      17.226127     35.397190      6.096428
  O      19.665388     33.723332      6.160059
  O      19.570610     30.649914      6.176558
  Si     16.975140     38.443783      7.797263
  O      15.638188     39.220698      8.332928
  O      18.353422     39.068255      8.401891
  O      16.935961     36.878751      8.295468
  O      16.965295     38.446564      6.158732
  O      20.791149     29.781766      8.440690
  O      21.066113     34.404703      8.389563
  H       4.074657     24.986772      8.036591
  H       1.410409     29.602015      8.036749
  H       1.410409     35.007985      8.036749
  H       4.074657     39.623228      8.036591
  H       8.948181     22.173255      8.038302
  H       8.948181     42.436745      8.038302
  H      14.277762     22.173204      8.038282
  H      14.277762     42.436796      8.038282
  H      18.960557     24.876228      8.036406
  H      18.960557     39.733772      8.036406
  H      21.624717     29.491420      8.036583
  H      21.624717     35.118580      8.036583
  H      13.227178     34.153394      5.928814
  H      11.047797     34.715713      5.602943
  H       8.981929     32.818873      5.705005
  H       9.826016     30.376464      5.741078
  H      12.302213     29.880215      5.786943
  H      13.999492     31.780276      5.841347
  H      13.506541     39.729411      5.805808
  H      10.857621     39.256022      5.746944
  H       8.171613     39.779600      5.666259
  H       6.012618     37.650436      5.736477
  H       5.213412     35.024507      5.697966
  H       3.435163     32.966517      5.791862
  H       4.125098     30.262906      5.773439
  H       5.983913     28.267623      5.707281
  H       6.677649     25.658042      5.643927
  H       9.705767     24.863594      5.742330
  H      12.307035     25.577276      5.724325
  H      14.943384     24.986533      5.776511
  H      17.006978     26.848435      5.772134
  H      17.777318     29.498863      5.721183
  H      19.588429     31.524593      5.763753
  H      18.963020     34.255075      5.756623
  H      17.116032     36.270078      5.695728
  H      16.190750     38.872572      5.765425
  N       9.425220     30.258279     11.800661
  C      10.225309     29.179775     11.520531
  N       9.571478     28.003617     11.316641
  C       8.197526     27.785159     11.362538
  C       7.435758     28.988871     11.535490
  C       8.065968     30.158028     11.758862
  O      11.447985     29.263039     11.466133
  O       7.758186     26.650567     11.255846
  C      10.112094     31.478934     12.273379
  C      10.887287     32.233688     11.187469
  C      10.775856     33.671750     11.677262
  C       9.390047     33.695520     12.296897
  O      11.737291     33.918885     12.680204
  O       9.171773     32.360426     12.794671
  C       8.303715     34.119794     11.332895
  O       7.098554     34.453640     11.995348
  P       5.809909     33.468675     12.046199
  O       5.974368     32.376049     11.047057
  O       5.940280     32.762908     13.500531
  O       4.615438     34.358724     12.044361
  H      10.159199     27.200745     11.131814
  H       6.357435     28.939899     11.504559
  H       7.520267     31.082951     11.896855
  H      10.806365     31.144075     13.052490
  H      10.870502     34.386150     10.854509
  H       9.382455     34.363088     13.161827
  H      12.515278     33.396989     12.437152
  H       8.639675     35.019879     10.812672
  H       8.117609     33.337260     10.594240
  H       5.642441     33.354990     14.199940
  O      12.232248     31.861106     11.097544
  H      10.369777     32.131519     10.227696
  H      12.249312     30.887848     11.135413
159
Coordinates from ORCA-job /data/Seafile/ump/al_surf/frames/frame15/ump_al_frame15 E -13365.190195326184
  Si      3.454647     33.848265      7.827281
  Si      3.474632     30.747358      7.836924
  O       2.216567     34.686843      8.468418
  O       2.208438     29.944274      8.472632
  O       3.451854     32.299753      8.358598
  O       3.434505     33.847428      6.188594
  O       3.449906     30.809700      6.200919
  Si      6.142686     26.100700      7.770770
  Si      8.866112     24.525569      7.759693
  O       4.872153     25.347372      8.456187
  O       7.514045     25.332240      8.197246
  O       8.789238     23.045107      8.439369
  O       6.030156     26.179040      6.136438
  O       8.923391     24.451495      6.129785
  Si      6.125337     29.185508      7.720990
  Si      6.106900     35.410612      7.695554
  Si      8.859252     33.832822      7.669326
  Si      8.866770     30.751426      7.698541
  O       4.860610     30.021083      8.333313
  O       4.827919     34.600352      8.307276
  O       7.468859     34.615225      8.063271
  O       7.505184     29.958536      8.103828
  O       6.170934     27.657794      8.289413
  O       8.762694     32.281358      8.245274
  O       5.905594     29.149088      6.098152
  O       5.918751     35.567339      6.073744
  O       8.958688     33.730908      6.032585
  O       9.026791     30.816296      6.070417
  Si      6.156793     38.500617      7.772339
  Si      8.851352     40.086627      7.778268
  O       4.919168     39.337887      8.430141
  O       7.549987     39.216308      8.256132
  O       6.172377     36.938389      8.282891
  O       8.647968     41.584423      8.391907
  O       6.112035     38.525936      6.138441
  O       8.960577     40.070895      6.140470
  Si     11.523274     26.091788      7.740014
  Si     14.180535     24.533068      7.813088
  O      10.173553     25.364442      8.303036
  O      12.871807     25.382620      8.326581
  O      14.001772     23.028718      8.407979
  O      11.493197     25.926901      6.110979
  O      14.174827     24.554987      6.174617
  Si     11.533869     29.245587      7.760874
  Al     11.620382     35.387638      7.760050
  Si     14.271380     33.794714      7.811570
  Si     14.209434     30.738897      7.762556
  O      10.171982     29.968353      8.318662
  O      10.114825     34.617426      8.269989
  O      13.060147     34.617579      8.461491
  O      12.888773     29.951441      8.343070
  O      11.495141     27.667314      8.164520
  O      14.365196     32.238531      8.371942
  O      11.521312     29.417461      6.130650
  O      11.821979     35.103141      6.022504
  O      14.059066     33.667673      6.184548
  O      14.012982     30.849235      6.138620
  Si     11.600039     38.651872      7.757513
  Si     14.336049     40.082761      7.820211
  O      10.247360     39.421657      8.310803
  O      12.947835     39.400917      8.353279
  O      11.596548     37.105682      8.145687
  O      14.553431     41.586052      8.415981
  O      11.676146     38.905469      6.127979
  O      14.344810     40.043767      6.181537
  Si     16.900870     26.024334      7.830229
  O      15.543499     25.264120      8.346336
  O      18.174730     25.242255      8.474066
  O      16.875788     25.987609      6.194187
  Si     16.919540     29.110054      7.736211
  Si     17.035247     35.350465      7.725392
  Si     19.685719     33.773173      7.796923
  Si     19.578624     30.668420      7.814583
  O      15.525710     29.851942      8.129848
  O      15.723115     34.493971      8.138355
  O      18.359815     34.587083      8.314869
  O      18.185644     29.958658      8.321968
  O      16.879599     27.587564      8.330835
  O      19.628759     32.221792      8.329464
  O      17.070981     28.965833      6.112642
  O      17.225387     35.396800      6.097495
  O      19.664188     33.723028      6.160150
  O      19.570288     30.650746      6.176386
  Si     16.975010     38.443566      7.797271
  O      15.638044     39.220508      8.332583
  O      18.353042     39.068670      8.401937
  O      16.936179     36.878837      8.296127
  O      16.964905     38.445549      6.158763
  O      20.790587     29.780946      8.440051
  O      21.066032     34.404613      8.389219
  H       4.074657     24.986772      8.036591
  H       1.410409     29.602015      8.036749
  H       1.410409     35.007985      8.036749
  H       4.074657     39.623228      8.036591
  H       8.948181     22.173255      8.038302
  H       8.948181     42.436745      8.038302
  H      14.277762     22.173204      8.038282
  H      14.277762     42.436796      8.038282
  H      18.960557     24.876228      8.036406
  H      18.960557     39.733772      8.036406
  H      21.624717     29.491420      8.036583
  H      21.624717     35.118580      8.036583
  H      13.225913     34.154048      5.931187
  H      11.046700     34.714139      5.605421
  H       8.983407     32.820417      5.702861
  H       9.828340     30.377125      5.740393
  H      12.303936     29.880650      5.786178
  H      14.001006     31.780575      5.842123
  H      13.506354     39.728508      5.806179
  H      10.858701     39.256511      5.747006
  H       8.173367     39.782321      5.664195
  H       6.012583     37.651721      5.733655
  H       5.213140     35.025308      5.694418
  H       3.434432     32.965155      5.790881
  H       4.124931     30.262514      5.772911
  H       5.981404     28.266699      5.706764
  H       6.670042     25.656796      5.639881
  H       9.709996     24.861907      5.742026
  H      12.308259     25.576839      5.724115
  H      14.943053     24.986874      5.775567
  H      17.007396     26.849174      5.772260
  H      17.776941     29.499706      5.721543
  H      19.587237     31.525634      5.763989
  H      18.961934     34.255097      5.756973
  H      17.114467     36.269649      5.696894
  H      16.190861     38.872143      5.765150
  N       9.420660     30.259685     11.804186
  C      10.222439     29.181471     11.528142
  N       9.569814     28.004760     11.323020
  C       8.195609     27.786177     11.361523
  C       7.432758     28.989709     11.531071
  C       8.061622     30.158960     11.757068
  O      11.445444     29.265739     11.478282
  O       7.757078     26.651544     11.252186
  C      10.105358     31.482346     12.274253
  C      10.878332     32.235812     11.186382
  C      10.767220     33.674328     11.674586
  C       9.382328     33.698513     12.295795
  O      11.730291     33.923064     12.675863
  O       9.163234     32.363352     12.793400
  C       8.295818     34.123867     11.332573
  O       7.090756     34.459028     11.994582
  P       5.803550     33.472097     12.049500
  O       5.966901     32.379917     11.050005
  O       5.938387     32.766502     13.503290
  O       4.607893     34.360303     12.051327
  H      10.158310     27.201715     11.142174
  H       6.354591     28.940004     11.495811
  H       7.515302     31.083934     11.892718
  H      10.800546     31.150565     13.053831
  H      10.860436     34.387965     10.851037
  H       9.375284     34.366244     13.160705
  H      12.508073     33.401064     12.432097
  H       8.632746     35.023879     10.812857
  H       8.109024     33.341612     10.593804
  H       5.641062     33.358775     14.202825
  O      12.223255     31.863742     11.094248
  H      10.358174     32.132326     10.227977
  H      12.242280     30.890821     11.140625
159
Coordinates from ORCA-job /data/Seafile/ump/al_surf/frames/frame15/ump_al_frame15 E -13365.190201064028
  Si      3.454278     33.847954      7.826157
  Si      3.474561     30.747141      7.836328
  O       2.216795     34.686635      8.468028
  O       2.208671     29.944011      8.472331
  O       3.451699     32.299568      8.358008
  O       3.432397     33.846556      6.187545
  O       3.449598     30.809469      6.200152
  Si      6.142364     26.100650      7.768782
  Si      8.867113     24.524864      7.757526
  O       4.873746     25.344830      8.455373
  O       7.514799     25.332812      8.192406
  O       8.789078     23.045232      8.438951
  O       6.026719     26.180906      6.134722
  O       8.927796     24.447749      6.128060
  Si      6.125157     29.185291      7.719392
  Si      6.106612     35.410547      7.692981
  Si      8.859566     33.832903      7.667745
  Si      8.867163     30.751132      7.696072
  O       4.860755     30.020969      8.332373
  O       4.828039     34.599946      8.305121
  O       7.468460     34.614883      8.060033
  O       7.505450     29.957989      8.100721
  O       6.170340     27.657528      8.288120
  O       8.762218     32.280993      8.242976
  O       5.904745     29.148889      6.096537
  O       5.918145     35.567276      6.071171
  O       8.961191     33.731935      6.030739
  O       9.027970     30.815641      6.067973
  Si      6.156598     38.500621      7.770429
  Si      8.851628     40.086726      7.777076
  O       4.919650     39.338033      8.429191
  O       7.549979     39.216226      8.253749
  O       6.172327     36.938182      8.280398
  O       8.648923     41.584061      8.391883
  O       6.110261     38.526078      6.136546
  O       8.962201     40.072188      6.139345
  Si     11.523646     26.091457      7.738508
  Si     14.180525     24.533170      7.812278
  O      10.173887     25.364209      8.301610
  O      12.871718     25.382277      8.325875
  O      14.002492     23.029018      8.407547
  O      11.494420     25.926549      6.109525
  O      14.174644     24.554966      6.173702
  Si     11.534014     29.245385      7.759112
  Al     11.620337     35.387378      7.760608
  Si     14.271256     33.794731      7.812418
  Si     14.209741     30.738843      7.762587
  O      10.172013     29.968153      8.316770
  O      10.114339     34.617567      8.269592
  O      13.059582     34.616940      8.462961
  O      12.888699     29.951232      8.342079
  O      11.495262     27.667138      8.162867
  O      14.365178     32.238336      8.372493
  O      11.522377     29.417598      6.129004
  O      11.821557     35.102539      6.023116
  O      14.058998     33.668541      6.185448
  O      14.014315     30.849623      6.138627
  Si     11.600370     38.651627      7.757560
  Si     14.336157     40.083142      7.820104
  O      10.247062     39.420758      8.310001
  O      12.947803     39.401722      8.353235
  O      11.597908     37.105469      8.146134
  O      14.554167     41.586270      8.415722
  O      11.676502     38.904336      6.127821
  O      14.344606     40.043912      6.181473
  Si     16.901090     26.024382      7.829628
  O      15.543326     25.264690      8.345640
  O      18.174510     25.241921      8.473909
  O      16.876625     25.987604      6.193547
  Si     16.919633     29.110123      7.735349
  Si     17.034853     35.350574      7.726022
  Si     19.685396     33.773465      7.797178
  Si     19.578675     30.668710      7.814164
  O      15.525635     29.851460      8.129916
  O      15.722525     34.494665      8.139687
  O      18.359307     34.586901      8.315333
  O      18.185454     29.959169      8.321188
  O      16.880322     27.587659      8.330153
  O      19.628977     32.221958      8.329458
  O      17.070785     28.966432      6.111809
  O      17.224502     35.396578      6.098085
  O      19.663523     33.723284      6.160401
  O      19.570538     30.651995      6.175880
  Si     16.974967     38.443643      7.797206
  O      15.637918     39.220556      8.332427
  O      18.352643     39.069118      8.402016
  O      16.936117     36.879099      8.296565
  O      16.964473     38.444863      6.158652
  O      20.790155     29.780373      8.439485
  O      21.065507     34.405231      8.389522
  H       4.074657     24.986772      8.036591
  H       1.410409     29.602015      8.036749
  H       1.410409     35.007985      8.036749
  H       4.074657     39.623228      8.036591
  H       8.948181     22.173255      8.038302
  H       8.948181     42.436745      8.038302
  H      14.277762     22.173204      8.038282
  H      14.277762     42.436796      8.038282
  H      18.960557     24.876228      8.036406
  H      18.960557     39.733772      8.036406
  H      21.624717     29.491420      8.036583
  H      21.624717     35.118580      8.036583
  H      13.225764     34.154890      5.931814
  H      11.046073     34.712858      5.606979
  H       8.984322     32.821874      5.699957
  H       9.830506     30.377516      5.738856
  H      12.304892     29.881637      5.785388
  H      14.000703     31.780908      5.842196
  H      13.506314     39.727822      5.806397
  H      10.859777     39.257097      5.746887
  H       8.175358     39.784646      5.661904
  H       6.011766     37.651932      5.731490
  H       5.212638     35.025282      5.691752
  H       3.433478     32.964104      5.790244
  H       4.124553     30.262380      5.771953
  H       5.979332     28.266132      5.705673
  H       6.661606     25.655221      5.635569
  H       9.713738     24.860151      5.741019
  H      12.309655     25.575783      5.723554
  H      14.942944     24.986488      5.774464
  H      17.008111     26.849281      5.771839
  H      17.776818     29.500478      5.721065
  H      19.586610     31.527127      5.763966
  H      18.961401     34.255622      5.757368
  H      17.112831     36.269309      5.697439
  H      16.191083     38.872472      5.764889
  N       9.417742     30.261121     11.804480
  C      10.221789     29.183301     11.534138
  N       9.571140     28.005992     11.327362
  C       8.196896     27.786492     11.357351
  C       7.432200     28.989578     11.521962
  C       8.058982     30.159410     11.750603
  O      11.445047     29.268106     11.490158
  O       7.759794     26.651526     11.245897
  C      10.099174     31.485594     12.273871
  C      10.871732     32.238475     11.185691
  C      10.759236     33.677353     11.672401
  C       9.374054     33.701083     12.292819
  O      11.722078     33.927752     12.673558
  O       9.154478     32.365747     12.789737
  C       8.288474     34.126451     11.328727
  O       7.081201     34.459344     11.988316
  P       5.796919     33.468686     12.042830
  O       5.965506     32.374462     11.046579
  O       5.929301     32.767020     13.498601
  O       4.598880     34.353429     12.039180
  H      10.161461     27.202908     11.152269
  H       6.354269     28.938804     11.481154
  H       7.511452     31.084224     11.882373
  H      10.793923     31.156696     13.055039
  H      10.852442     34.390495     10.848391
  H       9.365696     34.369189     13.157504
  H      12.499490     33.404235     12.431652
  H       8.625887     35.027687     10.811464
  H       8.104544     33.345404     10.587957
  H       5.632375     33.361929     14.196124
  O      12.216900     31.867066     11.094220
  H      10.351401     32.133264     10.227600
  H      12.237595     30.894429     11.146184
159
Coordinates from ORCA-job /data/Seafile/ump/al_surf/frames/frame15/ump_al_frame15 E -13365.190215129520
  Si      3.453755     33.847675      7.825087
  Si      3.474559     30.746694      7.835494
  O       2.216804     34.686386      8.467921
  O       2.209340     29.942888      8.471923
  O       3.451149     32.299237      8.356964
  O       3.430234     33.846349      6.186535
  O       3.449381     30.808585      6.199174
  Si      6.141982     26.100713      7.767408
  Si      8.867788     24.524328      7.755712
  O       4.875213     25.342252      8.454807
  O       7.515441     25.333505      8.188679
  O       8.788294     23.045386      8.438421
  O       6.023894     26.182936      6.133545
  O       8.931069     24.445221      6.126488
  Si      6.125272     29.185213      7.718379
  Si      6.106399     35.410258      7.691052
  Si      8.859955     33.832880      7.666696
  Si      8.867605     30.750946      7.694810
  O       4.861155     30.021201      8.331694
  O       4.828108     34.599279      8.303339
  O       7.468385     34.614688      8.057475
  O       7.506057     29.957220      8.099225
  O       6.169523     27.657356      8.287423
  O       8.762248     32.280833      8.241809
  O       5.904474     29.148755      6.095481
  O       5.917643     35.566914      6.069270
  O       8.963285     33.732388      6.029558
  O       9.028662     30.815299      6.066539
  Si      6.156391     38.500521      7.768832
  Si      8.851975     40.086724      7.776038
  O       4.920300     39.338680      8.428214
  O       7.550136     39.215829      8.251761
  O       6.172086     36.937903      8.278460
  O       8.649454     41.583760      8.391629
  O       6.109049     38.525683      6.134985
  O       8.963890     40.072850      6.138399
  Si     11.523925     26.091323      7.737787
  Si     14.180534     24.533340      7.812020
  O      10.174036     25.363982      8.300588
  O      12.871647     25.382163      8.325819
  O      14.003108     23.029266      8.407390
  O      11.495634     25.926665      6.108874
  O      14.174185     24.555337      6.173341
  Si     11.534237     29.245291      7.757999
  Al     11.620242     35.387212      7.761129
  Si     14.270919     33.794832      7.813198
  Si     14.210010     30.738854      7.762124
  O      10.172409     29.968398      8.315654
  O      10.113990     34.617615      8.269265
  O      13.059004     34.616500      8.464353
  O      12.888921     29.950946      8.341173
  O      11.495220     27.667186      8.162081
  O      14.365061     32.238172      8.372692
  O      11.522959     29.417646      6.127967
  O      11.821182     35.101975      6.023735
  O      14.058985     33.669436      6.186266
  O      14.015050     30.850020      6.138079
  Si     11.600677     38.651360      7.757792
  Si     14.336275     40.083338      7.820191
  O      10.247037     39.420184      8.309503
  O      12.947867     39.402142      8.353355
  O      11.598968     37.105314      8.146689
  O      14.554618     41.586371      8.415638
  O      11.676940     38.903407      6.127868
  O      14.344494     40.043935      6.181560
  Si     16.901247     26.024438      7.829369
  O      15.543244     25.265184      8.345454
  O      18.174398     25.241684      8.473892
  O      16.877036     25.987495      6.193232
  Si     16.919793     29.110186      7.734648
  Si     17.034372     35.350605      7.726490
  Si     19.685196     33.773742      7.797591
  Si     19.578812     30.668955      7.813921
  O      15.525593     29.851146      8.129703
  O      15.721836     34.495355      8.140789
  O      18.358787     34.586764      8.315680
  O      18.185288     29.959750      8.320560
  O      16.880861     27.587807      8.329767
  O      19.629279     32.222111      8.329675
  O      17.070802     28.966577      6.111155
  O      17.223578     35.396162      6.098468
  O      19.663237     33.723455      6.160821
  O      19.570802     30.653022      6.175573
  Si     16.975053     38.443712      7.797168
  O      15.637979     39.220681      8.332530
  O      18.352561     39.069168      8.401953
  O      16.935957     36.879273      8.296905
  O      16.964037     38.444238      6.158532
  O      20.789859     29.779934      8.439182
  O      21.064994     34.405909      8.390040
  H       4.074657     24.986772      8.036591
  H       1.410409     29.602015      8.036749
  H       1.410409     35.007985      8.036749
  H       4.074657     39.623228      8.036591
  H       8.948181     22.173255      8.038302
  H       8.948181     42.436745      8.038302
  H      14.277762     22.173204      8.038282
  H      14.277762     42.436796      8.038282
  H      18.960557     24.876228      8.036406
  H      18.960557     39.733772      8.036406
  H      21.624717     29.491420      8.036583
  H      21.624717     35.118580      8.036583
  H      13.225391     34.154879      5.932262
  H      11.045668     34.711087      5.608661
  H       8.985319     32.822701      5.697897
  H       9.831575     30.377589      5.737739
  H      12.305551     29.882030      5.784902
  H      14.002421     31.781302      5.841752
  H      13.506350     39.727204      5.806645
  H      10.860606     39.257003      5.746846
  H       8.177295     39.786551      5.659854
  H       6.010939     37.651456      5.730044
  H       5.212022     35.025093      5.689890
  H       3.431836     32.963879      5.789291
  H       4.124440     30.261664      5.770952
  H       5.978241     28.265716      5.705014
  H       6.653441     25.653197      5.632076
  H       9.716567     24.859057      5.740106
  H      12.311014     25.575204      5.723746
  H      14.942561     24.986480      5.773879
  H      17.008653     26.849152      5.771549
  H      17.776727     29.500924      5.720616
  H      19.586154     31.528381      5.764099
  H      18.961079     34.255792      5.757837
  H      17.111531     36.268742      5.697602
  H      16.191157     38.872789      5.764791
  N       9.416863     30.263856     11.808899
  C      10.222420     29.186320     11.542363
  N       9.573034     28.008510     11.335253
  C       8.198904     27.788111     11.360814
  C       7.432880     28.990765     11.522521
  C       8.058262     30.161239     11.751904
  O      11.445824     29.271875     11.502196
  O       7.762746     26.652916     11.247941
  C      10.096361     31.489860     12.276552
  C      10.867619     32.241261     11.186554
  C      10.755033     33.680732     11.671092
  C       9.370353     33.705015     12.292664
  O      11.718950     33.932591     12.670760
  O       9.150592     32.369994     12.790160
  C       8.284491     34.130055     11.328949
  O       7.077067     34.463009     11.988566
  P       5.793827     33.471428     12.045309
  O       5.960466     32.377177     11.048714
  O       5.929027     32.769345     13.500603
  O       4.595549     34.355710     12.043870
  H      10.164533     27.205845     11.162117
  H       6.355079     28.939090     11.479359
  H       7.509888     31.085885     11.881322
  H      10.791450     31.163573     13.058504
  H      10.847670     34.392750     10.846013
  H       9.362555     34.373982     13.156711
  H      12.494905     33.405735     12.431143
  H       8.622370     35.031229     10.811794
  H       8.100844     33.349327     10.587757
  H       5.639437     33.365919     14.199830
  O      12.212922     31.870478     11.094317
  H      10.346173     32.133577     10.229387
  H      12.235100     30.898129     11.151200
159
Coordinates from ORCA-job /data/Seafile/ump/al_surf/frames/frame15/ump_al_frame15 E -13365.190221087481
  Si      3.453161     33.847386      7.824773
  Si      3.474598     30.746202      7.835104
  O       2.216627     34.686344      8.468304
  O       2.210223     29.941125      8.471699
  O       3.450325     32.298829      8.356502
  O       3.428382     33.846321      6.186262
  O       3.449263     30.807647      6.198724
  Si      6.141360     26.100823      7.765907
  Si      8.868276     24.523628      7.753357
  O       4.877076     25.338824      8.454173
  O       7.516141     25.334465      8.184307
  O       8.786479     23.045545      8.437474
  O       6.020516     26.186096      6.132295
  O       8.934287     24.442602      6.124319
  Si      6.125379     29.185178      7.717934
  Si      6.106239     35.409647      7.690319
  Si      8.860439     33.832534      7.666546
  Si      8.867983     30.750570      7.694781
  O       4.861699     30.021645      8.331717
  O       4.828141     34.598359      8.302650
  O       7.468496     34.614240      8.055898
  O       7.506814     29.956001      8.099104
  O       6.168251     27.657057      8.286984
  O       8.762827     32.280560      8.241927
  O       5.904344     29.148835      6.095015
  O       5.917000     35.566281      6.068611
  O       8.965320     33.732039      6.029474
  O       9.028638     30.815248      6.066178
  Si      6.156156     38.500210      7.767878
  Si      8.852473     40.086649      7.775427
  O       4.920921     39.339492      8.427524
  O       7.550434     39.215240      8.250259
  O       6.171905     36.937476      8.277573
  O       8.649777     41.583535      8.391466
  O       6.108156     38.524507      6.134115
  O       8.965894     40.073087      6.137937
  Si     11.524236     26.090935      7.737314
  Si     14.180680     24.533421      7.812314
  O      10.174020     25.363481      8.299209
  O      12.871605     25.381996      8.326273
  O      14.003741     23.029384      8.407562
  O      11.497283     25.926583      6.108464
  O      14.173628     24.555938      6.173535
  Si     11.534580     29.244910      7.757465
  Al     11.620152     35.387002      7.761955
  Si     14.270367     33.794833      7.814415
  Si     14.210184     30.738786      7.761660
  O      10.173052     29.968553      8.315251
  O      10.113761     34.617605      8.269567
  O      13.058366     34.616024      8.465998
  O      12.889456     29.950075      8.340711
  O      11.495141     27.666938      8.161639
  O      14.364684     32.237841      8.373158
  O      11.523275     29.417458      6.127491
  O      11.820695     35.101163      6.024692
  O      14.059303     33.670063      6.187491
  O      14.014838     30.850463      6.137546
  Si     11.601058     38.650972      7.758374
  Si     14.336491     40.083388      7.820477
  O      10.247287     39.419716      8.309554
  O      12.948072     39.402362      8.353706
  O      11.600186     37.105105      8.147612
  O      14.555009     41.586472      8.415587
  O      11.677481     38.902508      6.128264
  O      14.344469     40.043729      6.181825
  Si     16.901398     26.024445      7.829470
  O      15.543273     25.265563      8.345772
  O      18.174328     25.241336      8.474031
  O      16.877121     25.987309      6.193272
  Si     16.920016     29.110200      7.734309
  Si     17.033775     35.350378      7.727306
  Si     19.685115     33.773934      7.798307
  Si     19.579017     30.669093      7.813948
  O      15.525536     29.850793      8.129518
  O      15.721038     34.495914      8.142322
  O      18.358287     34.586480      8.316279
  O      18.185086     29.960425      8.320240
  O      16.881336     27.587913      8.329783
  O      19.629847     32.222147      8.330231
  O      17.070961     28.966337      6.110868
  O      17.222457     35.395359      6.099161
  O      19.663054     33.723657      6.161540
  O      19.571009     30.653863      6.175589
  Si     16.975299     38.443646      7.797475
  O      15.638251     39.220853      8.333015
  O      18.352795     39.068905      8.401936
  O      16.935778     36.879232      8.297564
  O      16.963624     38.443384      6.158751
  O      20.789583     29.779341      8.439084
  O      21.064445     34.406721      8.390843
  H       4.074657     24.986772      8.036591
  H       1.410409     29.602015      8.036749
  H       1.410409     35.007985      8.036749
  H       4.074657     39.623228      8.036591
  H       8.948181     22.173255      8.038302
  H       8.948181     42.436745      8.038302
  H      14.277762     22.173204      8.038282
  H      14.277762     42.436796      8.038282
  H      18.960557     24.876228      8.036406
  H      18.960557     39.733772      8.036406
  H      21.624717     29.491420      8.036583
  H      21.624717     35.118580      8.036583
  H      13.225714     34.154779      5.932726
  H      11.045227     34.708380      5.611162
  H       8.986247     32.822611      5.697144
  H       9.831149     30.377157      5.736983
  H      12.305927     29.882007      5.784731
  H      14.001940     31.781963      5.841969
  H      13.506470     39.726422      5.807050
  H      10.861334     39.256476      5.747165
  H       8.179253     39.789198      5.658109
  H       6.009882     37.650001      5.729802
  H       5.211272     35.024580      5.689300
  H       3.430374     32.963838      5.789057
  H       4.124773     30.261194      5.770603
  H       5.977337     28.265529      5.704860
  H       6.642544     25.650556      5.627800
  H       9.719448     24.857896      5.738820
  H      12.312843     25.574249      5.724376
  H      14.942214     24.986501      5.773848
  H      17.008845     26.848877      5.771452
  H      17.776593     29.501134      5.720397
  H      19.585935     31.529491      5.764622
  H      18.960776     34.255937      5.758660
  H      17.110574     36.267813      5.697968
  H      16.191023     38.872634      5.765206
  N       9.416888     30.266795     11.814381
  C      10.224863     29.189754     11.553288
  N       9.577714     28.010973     11.345328
  C       8.203849     27.788927     11.364959
  C       7.435630     28.990803     11.522234
  C       8.058609     30.162556     11.752113
  O      11.448335     29.276493     11.517999
  O       7.769458     26.653171     11.250568
  C      10.093197     31.494802     12.280839
  C      10.863356     32.245505     11.189559
  C      10.749077     33.685549     11.671884
  C       9.364413     33.708963     12.294027
  O      11.713344     33.939990     12.670467
  O       9.145434     32.374064     12.791756
  C       8.278128     34.132807     11.330362
  O       7.069914     34.462796     11.990033
  P       5.788430     33.469332     12.045584
  O       5.956601     32.375069     11.049005
  O       5.923798     32.767033     13.500823
  O       4.589086     34.352238     12.043035
  H      10.171195     27.209037     11.175337
  H       6.358079     28.937874     11.474631
  H       7.508442     31.086718     11.877902
  H      10.788256     31.171435     13.064029
  H      10.840697     34.396333     10.845626
  H       9.356609     34.378395     13.157683
  H      12.488651     33.410969     12.433315
  H       8.614794     35.035008     10.814147
  H       8.096271     33.352726     10.588035
  H       5.639361     33.364533     14.201354
  O      12.209080     31.876091     11.097633
  H      10.341923     32.134725     10.232777
  H      12.232660     30.904027     11.158273
159
Coordinates from ORCA-job /data/Seafile/ump/al_surf/frames/frame15/ump_al_frame15 E -13365.190224754351
  Si      3.452485     33.847142      7.824691
  Si      3.474718     30.745678      7.834768
  O       2.216254     34.686264      8.468973
  O       2.211369     29.938843      8.471418
  O       3.449345     32.298387      8.355927
  O       3.426706     33.846796      6.186205
  O       3.449378     30.806638      6.198456
  Si      6.140639     26.100751      7.764164
  Si      8.868827     24.522948      7.750898
  O       4.879597     25.334131      8.453314
  O       7.517046     25.335720      8.179425
  O       8.783873     23.045677      8.436287
  O       6.016793     26.190144      6.130911
  O       8.937956     24.439791      6.122080
  Si      6.125372     29.185015      7.717911
  Si      6.106016     35.409001      7.690265
  Si      8.860713     33.831932      7.667177
  Si      8.868013     30.750180      7.695875
  O       4.862273     30.022174      8.332069
  O       4.827993     34.597445      8.302378
  O       7.468594     34.613794      8.055135
  O       7.507524     29.954290      8.100179
  O       6.166394     27.656467      8.286614
  O       8.763384     32.280277      8.243317
  O       5.904524     29.148911      6.094995
  O       5.916532     35.565615      6.068596
  O       8.966956     33.730755      6.030378
  O       9.027657     30.815669      6.066952
  Si      6.155993     38.499909      7.767190
  Si      8.853150     40.086478      7.775056
  O       4.921768     39.340844      8.426780
  O       7.550944     39.214496      8.248916
  O       6.171568     36.937116      8.277258
  O       8.650032     41.583304      8.391286
  O       6.107396     38.523072      6.133558
  O       8.968145     40.073196      6.137741
  Si     11.524640     26.090696      7.737503
  Si     14.180905     24.533607      7.813247
  O      10.174047     25.362943      8.298045
  O      12.871689     25.382041      8.327550
  O      14.004244     23.029422      8.407916
  O      11.499392     25.926670      6.108661
  O      14.173004     24.557074      6.174412
  Si     11.534845     29.244602      7.757294
  Al     11.619942     35.386704      7.762598
  Si     14.269716     33.794813      7.815180
  Si     14.210368     30.738721      7.761179
  O      10.173757     29.968852      8.315375
  O      10.113514     34.617610      8.270300
  O      13.057642     34.615333      8.467079
  O      12.889955     29.949368      8.340407
  O      11.494969     27.666820      8.161801
  O      14.364342     32.237576      8.373255
  O      11.522856     29.417155      6.127317
  O      11.819430     35.100192      6.025376
  O      14.059524     33.670425      6.188257
  O      14.014498     30.850579      6.136985
  Si     11.601523     38.650464      7.758814
  Si     14.336783     40.083241      7.820656
  O      10.247779     39.419236      8.309755
  O      12.948331     39.402360      8.353883
  O      11.601649     37.104796      8.148421
  O      14.555381     41.586488      8.415417
  O      11.678081     38.901582      6.128550
  O      14.344654     40.043332      6.181957
  Si     16.901522     26.024490      7.829988
  O      15.543442     25.265822      8.346609
  O      18.174337     25.240999      8.474317
  O      16.876819     25.987246      6.193764
  Si     16.920229     29.110237      7.734633
  Si     17.033183     35.349950      7.727875
  Si     19.685132     33.773918      7.798961
  Si     19.579198     30.669099      7.814235
  O      15.525469     29.850527      8.129710
  O      15.720129     34.496437      8.143607
  O      18.357779     34.585950      8.316614
  O      18.184910     29.961071      8.320440
  O      16.881721     27.588012      8.330347
  O      19.630582     32.222064      8.330950
  O      17.071149     28.965916      6.111212
  O      17.221480     35.394419      6.099628
  O      19.663165     33.723540      6.162179
  O      19.571090     30.654258      6.175917
  Si     16.975596     38.443404      7.797784
  O      15.638644     39.220945      8.333506
  O      18.353283     39.068313      8.401762
  O      16.935742     36.878938      8.298027
  O      16.963330     38.442645      6.159006
  O      20.789333     29.778669      8.439122
  O      21.063834     34.407592      8.391686
  H       4.074657     24.986772      8.036591
  H       1.410409     29.602015      8.036749
  H       1.410409     35.007985      8.036749
  H       4.074657     39.623228      8.036591
  H       8.948181     22.173255      8.038302
  H       8.948181     42.436745      8.038302
  H      14.277762     22.173204      8.038282
  H      14.277762     42.436796      8.038282
  H      18.960557     24.876228      8.036406
  H      18.960557     39.733772      8.036406
  H      21.624717     29.491420      8.036583
  H      21.624717     35.118580      8.036583
  H      13.225794     34.154259      5.932940
  H      11.043966     34.704921      5.614053
  H       8.986742     32.821349      5.697888
  H       9.829645     30.377420      5.736843
  H      12.305086     29.882267      5.784363
  H      14.002511     31.782282      5.841946
  H      13.506743     39.725625      5.807304
  H      10.861931     39.255608      5.747481
  H       8.181078     39.793257      5.656393
  H       6.009180     37.648097      5.730174
  H       5.210546     35.024254      5.689283
  H       3.429029     32.964448      5.788717
  H       4.125328     30.260455      5.770622
  H       5.976572     28.265277      5.705190
  H       6.628568     25.646545      5.622724
  H       9.722700     24.856852      5.737659
  H      12.315188     25.573397      5.725764
  H      14.941951     24.986855      5.774537
  H      17.008648     26.848686      5.771710
  H      17.776379     29.501125      5.720573
  H      19.585855     31.530140      5.765418
  H      18.960614     34.255501      5.759317
  H      17.109827     36.266754      5.698102
  H      16.190677     38.872177      5.765825
  N       9.418094     30.271379     11.823087
  C      10.229102     29.195106     11.568148
  N       9.584933     28.014797     11.359381
  C       8.211427     27.790641     11.372129
  C       7.440443     28.991379     11.524589
  C       8.060288     30.164816     11.754816
  O      11.452540     29.283845     11.538222
  O       7.779405     26.654123     11.255689
  C      10.090651     31.502214     12.287038
  C      10.859259     32.251700     11.193766
  C      10.742943     33.692626     11.672980
  C       9.358327     33.715079     12.295838
  O      11.707412     33.950756     12.670324
  O       9.140422     32.380524     12.794565
  C       8.271458     34.137080     11.332115
  O       7.062473     34.463235     11.991952
  P       5.782884     33.467516     12.045116
  O       5.954003     32.373566     11.048393
  O       5.918111     32.764581     13.500100
  O       4.582013     34.348570     12.040910
  H      10.180743     27.213864     11.192700
  H       6.363213     28.936739     11.472089
  H       7.507692     31.088208     11.876434
  H      10.785890     31.182684     13.071624
  H      10.833018     34.401560     10.844960
  H       9.350817     34.385124     13.158983
  H      12.482585     33.420570     12.435335
  H       8.605880     35.040552     10.816605
  H       8.091635     33.357229     10.589027
  H       5.636558     33.361751     14.202009
  O      12.205569     31.884009     11.101984
  H      10.337655     32.137109     10.237529
  H      12.230867     30.912333     11.167569
159
Coordinates from ORCA-job /data/Seafile/ump/al_surf/frames/frame15/ump_al_frame15 E -13365.190227630494
  Si      3.451704     33.846924      7.824581
  Si      3.474834     30.745265      7.834454
  O       2.215813     34.686220      8.469743
  O       2.212595     29.936419      8.471099
  O       3.448398     32.298014      8.355336
  O       3.424812     33.847361      6.186116
  O       3.449555     30.805856      6.198318
  Si      6.139679     26.100392      7.761187
  Si      8.869820     24.522064      7.747353
  O       4.883565     25.326907      8.451722
  O       7.518462     25.337537      8.171895
  O       8.780222     23.045857      8.434525
  O       6.011299     26.196065      6.128595
  O       8.943906     24.435173      6.119025
  Si      6.124908     29.184584      7.717651
  Si      6.105628     35.408412      7.690017
  Si      8.860768     33.830948      7.667989
  Si      8.867559     30.749548      7.697034
  O       4.862787     30.022756      8.332448
  O       4.827678     34.596651      8.301908
  O       7.468405     34.613085      8.053990
  O       7.508035     29.951815      8.101198
  O       6.163580     27.655397      8.285630
  O       8.763511     32.279698      8.245031
  O       5.904315     29.148928      6.094817
  O       5.915864     35.565253      6.068369
  O       8.969127     33.728690      6.031639
  O       9.025757     30.816192      6.067856
  Si      6.155780     38.499602      7.766218
  Si      8.853990     40.086351      7.774634
  O       4.922628     39.342133      8.425990
  O       7.551479     39.213820      8.246907
  O       6.171350     36.936768      8.276822
  O       8.650468     41.583047      8.391251
  O       6.105865     38.521584      6.132781
  O       8.971155     40.073863      6.137556
  Si     11.525314     26.090450      7.737513
  Si     14.181264     24.533831      7.814422
  O      10.174313     25.362282      8.296348
  O      12.871949     25.382210      8.329129
  O      14.004875     23.029437      8.408415
  O      11.502457     25.926519      6.108616
  O      14.172415     24.558422      6.175551
  Si     11.534976     29.244297      7.756513
  Al     11.619491     35.386159      7.763412
  Si     14.268862     33.794653      7.815989
  Si     14.210505     30.738535      7.760589
  O      10.174378     29.969099      8.315047
  O      10.112969     34.617532      8.271533
  O      13.056585     34.614160      8.468199
  O      12.890210     29.948662      8.339860
  O      11.494781     27.666747      8.161480
  O      14.363954     32.237125      8.373280
  O      11.522311     29.416840      6.126516
  O      11.817357     35.098809      6.026163
  O      14.059453     33.670646      6.189034
  O      14.014060     30.850748      6.136395
  Si     11.602035     38.649747      7.759194
  Si     14.337100     40.082962      7.820752
  O      10.248242     39.418466      8.309943
  O      12.948514     39.402388      8.353935
  O      11.603687     37.104273      8.149398
  O      14.555979     41.586485      8.414999
  O      11.678689     38.900230      6.128765
  O      14.344941     40.042688      6.181997
  Si     16.901694     26.024531      7.830528
  O      15.543695     25.266100      8.347549
  O      18.174304     25.240530      8.474612
  O      16.876455     25.987140      6.194327
  Si     16.920426     29.110278      7.735077
  Si     17.032475     35.349287      7.728566
  Si     19.685145     33.773724      7.799584
  Si     19.579324     30.669020      7.814507
  O      15.525282     29.850083      8.129868
  O      15.718893     34.497046      8.145192
  O      18.357153     34.585054      8.316878
  O      18.184647     29.961746      8.320727
  O      16.882185     27.588085      8.330918
  O      19.631500     32.221840      8.331715
  O      17.071372     28.965501      6.111639
  O      17.220404     35.393234      6.100241
  O      19.663334     33.723271      6.162760
  O      19.571161     30.654526      6.176264
  Si     16.975838     38.442972      7.798195
  O      15.639008     39.220881      8.334009
  O      18.353784     39.067710      8.401594
  O      16.935886     36.878435      8.298517
  O      16.963061     38.441868      6.159403
  O      20.788895     29.777655      8.439012
  O      21.063095     34.408583      8.392581
  H       4.074657     24.986772      8.036591
  H       1.410409     29.602015      8.036749
  H       1.410409     35.007985      8.036749
  H       4.074657     39.623228      8.036591
  H       8.948181     22.173255      8.038302
  H       8.948181     42.436745      8.038302
  H      14.277762     22.173204      8.038282
  H      14.277762     42.436796      8.038282
  H      18.960557     24.876228      8.036406
  H      18.960557     39.733772      8.036406
  H      21.624717     29.491420      8.036583
  H      21.624717     35.118580      8.036583
  H      13.225521     34.153756      5.933497
  H      11.041807     34.700362      5.617875
  H       8.986961     32.819105      5.699327
  H       9.826752     30.377180      5.736498
  H      12.304596     29.881473      5.783101
  H      14.002325     31.782729      5.842100
  H      13.507120     39.724475      5.807559
  H      10.862589     39.254600      5.747857
  H       8.183402     39.800113      5.653939
  H       6.008039     37.646011      5.730497
  H       5.209482     35.024506      5.688945
  H       3.427712     32.965186      5.788269
  H       4.125919     30.259786      5.770884
  H       5.974851     28.264791      5.705554
  H       6.606794     25.640064      5.614830
  H       9.727958     24.854980      5.736171
  H      12.318624     25.571999      5.727421
  H      14.941838     24.987207      5.775464
  H      17.008136     26.848438      5.771929
  H      17.776140     29.501067      5.720662
  H      19.585931     31.530697      5.766301
  H      18.960486     34.254883      5.759937
  H      17.108869     36.265444      5.698408
  H      16.190176     38.871419      5.766648
  N       9.420017     30.277534     11.835309
  C      10.235865     29.202738     11.589628
  N       9.596590     28.019951     11.379222
  C       8.223614     27.792656     11.379769
  C       7.448321     28.991569     11.524658
  C       8.063123     30.167407     11.756453
  O      11.459174     29.295081     11.568029
  O       7.795457     26.654993     11.259412
  C      10.086576     31.512739     12.295634
  C      10.852794     32.260995     11.199940
  C      10.732716     33.703034     11.674964
  C       9.348000     33.723321     12.298320
  O      11.696900     33.966849     12.671089
  O       9.132081     32.389007     12.798357
  C       8.260091     34.142155     11.334520
  O       7.050107     34.462953     11.994693
  P       5.773319     33.463616     12.045127
  O       5.949727     32.369897     11.048783
  O       5.908314     32.760945     13.500182
  O       4.569769     34.341283     12.038103
  H      10.195875     27.220360     11.218647
  H       6.371696     28.934245     11.463370
  H       7.506677     31.089544     11.871569
  H      10.782175     31.198907     13.082164
  H      10.820294     34.409605     10.844672
  H       9.340211     34.394038     13.160923
  H      12.472945     33.437058     12.438099
  H       8.590730     35.047293     10.819486
  H       8.083101     33.361967     10.591075
  H       5.625477     33.356664     14.202735
  O      12.200120     31.896187     11.108622
  H      10.331145     32.141535     10.244253
  H      12.228305     30.925166     11.182269
159
Coordinates from ORCA-job /data/Seafile/ump/al_surf/frames/frame15/ump_al_frame15 E -13365.190237088840
  Si      3.450557     33.846739      7.823809
  Si      3.474964     30.744834      7.833383
  O       2.215488     34.686486      8.470574
  O       2.214539     29.932923      8.470261
  O       3.447013     32.297615      8.353765
  O       3.421729     33.848428      6.185380
  O       3.449695     30.805064      6.197546
  Si      6.138176     26.099474      7.755056
  Si      8.871784     24.520649      7.740865
  O       4.890953     25.313767      8.448095
  O       7.521051     25.340690      8.157952
  O       8.773814     23.046230      8.431117
  O       6.001764     26.206164      6.123816
  O       8.955271     24.426513      6.113632
  Si      6.123818     29.183702      7.716267
  Si      6.104974     35.407753      7.688747
  Si      8.860550     33.829192      7.668861
  Si      8.866460     30.748467      7.698150
  O       4.863472     30.023661      8.332144
  O       4.827189     34.595687      8.300308
  O       7.467884     34.612064      8.051541
  O       7.508528     29.947596      8.101818
  O       6.158521     27.653382      8.282749
  O       8.763060     32.278527      8.247393
  O       5.903808     29.149001      6.093594
  O       5.914980     35.565016      6.067059
  O       8.972528     33.725102      6.033226
  O       9.022561     30.817238      6.068758
  Si      6.155346     38.499185      7.763982
  Si      8.855173     40.086292      7.773421
  O       4.923917     39.343831      8.424583
  O       7.552170     39.212930      8.242675
  O       6.171099     36.936327      8.275440
  O       8.650826     41.582637      8.390890
  O       6.102237     38.519599      6.130875
  O       8.976268     40.075539      6.136732
  Si     11.526568     26.090144      7.736921
  Si     14.181890     24.534153      7.815898
  O      10.175082     25.361099      8.293083
  O      12.872531     25.382579      8.331146
  O      14.005832     23.029482      8.409094
  O      11.507718     25.926197      6.107871
  O      14.171906     24.560166      6.176988
  Si     11.534846     29.243859      7.754210
  Al     11.618442     35.385268      7.764239
  Si     14.267496     33.794381      7.816410
  Si     14.210587     30.738122      7.759163
  O      10.175037     29.969276      8.313616
  O      10.111842     34.617217      8.273352
  O      13.054740     34.612165      8.469051
  O      12.890041     29.947881      8.338222
  O      11.494440     27.666714      8.160138
  O      14.363445     32.236386      8.372473
  O      11.521020     29.416343      6.124216
  O      11.813502     35.096870      6.026825
  O      14.058803     33.671020      6.189337
  O      14.013794     30.850759      6.135029
  Si     11.602675     38.648666      7.759298
  Si     14.337495     40.082496      7.820619
  O      10.248702     39.417335      8.309670
  O      12.948639     39.402427      8.353602
  O      11.606668     37.103431      8.150605
  O      14.556913     41.586419      8.414133
  O      11.679503     38.897985      6.128650
  O      14.345490     40.041630      6.181781
  Si     16.901978     26.024613      7.831017
  O      15.544125     25.266469      8.348625
  O      18.174288     25.240044      8.474926
  O      16.875993     25.986847      6.194902
  Si     16.920634     29.110355      7.735328
  Si     17.031366     35.348311      7.729074
  Si     19.685058     33.773371      7.800123
  Si     19.579421     30.668929      7.814573
  O      15.524894     29.849391      8.129563
  O      15.716840     34.498026      8.146962
  O      18.356055     34.583581      8.316712
  O      18.184210     29.962618      8.320797
  O      16.882797     27.588208      8.331274
  O      19.632710     32.221504      8.332505
  O      17.071715     28.964995      6.111843
  O      17.218945     35.391583      6.100692
  O      19.663776     33.722761      6.163218
  O      19.571431     30.654885      6.176436
  Si     16.975998     38.442308      7.798446
  O      15.639422     39.220690      8.334434
  O      18.354436     39.066800      8.401119
  O      16.936168     36.877673      8.298678
  O      16.962632     38.441225      6.159671
  O      20.788136     29.776145      8.438600
  O      21.061875     34.410069      8.393724
  H       4.074657     24.986772      8.036591
  H       1.410409     29.602015      8.036749
  H       1.410409     35.007985      8.036749
  H       4.074657     39.623228      8.036591
  H       8.948181     22.173255      8.038302
  H       8.948181     42.436745      8.038302
  H      14.277762     22.173204      8.038282
  H      14.277762     42.436796      8.038282
  H      18.960557     24.876228      8.036406
  H      18.960557     39.733772      8.036406
  H      21.624717     29.491420      8.036583
  H      21.624717     35.118580      8.036583
  H      13.224381     34.153232      5.934034
  H      11.037808     34.693504      5.623364
  H       8.987449     32.815078      5.701602
  H       9.822640     30.378146      5.735521
  H      12.302765     29.881102      5.779927
  H      14.002750     31.783035      5.841476
  H      13.507771     39.722700      5.807685
  H      10.863686     39.253466      5.748073
  H       8.187409     39.813078      5.648966
  H       6.005984     37.643045      5.730193
  H       5.207909     35.025371      5.687400
  H       3.425558     32.966608      5.786810
  H       4.126349     30.258801      5.770647
  H       5.971824     28.264014      5.705259
  H       6.566046     25.627663      5.600274
  H       9.737825     24.851629      5.733506
  H      12.324596     25.569808      5.729561
  H      14.942133     24.987380      5.776667
  H      17.007612     26.847854      5.771892
  H      17.775913     29.500816      5.720254
  H      19.586060     31.531449      5.767207
  H      18.960622     34.253918      5.760330
  H      17.106916     36.263531      5.698438
  H      16.189301     38.870695      5.767614
  N       9.425547     30.290048     11.855302
  C      10.249660     29.217756     11.626314
  N       9.618732     28.030894     11.412842
  C       8.246830     27.798668     11.389941
  C       7.464427     28.994526     11.520930
  C       8.070526     30.174130     11.756638
  O      11.472785     29.316124     11.620403
  O       7.825315     26.659214     11.261982
  C      10.081525     31.532841     12.308987
  C      10.844680     32.278344     11.209773
  C      10.718840     33.722167     11.677852
  C       9.333378     33.739868     12.300270
  O      11.681365     33.994369     12.673362
  O       9.119192     32.405886     12.802117
  C       8.245189     34.154232     11.335207
  O       7.033079     34.468008     11.994308
  P       5.760838     33.462671     12.041563
  O       5.946965     32.367986     11.047762
  O       5.894153     32.763179     13.498021
  O       4.552833     34.334432     12.027960
  H      10.223552     27.233297     11.263813
  H       6.389099     28.932623     11.443478
  H       7.507769     31.094226     11.859919
  H      10.777125     31.229302     13.099459
  H      10.803854     34.425057     10.844195
  H       9.324300     34.411730     13.161987
  H      12.458938     33.465182     12.444107
  H       8.571098     35.061517     10.820955
  H       8.072921     33.373222     10.591500
  H       5.604421     33.356800     14.199453
  O      12.193502     31.917506     11.120210
  H      10.323296     32.151495     10.254689
  H      12.226189     30.947949     11.209820
159
Coordinates from ORCA-job /data/Seafile/ump/al_surf/frames/frame15/ump_al_frame15 E -13365.190252942122
  Si      3.449441     33.846728      7.822473
  Si      3.474934     30.744662      7.831417
  O       2.215363     34.686898      8.471202
  O       2.216438     29.929902      8.469028
  O       3.445947     32.297384      8.351486
  O       3.418367     33.849857      6.184099
  O       3.449159     30.804810      6.195941
  Si      6.136330     26.097943      7.745628
  Si      8.874553     24.518898      7.731759
  O       4.900851     25.296487      8.442072
  O       7.524328     25.344480      8.138626
  O       8.765828     23.046880      8.426177
  O       5.989126     26.218967      6.116485
  O       8.971150     24.414467      6.106303
  Si      6.122052     29.182390      7.712779
  Si      6.104295     35.407221      7.686541
  Si      8.860084     33.826845      7.669249
  Si      8.864739     30.746867      7.697721
  O       4.863981     30.024393      8.330251
  O       4.826629     34.595081      8.297878
  O       7.466989     34.610588      8.048004
  O       7.508589     29.942412      8.100552
  O       6.152135     27.650606      8.277156
  O       8.761974     32.276583      8.248910
  O       5.902639     29.149257      6.090372
  O       5.914029     35.565211      6.064791
  O       8.976796     33.721149      6.034405
  O       9.018751     30.818328      6.068278
  Si      6.154612     38.498616      7.760929
  Si      8.856247     40.086525      7.771698
  O       4.924617     39.344153      8.423393
  O       7.552404     39.212562      8.236807
  O       6.171533     36.935796      8.273439
  O       8.651350     41.582268      8.390722
  O       6.096473     38.517621      6.128241
  O       8.982512     40.078615      6.135519
  Si     11.528335     26.089649      7.734836
  Si     14.182907     24.534338      7.817070
  O      10.176346     25.359619      8.288056
  O      12.873339     25.382761      8.332384
  O      14.007842     23.029592      8.410311
  O      11.514442     25.925344      6.105576
  O      14.172063     24.561104      6.178129
  Si     11.534479     29.243311      7.749724
  Al     11.616749     35.384179      7.765134
  Si     14.265771     33.794088      7.816497
  Si     14.210513     30.737642      7.756955
  O      10.175302     29.968839      8.310034
  O      10.110177     34.616454      8.275722
  O      13.052224     34.609697      8.469500
  O      12.889142     29.947436      8.335321
  O      11.494463     27.666557      8.156829
  O      14.362952     32.235490      8.370998
  O      11.519949     29.415766      6.119829
  O      11.808695     35.095097      6.027441
  O      14.057409     33.671435      6.189199
  O      14.013860     30.851106      6.133013
  Si     11.602998     38.647295      7.759255
  Si     14.337594     40.081927      7.820437
  O      10.248569     39.415788      8.309047
  O      12.948346     39.402541      8.353027
  O      11.609780     37.102364      8.152315
  O      14.557719     41.586260      8.413084
  O      11.680008     38.894855      6.128381
  O      14.346005     40.040374      6.181524
  Si     16.902426     26.024826      7.831068
  O      15.544606     25.267208      8.349362
  O      18.174293     25.239739      8.475096
  O      16.875819     25.986255      6.195115
  Si     16.920803     29.110595      7.734806
  Si     17.029996     35.347379      7.729438
  Si     19.684792     33.773098      7.800528
  Si     19.579509     30.669009      7.814183
  O      15.524292     29.848582      8.128248
  O      15.714113     34.499560      8.148598
  O      18.354485     34.581738      8.316191
  O      18.183655     29.963635      8.320202
  O      16.883615     27.588503      8.330800
  O      19.633973     32.221238      8.333028
  O      17.072095     28.964793      6.111277
  O      17.217396     35.390018      6.101071
  O      19.664523     33.722474      6.163531
  O      19.572117     30.655563      6.176165
  Si     16.975807     38.441722      7.798706
  O      15.639390     39.220251      8.334897
  O      18.354542     39.066561      8.400894
  O      16.936681     36.876998      8.298616
  O      16.962020     38.441135      6.160003
  O      20.787203     29.774569      8.437839
  O      21.060143     34.412160      8.395206
  H       4.074657     24.986772      8.036591
  H       1.410409     29.602015      8.036749
  H       1.410409     35.007985      8.036749
  H       4.074657     39.623228      8.036591
  H       8.948181     22.173255      8.038302
  H       8.948181     42.436745      8.038302
  H      14.277762     22.173204      8.038282
  H      14.277762     42.436796      8.038282
  H      18.960557     24.876228      8.036406
  H      18.960557     39.733772      8.036406
  H      21.624717     29.491420      8.036583
  H      21.624717     35.118580      8.036583
  H      13.222443     34.153132      5.934696
  H      11.032904     34.686458      5.629163
  H       8.987885     32.810558      5.703654
  H       9.817604     30.378749      5.732959
  H      12.301437     29.880127      5.774648
  H      14.002625     31.783745      5.840406
  H      13.508486     39.720446      5.807797
  H      10.864863     39.252414      5.748183
  H       8.192446     39.831130      5.642293
  H       6.002595     37.639981      5.729207
  H       5.206270     35.026736      5.684829
  H       3.423068     32.968529      5.784528
  H       4.125770     30.258128      5.769323
  H       5.967446     28.263280      5.703065
  H       6.507266     25.610304      5.580224
  H       9.751716     24.846381      5.729658
  H      12.332213     25.566584      5.730979
  H      14.943185     24.986592      5.777573
  H      17.007092     26.846850      5.771194
  H      17.775817     29.500592      5.718926
  H      19.586474     31.532542      5.767726
  H      18.961215     34.253243      5.760439
  H      17.104082     36.261594      5.698408
  H      16.188153     38.870433      5.768713
  N       9.435290     30.304938     11.878597
  C      10.270984     29.237235     11.671313
  N       9.652472     28.044632     11.453168
  C       8.282860     27.804509     11.397707
  C       7.490135     28.995347     11.510676
  C       8.083414     30.180146     11.752960
  O      11.493329     29.345102     11.686638
  O       7.871668     26.662416     11.258824
  C      10.076174     31.557618     12.324636
  C      10.835943     32.300572     11.222058
  C      10.700622     33.746336     11.681517
  C       9.313640     33.759152     12.301266
  O      11.659543     34.029957     12.677486
  O       9.102567     32.425205     12.805096
  C       8.225131     34.166309     11.333999
  O       7.009900     34.471003     11.991277
  P       5.744333     33.456876     12.035890
  O       5.943939     32.360714     11.046183
  O       5.875645     32.763313     13.494912
  O       4.529959     34.319743     12.013611
  H      10.265055     27.250106     11.320387
  H       6.417052     28.926188     11.411227
  H       7.511769     31.096810     11.841128
  H      10.771325     31.267735     13.120484
  H      10.782576     34.445103     10.844108
  H       9.300846     34.432539     13.161785
  H      12.440488     33.503786     12.452727
  H       8.544649     35.076040     10.820108
  H       8.059713     33.383516     10.590604
  H       5.571616     33.353776     14.192897
  O      12.187083     31.945856     11.136173
  H      10.316242     32.164707     10.267061
  H      12.226551     30.978682     11.246930
159
Coordinates from ORCA-job /data/Seafile/ump/al_surf/frames/frame15/ump_al_frame15 E -13365.190282378993
  Si      3.449182     33.847249      7.821349
  Si      3.474656     30.745093      7.829388
  O       2.215658     34.687514      8.471224
  O       2.217085     29.929520      8.468035
  O       3.445816     32.297717      8.349326
  O       3.417260     33.851641      6.182983
  O       3.447874     30.805551      6.194140
  Si      6.135181     26.096706      7.737687
  Si      8.876411     24.517910      7.724893
  O       4.907720     25.284977      8.436747
  O       7.526395     25.346859      8.124956
  O       8.760611     23.047510      8.422139
  O       5.980207     26.227545      6.110319
  O       8.982404     24.405404      6.100949
  Si      6.120560     29.181616      7.708906
  Si      6.104134     35.407296      7.684600
  Si      8.859384     33.825156      7.668504
  Si      8.863225     30.745664      7.695932
  O       4.863846     30.024622      8.327299
  O       4.826365     34.595635      8.296035
  O       7.466349     34.609807      8.045809
  O       7.507919     29.939605      8.098441
  O       6.148247     27.648775      8.271280
  O       8.760863     32.274941      8.248550
  O       5.901957     29.150507      6.086673
  O       5.913807     35.565745      6.062761
  O       8.978239     33.718755      6.034021
  O       9.016349     30.818860      6.066705
  Si      6.153920     38.498186      7.758684
  Si      8.856218     40.087097      7.770044
  O       4.924018     39.342295      8.423280
  O       7.551779     39.213175      8.232374
  O       6.172626     36.935573      8.271990
  O       8.651076     41.582268      8.390458
  O       6.091335     38.516846      6.126235
  O       8.985752     40.081640      6.134157
  Si     11.529613     26.089201      7.731840
  Si     14.183936     24.534095      7.817063
  O      10.177452     25.358561      8.283454
  O      12.873917     25.382422      8.331352
  O      14.010107     23.029645      8.411705
  O      11.518621     25.924621      6.102359
  O      14.173738     24.559771      6.178142
  Si     11.534130     29.242950      7.745727
  Al     11.615096     35.383858      7.764336
  Si     14.264785     33.794237      7.814875
  Si     14.210296     30.737644      7.754932
  O      10.174853     29.967765      8.306234
  O      10.108976     34.615445      8.276630
  O      13.050517     34.608746      8.467400
  O      12.888022     29.948087      8.332761
  O      11.495102     27.666088      8.153371
  O      14.362991     32.235436      8.368630
  O      11.519476     29.415278      6.115978
  O      11.805854     35.095589      6.026309
  O      14.055954     33.671539      6.187273
  O      14.014333     30.851332      6.131222
  Si     11.602436     38.646710      7.758382
  Si     14.337133     40.081579      7.820175
  O      10.247631     39.415212      8.307829
  O      12.947608     39.402410      8.352044
  O      11.610038     37.101943      8.152884
  O      14.557293     41.585989      8.412674
  O      11.679608     38.893168      6.127521
  O      14.346486     40.039837      6.181218
  Si     16.902772     26.025195      7.830597
  O      15.544909     25.267891      8.349268
  O      18.174524     25.240323      8.475008
  O      16.876034     25.985643      6.194814
  Si     16.920859     29.111056      7.733604
  Si     17.029310     35.347391      7.728632
  Si     19.684470     33.773205      7.800285
  Si     19.579627     30.669373      7.813466
  O      15.524032     29.848703      8.126192
  O      15.712397     34.500899      8.147738
  O      18.353289     34.580809      8.315007
  O      18.183551     29.964009      8.319116
  O      16.883943     27.588982      8.329485
  O      19.634259     32.221400      8.332701
  O      17.072375     28.965203      6.110045
  O      17.217328     35.390085      6.100419
  O      19.665681     33.722637      6.163242
  O      19.573193     30.656008      6.175505
  Si     16.975145     38.441808      7.798522
  O      15.638728     39.219865      8.334996
  O      18.353863     39.067304      8.400997
  O      16.937100     36.877037      8.297671
  O      16.961569     38.442692      6.159928
  O      20.787013     29.774572      8.437402
  O      21.058767     34.413823      8.396255
  H       4.074657     24.986772      8.036591
  H       1.410409     29.602015      8.036749
  H       1.410409     35.007985      8.036749
  H       4.074657     39.623228      8.036591
  H       8.948181     22.173255      8.038302
  H       8.948181     42.436745      8.038302
  H      14.277762     22.173204      8.038282
  H      14.277762     42.436796      8.038282
  H      18.960557     24.876228      8.036406
  H      18.960557     39.733772      8.036406
  H      21.624717     29.491420      8.036583
  H      21.624717     35.118580      8.036583
  H      13.220822     34.153745      5.933894
  H      11.030140     34.685192      5.629598
  H       8.988157     32.807540      5.704481
  H       9.814651     30.379281      5.730185
  H      12.300675     29.879372      5.770060
  H      14.002534     31.784016      5.838678
  H      13.509164     39.719554      5.807374
  H      10.865078     39.252366      5.747466
  H       8.194722     39.845054      5.637399
  H       5.999649     37.638594      5.727937
  H       5.205399     35.028062      5.682887
  H       3.421244     32.970931      5.782186
  H       4.123823     30.258382      5.767122
  H       5.965022     28.264349      5.699259
  H       6.462164     25.597713      5.565238
  H       9.762048     24.840810      5.726375
  H      12.336992     25.564917      5.729837
  H      14.945391     24.984465      5.777729
  H      17.007179     26.845805      5.770052
  H      17.776083     29.500446      5.717069
  H      19.587545     31.533036      5.767182
  H      18.962776     34.253454      5.759600
  H      17.102281     36.261334      5.697606
  H      16.187181     38.871625      5.769185
  N       9.448824     30.315509     11.891314
  C      10.292403     29.251733     11.696485
  N       9.682658     28.055293     11.474945
  C       8.315040     27.809153     11.398566
  C       7.515012     28.995864     11.501960
  C       8.099264     30.183991     11.749595
  O      11.513903     29.366759     11.725289
  O       7.911556     26.665252     11.251839
  C      10.079040     31.574850     12.332531
  C      10.837992     32.316458     11.229022
  C      10.694777     33.763254     11.682865
  C       9.305767     33.772295     12.297940
  O      11.648722     34.054354     12.681643
  O       9.096933     32.438299     12.803493
  C       8.218366     34.173018     11.327148
  O       6.999824     34.472354     11.980904
  P       5.739285     33.451445     12.023978
  O       5.950440     32.353394     11.038994
  O       5.867093     32.764783     13.486219
  O       4.520050     34.307034     11.993427
  H      10.300221     27.263040     11.352264
  H       6.443552     28.920978     11.389914
  H       7.521631     31.097802     11.829780
  H      10.773117     31.294572     13.132666
  H      10.776308     34.459905     10.843650
  H       9.287775     34.447283     13.157172
  H      12.433549     33.532702     12.459976
  H       8.534260     35.083694     10.812756
  H       8.058982     33.387965     10.584887
  H       5.545916     33.352821     14.178565
  O      12.190985     31.966597     11.147775
  H      10.321275     32.175148     10.273043
  H      12.235378     31.001294     11.272128
159
Coordinates from ORCA-job /data/Seafile/ump/al_surf/frames/frame15/ump_al_frame15 E -13365.190317762796
  Si      3.450082     33.848299      7.820818
  Si      3.474108     30.746174      7.827623
  O       2.216093     34.687660      8.470577
  O       2.215908     29.932813      8.467572
  O       3.447246     32.298645      8.347794
  O       3.419454     33.853619      6.182404
  O       3.445620     30.807515      6.192379
  Si      6.134897     26.095734      7.731298
  Si      8.877817     24.517639      7.720023
  O       4.911968     25.278649      8.432360
  O       7.527653     25.347849      8.116893
  O       8.759283     23.048263      8.419250
  O       5.974213     26.232683      6.105544
  O       8.989957     24.398335      6.097388
  Si      6.119521     29.181381      7.704872
  Si      6.104671     35.408048      7.683126
  Si      8.858500     33.824150      7.666769
  Si      8.862191     30.744762      7.692635
  O       4.862893     30.023932      8.323313
  O       4.826414     34.597824      8.295332
  O       7.465909     34.609576      8.045353
  O       7.506571     29.939507      8.095561
  O       6.147614     27.647880      8.265260
  O       8.759367     32.273424      8.246021
  O       5.902087     29.153448      6.082666
  O       5.914267     35.566512      6.061228
  O       8.976882     33.718590      6.032010
  O       9.016061     30.818445      6.063924
  Si      6.153066     38.497707      7.757260
  Si      8.854795     40.088221      7.768310
  O       4.921198     39.336480      8.424859
  O       7.549722     39.215353      8.229129
  O       6.175051     36.935618      8.271395
  O       8.649888     41.582746      8.390276
  O       6.086205     38.517131      6.124857
  O       8.985960     40.085112      6.132500
  Si     11.530704     26.088754      7.727018
  Si     14.185231     24.533102      7.815357
  O      10.178736     25.358145      8.278726
  O      12.874459     25.381244      8.326968
  O      14.012980     23.029605      8.413570
  O      11.520401     25.923959      6.097316
  O      14.177737     24.554819      6.176524
  Si     11.534320     29.243073      7.742144
  Al     11.613298     35.384354      7.762788
  Si     14.264717     33.795004      7.812317
  Si     14.210148     30.738445      7.753295
  O      10.173930     29.965860      8.302285
  O      10.108145     34.613825      8.276675
  O      13.049764     34.609716      8.463500
  O      12.886988     29.950369      8.330963
  O      11.497376     27.665183      8.149060
  O      14.363774     32.236384      8.366095
  O      11.520575     29.415543      6.112733
  O      11.805631     35.098775      6.024391
  O      14.054393     33.671561      6.184298
  O      14.015531     30.852145      6.129923
  Si     11.600659     38.646865      7.757037
  Si     14.335771     40.081508      7.820062
  O      10.245392     39.415636      8.306006
  O      12.946163     39.402061      8.351034
  O      11.606619     37.102228      8.153113
  O      14.555257     41.585570      8.413026
  O      11.678021     38.892484      6.126450
  O      14.346522     40.040096      6.181112
  Si     16.903160     26.025745      7.829299
  O      15.545136     25.268546      8.347988
  O      18.175138     25.242086      8.474543
  O      16.877151     25.984818      6.193691
  Si     16.920953     29.111796      7.731128
  Si     17.029384     35.348684      7.726852
  Si     19.684023     33.773974      7.799356
  Si     19.579849     30.670257      7.812243
  O      15.524415     29.849997      8.122776
  O      15.711953     34.502159      8.144656
  O      18.352610     34.581255      8.313310
  O      18.184126     29.963596      8.317172
  O      16.883865     27.589724      8.326790
  O      19.633163     32.222238      8.331372
  O      17.072635     28.966454      6.107617
  O      17.218626     35.391984      6.098915
  O      19.667117     33.723830      6.162359
  O      19.574915     30.656565      6.174258
  Si     16.973822     38.442870      7.797910
  O      15.637071     39.219461      8.334852
  O      18.351955     39.069604      8.401719
  O      16.937428     36.878183      8.295916
  O      16.961179     38.446270      6.159483
  O      20.787787     29.776689      8.437288
  O      21.058037     34.414740      8.396695
  H       4.074657     24.986772      8.036591
  H       1.410409     29.602015      8.036749
  H       1.410409     35.007985      8.036749
  H       4.074657     39.623228      8.036591
  H       8.948181     22.173255      8.038302
  H       8.948181     42.436745      8.038302
  H      14.277762     22.173204      8.038282
  H      14.277762     42.436796      8.038282
  H      18.960557     24.876228      8.036406
  H      18.960557     39.733772      8.036406
  H      21.624717     29.491420      8.036583
  H      21.624717     35.118580      8.036583
  H      13.219522     34.155480      5.932506
  H      11.030307     34.691366      5.624095
  H       8.988199     32.806801      5.703820
  H       9.814654     30.379459      5.727344
  H      12.301471     29.879781      5.766548
  H      14.001645     31.784622      5.836788
  H      13.509478     39.720015      5.806590
  H      10.864429     39.253420      5.746042
  H       8.194008     39.855540      5.634062
  H       5.996184     37.638868      5.726226
  H       5.205296     35.028923      5.682154
  H       3.420197     32.973724      5.780035
  H       4.120688     30.260611      5.763917
  H       5.964601     28.268223      5.693372
  H       6.425136     25.585754      5.554263
  H       9.768797     24.835379      5.723138
  H      12.339064     25.564895      5.725097
  H      14.949167     24.980327      5.776598
  H      17.007962     26.844538      5.768079
  H      17.776868     29.500500      5.714173
  H      19.589401     31.533172      5.765191
  H      18.964971     34.254900      5.757871
  H      17.101309     36.262880      5.696105
  H      16.186425     38.874686      5.768862
  N       9.468273     30.319779     11.893000
  C      10.317840     29.260810     11.700666
  N       9.715338     28.061614     11.476390
  C       8.349296     27.809221     11.389902
  C       7.542759     28.991502     11.492586
  C       8.120015     30.181830     11.745742
  O      11.538231     29.383160     11.734667
  O       7.952547     26.663781     11.237564
  C      10.090592     31.582878     12.334410
  C      10.850126     32.326962     11.233032
  C      10.696559     33.773537     11.684435
  C       9.305572     33.776161     12.294130
  O      11.644048     34.071109     12.687843
  O       9.101901     32.441441     12.801107
  C       8.218008     34.168543     11.320328
  O       6.996679     34.463121     11.971876
  P       5.741022     33.435586     12.014886
  O       5.960472     32.338619     11.031223
  O       5.868597     32.752926     13.478920
  O       4.517166     34.283893     11.982976
  H      10.336818     27.271792     11.357746
  H       6.472148     28.910838     11.376510
  H       7.537757     31.092444     11.826103
  H      10.783808     31.307928     13.137113
  H      10.777764     34.470462     10.845395
  H       9.279774     34.452653     13.152032
  H      12.435451     33.559204     12.466911
  H       8.530039     35.079430     10.804006
  H       8.064330     33.380597     10.580028
  H       5.526623     33.336857     14.164865
  O      12.205566     31.984372     11.157792
  H      10.338921     32.182724     10.274429
  H      12.255967     31.020003     11.287160
159
Coordinates from ORCA-job /data/Seafile/ump/al_surf/frames/frame15/ump_al_frame15 E -13365.190366726963
  Si      3.450590     33.848655      7.820248
  Si      3.473889     30.746177      7.825538
  O       2.216395     34.687330      8.470236
  O       2.215798     29.933962      8.466718
  O       3.447781     32.298633      8.345932
  O       3.420497     33.854855      6.181838
  O       3.443944     30.808175      6.190116
  Si      6.134181     26.094115      7.721602
  Si      8.880602     24.516209      7.711336
  O       4.920477     25.264427      8.424721
  O       7.530182     25.349515      8.100774
  O       8.755858     23.049305      8.415075
  O       5.964555     26.243629      6.098471
  O       9.004528     24.386452      6.090878
  Si      6.119072     29.180425      7.700630
  Si      6.105282     35.407908      7.681617
  Si      8.858309     33.822760      7.666543
  Si      8.861766     30.743451      7.690823
  O       4.862740     30.022967      8.319329
  O       4.826698     34.598661      8.294433
  O       7.465812     34.608839      8.044375
  O       7.506334     29.937433      8.093051
  O       6.145077     27.645604      8.258253
  O       8.757660     32.271514      8.245238
  O       5.903029     29.156191      6.078223
  O       5.914562     35.565757      6.059691
  O       8.978225     33.718317      6.031410
  O       9.016685     30.818342      6.062286
  Si      6.151817     38.496751      7.754340
  Si      8.854287     40.089114      7.765424
  O       4.919376     39.332015      8.425388
  O       7.548107     39.216707      8.222858
  O       6.177221     36.935216      8.270004
  O       8.648590     41.582824      8.389389
  O       6.079034     38.515136      6.122193
  O       8.990283     40.088650      6.129957
  Si     11.532451     26.088343      7.722072
  Si     14.186439     24.532178      7.814197
  O      10.180129     25.357362      8.272226
  O      12.875186     25.380230      8.323560
  O      14.015573     23.029563      8.415346
  O      11.524545     25.923878      6.092218
  O      14.180905     24.550645      6.175324
  Si     11.534399     29.243042      7.738380
  Al     11.611445     35.384269      7.764118
  Si     14.264368     33.795375      7.812312
  Si     14.209959     30.738612      7.751370
  O      10.173864     29.964132      8.299408
  O      10.107017     34.611795      8.278905
  O      13.048773     34.609865      8.463096
  O      12.886099     29.951432      8.328969
  O      11.499548     27.664547      8.144357
  O      14.364249     32.236320      8.364972
  O      11.521561     29.416257      6.109505
  O      11.804667     35.100597      6.025406
  O      14.053079     33.672727      6.183902
  O      14.016382     30.853242      6.128228
  Si     11.599666     38.646273      7.757045
  Si     14.334789     40.081492      7.820444
  O      10.243657     39.415464      8.304169
  O      12.945134     39.402045      8.351088
  O      11.604759     37.102124      8.155672
  O      14.554081     41.585376      8.413156
  O      11.677407     38.889666      6.126435
  O      14.346314     40.039566      6.181445
  Si     16.903613     26.026025      7.828330
  O      15.545597     25.268926      8.347296
  O      18.175980     25.243819      8.474412
  O      16.878051     25.983410      6.192766
  Si     16.921169     29.112066      7.728128
  Si     17.028838     35.349507      7.726347
  Si     19.683444     33.774790      7.799112
  Si     19.580097     30.671098      7.811054
  O      15.524600     29.850393      8.119010
  O      15.711035     34.503392      8.144296
  O      18.351673     34.581533      8.312576
  O      18.184445     29.963402      8.314842
  O      16.883939     27.590277      8.324204
  O      19.632259     32.222966      8.330586
  O      17.073067     28.966877      6.104795
  O      17.218200     35.392446      6.098444
  O      19.667795     33.724965      6.162185
  O      19.576694     30.657946      6.173005
  Si     16.972856     38.443716      7.797478
  O      15.635922     39.219225      8.335253
  O      18.350660     39.071021      8.402054
  O      16.937389     36.879182      8.294943
  O      16.960073     38.448515      6.159107
  O      20.788186     29.778127      8.436990
  O      21.057284     34.415639      8.397283
  H       4.074657     24.986772      8.036591
  H       1.410409     29.602015      8.036749
  H       1.410409     35.007985      8.036749
  H       4.074657     39.623228      8.036591
  H       8.948181     22.173255      8.038302
  H       8.948181     42.436745      8.038302
  H      14.277762     22.173204      8.038282
  H      14.277762     42.436796      8.038282
  H      18.960557     24.876228      8.036406
  H      18.960557     39.733772      8.036406
  H      21.624717     29.491420      8.036583
  H      21.624717     35.118580      8.036583
  H      13.218091     34.157080      5.933148
  H      11.029924     34.694143      5.623106
  H       8.989575     32.806358      5.703621
  H       9.815346     30.379980      5.725278
  H      12.302807     29.879891      5.763355
  H      14.000844     31.785592      5.835027
  H      13.509716     39.718853      5.806562
  H      10.865177     39.253038      5.745410
  H       8.197479     39.871891      5.627417
  H       5.991241     37.636345      5.724278
  H       5.205239     35.027840      5.681637
  H       3.418084     32.975660      5.778112
  H       4.119024     30.262448      5.760313
  H       5.963148     28.271450      5.687372
  H       6.358263     25.569467      5.536499
  H       9.779102     24.832278      5.717979
  H      12.343723     25.564342      5.721588
  H      14.952153     24.976773      5.775682
  H      17.008873     26.842560      5.766139
  H      17.777313     29.500531      5.710989
  H      19.590794     31.534373      5.763641
  H      18.966051     34.256037      5.757087
  H      17.098832     36.262748      5.695050
  H      16.185302     38.877260      5.768828
  N       9.496647     30.331552     11.905870
  C      10.357718     29.279495     11.725153
  N       9.767492     28.075607     11.495438
  C       8.404975     27.812547     11.387655
  C       7.587170     28.987621     11.482188
  C       8.151342     30.182505     11.743147
  O      11.577041     29.411879     11.773247
  O       8.020112     26.664460     11.225219
  C      10.103208     31.602538     12.345028
  C      10.860168     32.348664     11.243926
  C      10.693030     33.795266     11.689838
  C       9.300304     33.789186     12.294763
  O      11.634245     34.103174     12.696043
  O       9.103371     32.453243     12.802067
  C       8.212597     34.172859     11.317997
  O       6.987350     34.458537     11.966660
  P       5.740376     33.420485     12.009688
  O       5.970048     32.325113     11.026968
  O       5.870520     32.741666     13.475445
  O       4.509727     34.258380     11.977081
  H      10.396286     27.290452     11.384931
  H       6.518767     28.897506     11.353472
  H       7.560789     31.088270     11.817047
  H      10.795619     31.339383     13.152369
  H      10.772192     34.490681     10.849333
  H       9.266438     34.466902     13.151443
  H      12.431595     33.599168     12.478400
  H       8.519726     35.085846     10.802396
  H       8.067285     33.384039     10.577029
  H       5.512727     33.322262     14.156199
  O      12.218260     32.015998     11.174909
  H      10.353882     32.196482     10.283877
  H      12.276205     31.054007     11.318939
159
Coordinates from ORCA-job /data/Seafile/ump/al_surf/frames/frame15/ump_al_frame15 E -13365.190398730165
  Si      3.451757     33.848682      7.820405
  Si      3.473667     30.745736      7.824243
  O       2.216032     34.685462      8.469382
  O       2.214434     29.937079      8.466689
  O       3.449292     32.298292      8.345129
  O       3.424228     33.855177      6.181935
  O       3.441691     30.807982      6.188350
  Si      6.134713     26.093338      7.717017
  Si      8.882353     24.515398      7.707435
  O       4.924297     25.258593      8.420610
  O       7.531329     25.348970      8.095043
  O       8.757506     23.050042      8.414169
  O       5.961190     26.247805      6.095355
  O       9.011628     24.380396      6.087984
  Si      6.120385     29.180256      7.697390
  Si      6.106532     35.407517      7.681831
  Si      8.859052     33.822980      7.665433
  Si      8.863258     30.743139      7.688586
  O       4.862501     30.020982      8.315597
  O       4.827321     34.599474      8.295643
  O       7.466858     34.608750      8.045611
  O       7.506613     29.938725      8.090625
  O       6.147315     27.644976      8.253876
  O       8.757503     32.270930      8.242561
  O       5.905204     29.159002      6.074497
  O       5.914848     35.563863      6.060034
  O       8.976675     33.721238      6.029275
  O       9.021136     30.817451      6.060019
  Si      6.150668     38.495841      7.753033
  Si      8.853211     40.090000      7.762870
  O       4.916958     39.327096      8.426735
  O       7.546252     39.218204      8.219225
  O       6.179457     36.934807      8.269869
  O       8.646338     41.583168      8.388097
  O       6.074923     38.513191      6.120985
  O       8.991597     40.090207      6.127496
  Si     11.533420     26.088653      7.718914
  Si     14.187149     24.531063      7.812947
  O      10.180709     25.357946      8.268733
  O      12.875700     25.379415      8.319790
  O      14.016500     23.029291      8.416711
  O      11.525114     25.925482      6.089087
  O      14.184269     24.545682      6.174031
  Si     11.535653     29.243841      7.737566
  Al     11.610955     35.385186      7.764313
  Si     14.265488     33.796345      7.811836
  Si     14.210098     30.739806      7.750683
  O      10.174286     29.962891      8.298560
  O      10.107547     34.610072      8.278679
  O      13.050012     34.612520      8.461811
  O      12.886269     29.953792      8.329045
  O      11.502419     27.664623      8.142132
  O      14.364870     32.237544      8.364828
  O      11.524667     29.417677      6.109170
  O      11.807673     35.104058      6.025589
  O      14.053438     33.673933      6.183323
  O      14.017136     30.854644      6.127460
  Si     11.598485     38.646608      7.756699
  Si     14.333750     40.081684      7.820789
  O      10.242251     39.416555      8.302139
  O      12.944380     39.401591      8.351326
  O      11.600335     37.102898      8.156682
  O      14.551965     41.584976      8.414056
  O      11.676885     38.888933      6.126166
  O      14.345717     40.039775      6.181770
  Si     16.903763     26.026284      7.828018
  O      15.546117     25.268507      8.347023
  O      18.177264     25.246349      8.474577
  O      16.878635     25.982448      6.192254
  Si     16.921270     29.112195      7.725706
  Si     17.029532     35.351027      7.725156
  Si     19.683356     33.775809      7.798552
  Si     19.580336     30.671785      7.810362
  O      15.525264     29.851821      8.116004
  O      15.712462     34.503504      8.142321
  O      18.352256     34.583501      8.312055
  O      18.185113     29.962698      8.313048
  O      16.883092     27.590828      8.322648
  O      19.630382     32.223877      8.329541
  O      17.073445     28.966729      6.102740
  O      17.219016     35.393834      6.097198
  O      19.668114     33.726455      6.161750
  O      19.577896     30.658789      6.172219
  Si     16.972372     38.445093      7.796728
  O      15.634879     39.219209      8.335339
  O      18.349521     39.072309      8.402443
  O      16.936776     36.880612      8.293776
  O      16.959487     38.450738      6.158335
  O      20.789330     29.780768      8.437487
  O      21.058176     34.414583      8.396632
  H       4.074657     24.986772      8.036591
  H       1.410409     29.602015      8.036749
  H       1.410409     35.007985      8.036749
  H       4.074657     39.623228      8.036591
  H       8.948181     22.173255      8.038302
  H       8.948181     42.436745      8.038302
  H      14.277762     22.173204      8.038282
  H      14.277762     42.436796      8.038282
  H      18.960557     24.876228      8.036406
  H      18.960557     39.733772      8.036406
  H      21.624717     29.491420      8.036583
  H      21.624717     35.118580      8.036583
  H      13.219094     34.159079      5.932306
  H      11.033623     34.702876      5.617017
  H       8.991473     32.809786      5.700593
  H       9.820659     30.379819      5.724146
  H      12.305947     29.882341      5.764173
  H      14.000093     31.786706      5.833691
  H      13.509648     39.718790      5.806047
  H      10.865605     39.253142      5.743967
  H       8.197979     39.879384      5.623756
  H       5.986745     37.634355      5.723353
  H       5.205175     35.024769      5.684006
  H       3.417711     32.976355      5.777493
  H       4.117480     30.264716      5.756797
  H       5.963565     28.275354      5.681263
  H       6.310166     25.553258      5.528947
  H       9.783631     24.830422      5.714964
  H      12.343859     25.566088      5.717695
  H      14.954841     24.973550      5.774940
  H      17.010243     26.841220      5.765187
  H      17.777835     29.500375      5.709198
  H      19.592209     31.534718      5.761938
  H      18.966482     34.257441      5.756333
  H      17.099520     36.263824      5.693253
  H      16.185014     38.879933      5.767980
  N       9.520834     30.341643     11.904016
  C      10.386671     29.293692     11.722772
  N       9.801722     28.088434     11.488410
  C       8.440582     27.819607     11.377102
  C       7.617384     28.990798     11.474207
  C       8.176213     30.187191     11.739940
  O      11.605329     29.430942     11.774136
  O       8.060724     26.670604     11.209675
  C      10.121091     31.613926     12.347845
  C      10.879196     32.363082     11.249111
  C      10.702218     33.809436     11.692028
  C       9.308744     33.797086     12.294649
  O      11.639808     34.124609     12.699212
  O       9.117422     32.460724     12.802546
  C       8.220338     34.174820     11.316359
  O       6.993987     34.457639     11.964404
  P       5.750935     33.415650     12.011079
  O       5.978575     32.322016     11.026186
  O       5.888375     32.736343     13.476769
  O       4.518161     34.250319     11.985773
  H      10.434377     27.306354     11.376462
  H       6.549607     28.896053     11.343865
  H       7.582349     31.090376     11.816542
  H      10.811925     31.352956     13.157339
  H      10.779706     34.503862     10.850563
  H       9.269249     34.475956     13.150132
  H      12.441074     33.625844     12.483895
  H       8.525942     35.087802     10.799696
  H       8.078526     33.385323     10.575492
  H       5.532056     33.318743     14.156844
  O      12.239402     32.038105     11.186598
  H      10.378368     32.205323     10.287094
  H      12.302639     31.076791     11.332707
159
Coordinates from ORCA-job /data/Seafile/ump/al_surf/frames/frame15/ump_al_frame15 E -13365.190473610510
  Si      3.452309     33.847915      7.820958
  Si      3.473734     30.744521      7.823764
  O       2.215137     34.683013      8.469183
  O       2.213828     29.938060      8.466928
  O       3.450153     32.297190      8.345047
  O       3.426597     33.854575      6.182429
  O       3.440375     30.806478      6.187600
  Si      6.134932     26.092116      7.712359
  Si      8.884478     24.513956      7.703335
  O       4.929312     25.249732      8.415821
  O       7.532768     25.348431      8.087082
  O       8.757874     23.050475      8.413640
  O       5.957537     26.253714      6.092216
  O       9.020298     24.373831      6.084920
  Si      6.121609     29.179287      7.694988
  Si      6.107367     35.406343      7.682990
  Si      8.860186     33.822915      7.665595
  Si      8.864600     30.742531      7.688269
  O       4.862639     30.018702      8.313419
  O       4.827711     34.598872      8.297357
  O       7.467972     34.608050      8.046799
  O       7.507103     29.938517      8.089102
  O       6.148159     27.643372      8.250599
  O       8.757803     32.270437      8.241468
  O       5.907014     29.159736      6.071631
  O       5.914457     35.561118      6.061315
  O       8.976296     33.722859      6.028885
  O       9.024562     30.816591      6.059436
  Si      6.149798     38.494997      7.752121
  Si      8.853393     40.090317      7.761075
  O       4.916413     39.325902      8.427092
  O       7.545745     39.218367      8.215928
  O       6.180487     36.934158      8.269999
  O       8.644821     41.583188      8.386917
  O       6.072146     38.510212      6.120343
  O       8.994633     40.090477      6.125916
  Si     11.534564     26.089212      7.718190
  Si     14.187713     24.530595      7.813481
  O      10.181065     25.358511      8.266484
  O      12.876467     25.379531      8.319192
  O      14.016377     23.028979      8.417459
  O      11.527094     25.927709      6.088377
  O      14.185850     24.544256      6.174490
  Si     11.536477     29.244391      7.738263
  Al     11.611443     35.385250      7.765239
  Si     14.266612     33.796731      7.812289
  Si     14.210070     30.740480      7.750881
  O      10.174727     29.961986      8.299716
  O      10.108659     34.608646      8.278807
  O      13.051654     34.614011      8.462329
  O      12.886386     29.955017      8.329969
  O      11.504183     27.665214      8.141931
  O      14.365006     32.238147      8.365835
  O      11.526689     29.418974      6.110086
  O      11.809839     35.105071      6.026626
  O      14.054765     33.674630      6.184017
  O      14.016630     30.855475      6.127372
  Si     11.598488     38.646242      7.756980
  Si     14.333473     40.081683      7.821272
  O      10.242301     39.416887      8.300956
  O      12.944340     39.401078      8.351989
  O      11.598562     37.102909      8.157691
  O      14.550837     41.584810      8.414775
  O      11.677703     38.887748      6.126303
  O      14.345191     40.039593      6.182210
  Si     16.903907     26.026408      7.829018
  O      15.547039     25.267651      8.348278
  O      18.178699     25.248372      8.475406
  O      16.878390     25.982086      6.192965
  Si     16.921134     29.111987      7.725514
  Si     17.030298     35.351487      7.725014
  Si     19.683725     33.776072      7.798538
  Si     19.580347     30.671702      7.810718
  O      15.525316     29.852381      8.115413
  O      15.714004     34.502936      8.142084
  O      18.353325     34.584784      8.312485
  O      18.185239     29.962371      8.312984
  O      16.882177     27.591050      8.323390
  O      19.629503     32.224047      8.329487
  O      17.073649     28.965673      6.102848
  O      17.219402     35.394032      6.096890
  O      19.667738     33.726996      6.161780
  O      19.577739     30.658835      6.172570
  Si     16.972639     38.445679      7.796835
  O      15.634763     39.219324      8.335970
  O      18.349561     39.072271      8.402583
  O      16.936162     36.880979      8.293798
  O      16.958920     38.450881      6.158381
  O      20.789888     29.781748      8.438115
  O      21.059423     34.413141      8.395847
  H       4.074657     24.986772      8.036591
  H       1.410409     29.602015      8.036749
  H       1.410409     35.007985      8.036749
  H       4.074657     39.623228      8.036591
  H       8.948181     22.173255      8.038302
  H       8.948181     42.436745      8.038302
  H      14.277762     22.173204      8.038282
  H      14.277762     42.436796      8.038282
  H      18.960557     24.876228      8.036406
  H      18.960557     39.733772      8.036406
  H      21.624717     29.491420      8.036583
  H      21.624717     35.118580      8.036583
  H      13.220831     34.159468      5.931917
  H      11.036220     34.706516      5.614817
  H       8.993466     32.812093      5.698855
  H       9.824181     30.378597      5.724263
  H      12.307757     29.885203      5.766321
  H      13.999855     31.787496      5.833527
  H      13.509444     39.718208      5.806115
  H      10.866892     39.252113      5.743278
  H       8.200039     39.887935      5.620430
  H       5.982833     37.630993      5.723834
  H       5.204327     35.021250      5.687001
  H       3.417685     32.975709      5.778072
  H       4.117548     30.265522      5.755369
  H       5.962868     28.276459      5.677253
  H       6.258688     25.541178      5.521149
  H       9.790002     24.828563      5.712915
  H      12.345644     25.568130      5.716798
  H      14.956226     24.972928      5.775813
  H      17.010729     26.840701      5.765775
  H      17.777609     29.500196      5.709625
  H      19.592348     31.534615      5.762011
  H      18.965613     34.257554      5.756580
  H      17.100890     36.263927      5.692473
  H      16.184609     38.880593      5.768255
  N       9.539704     30.351871     11.906939
  C      10.412063     29.308502     11.729869
  N       9.834585     28.100693     11.489735
  C       8.475671     27.824613     11.371074
  C       7.645569     28.991104     11.466890
  C       8.196654     30.190277     11.736415
  O      11.629909     29.450937     11.788603
  O       8.102684     26.674155     11.197937
  C      10.131093     31.627112     12.353708
  C      10.889596     32.378589     11.256340
  C      10.702170     33.825154     11.694348
  C       9.307569     33.805804     12.294885
  O      11.636642     34.149888     12.701087
  O       9.121865     32.469295     12.803222
  C       8.219410     34.177818     11.314092
  O       6.990564     34.455115     11.959288
  P       5.752695     33.407803     12.006985
  O       5.982605     32.314008     11.022485
  O       5.894745     32.729264     13.473426
  O       4.516896     34.238357     11.982232
  H      10.472650     27.322838     11.378413
  H       6.578969     28.890733     11.331353
  H       7.597729     31.090349     11.811334
  H      10.819514     31.370095     13.166558
  H      10.776689     34.516910     10.850390
  H       9.263301     34.485320     13.149570
  H      12.440866     33.654384     12.489053
  H       8.522382     35.092089     10.798092
  H       8.083024     33.388079     10.572395
  H       5.545031     33.314935     14.154149
  O      12.251834     32.061399     11.200409
  H      10.393682     32.213265     10.293066
  H      12.319880     31.101108     11.350648
159
Coordinates from ORCA-job /data/Seafile/ump/al_surf/frames/frame15/ump_al_frame15 E -13365.190484798211
  Si      3.453088     33.846423      7.821880
  Si      3.473956     30.742678      7.823953
  O       2.213164     34.678163      8.468952
  O       2.212325     29.940209      8.467945
  O       3.452473     32.295452      8.345655
  O       3.430338     33.853228      6.183194
  O       3.438745     30.803820      6.187663
  Si      6.135702     26.089871      7.707673
  Si      8.887668     24.512326      7.701008
  O       4.934628     25.240039      8.410457
  O       7.534403     25.346547      8.080133
  O       8.760988     23.050607      8.415144
  O       5.954856     26.257879      6.088964
  O       9.030287     24.367704      6.083531
  Si      6.123083     29.177472      7.692099
  Si      6.108003     35.404927      7.684944
  Si      8.861253     33.823240      7.665535
  Si      8.865946     30.742036      7.688517
  O       4.862351     30.014422      8.311350
  O       4.827633     34.598408      8.300088
  O       7.469029     34.607198      8.048940
  O       7.506856     29.938991      8.087177
  O       6.150774     27.640850      8.246834
  O       8.758195     32.270464      8.239695
  O       5.909045     29.159486      6.068299
  O       5.913476     35.557441      6.063387
  O       8.973939     33.724659      6.028454
  O       9.028409     30.815235      6.059481
  Si      6.149046     38.494404      7.751739
  Si      8.853956     40.090547      7.759725
  O       4.916564     39.326395      8.427289
  O       7.545720     39.218212      8.213357
  O       6.180974     36.933602      8.270328
  O       8.643060     41.583243      8.385557
  O       6.070713     38.507226      6.120301
  O       8.997485     40.089793      6.124771
  Si     11.536205     26.090663      7.720112
  Si     14.188697     24.530544      7.815569
  O      10.181749     25.360178      8.266694
  O      12.878131     25.380743      8.320723
  O      14.015203     23.028512      8.417902
  O      11.529409     25.931415      6.090298
  O      14.187806     24.544984      6.176561
  Si     11.537356     29.245572      7.741402
  Al     11.612966     35.385125      7.765307
  Si     14.268532     33.797349      7.812593
  Si     14.209991     30.741796      7.752810
  O      10.174496     29.961044      8.303137
  O      10.110775     34.607171      8.277136
  O      13.054550     34.616106      8.462697
  O      12.886267     29.957506      8.332653
  O      11.506361     27.666760      8.144492
  O      14.364930     32.239516      8.368028
  O      11.528892     29.420627      6.113117
  O      11.813323     35.105851      6.026972
  O      14.057664     33.674805      6.184926
  O      14.015479     30.856184      6.128803
  Si     11.598773     38.645700      7.757152
  Si     14.333207     40.081526      7.822196
  O      10.243029     39.417337      8.299878
  O      12.944378     39.399938      8.353093
  O      11.596256     37.102582      8.157541
  O      14.548946     41.584675      8.416301
  O      11.679451     38.887290      6.126329
  O      14.344539     40.039657      6.183156
  Si     16.904203     26.026892      7.831734
  O      15.548952     25.265954      8.351319
  O      18.181270     25.251683      8.477154
  O      16.877610     25.982850      6.195305
  Si     16.920548     29.111914      7.728069
  Si     17.031902     35.351870      7.725483
  Si     19.684541     33.775966      7.798626
  Si     19.580101     30.671089      7.812262
  O      15.525069     29.853415      8.117680
  O      15.716972     34.501346      8.142047
  O      18.355604     34.586645      8.313939
  O      18.185260     29.962053      8.315073
  O      16.880534     27.591402      8.326913
  O      19.628694     32.223930      8.329919
  O      17.073400     28.964219      6.105654
  O      17.220628     35.394540      6.097213
  O      19.666526     33.727220      6.161888
  O      19.576049     30.657497      6.174161
  Si     16.973220     38.446222      7.797890
  O      15.634888     39.219693      8.337339
  O      18.350064     39.071935      8.403017
  O      16.935342     36.881017      8.294852
  O      16.958499     38.450392      6.159378
  O      20.790669     29.782648      8.439369
  O      21.061810     34.410363      8.394132
  H       4.074657     24.986772      8.036591
  H       1.410409     29.602015      8.036749
  H       1.410409     35.007985      8.036749
  H       4.074657     39.623228      8.036591
  H       8.948181     22.173255      8.038302
  H       8.948181     42.436745      8.038302
  H      14.277762     22.173204      8.038282
  H      14.277762     42.436796      8.038282
  H      18.960557     24.876228      8.036406
  H      18.960557     39.733772      8.036406
  H      21.624717     29.491420      8.036583
  H      21.624717     35.118580      8.036583
  H      13.224265     34.159025      5.930999
  H      11.040043     34.711334      5.610913
  H       8.994957     32.814765      5.696765
  H       9.828425     30.376838      5.725655
  H      12.309603     29.889013      5.770922
  H      14.000585     31.788232      5.834798
  H      13.509181     39.717703      5.806646
  H      10.868642     39.250744      5.742486
  H       8.201264     39.896786      5.618209
  H       5.979150     37.627662      5.725060
  H       5.202306     35.017116      5.691347
  H       3.419143     32.974015      5.779504
  H       4.117871     30.265503      5.755176
  H       5.959106     28.276255      5.673092
  H       6.197866     25.526034      5.514957
  H       9.798767     24.825782      5.713261
  H      12.347655     25.572449      5.717646
  H      14.958362     24.974241      5.778754
  H      17.010572     26.841629      5.768512
  H      17.776926     29.499852      5.712944
  H      19.591699     31.533079      5.763224
  H      18.963481     34.257190      5.757416
  H      17.104543     36.264695      5.692648
  H      16.184066     38.880157      5.769550
  N       9.557537     30.361089     11.907038
  C      10.436677     29.323693     11.729887
  N       9.867804     28.112813     11.482366
  C       8.511110     27.827947     11.361682
  C       7.673144     28.988589     11.461330
  C       8.215836     30.190843     11.734014
  O      11.653306     29.472997     11.793655
  O       8.145553     26.675818     11.183309
  C      10.140418     31.638809     12.358726
  C      10.899167     32.394376     11.263380
  C      10.698517     33.841058     11.695653
  C       9.303180     33.811999     12.295525
  O      11.630171     34.178813     12.700427
  O       9.125763     32.475440     12.804817
  C       8.214203     34.176827     11.312693
  O       6.983200     34.448505     11.955077
  P       5.752057     33.394484     12.007834
  O       5.982286     32.300463     11.023118
  O       5.905536     32.715600     13.473862
  O       4.512046     34.219647     11.987201
  H      10.512257     27.340831     11.367175
  H       6.607416     28.881816     11.324066
  H       7.610737     31.086648     11.811232
  H      10.826176     31.383650     13.174433
  H      10.766995     34.529180     10.848213
  H       9.254487     34.491794     13.149709
  H      12.438517     33.689138     12.490079
  H       8.512829     35.092047     10.795889
  H       8.083092     33.385365     10.571748
  H       5.570636     33.305298     14.158554
  O      12.264209     32.088129     11.215037
  H      10.409216     32.220313     10.298491
  H      12.338811     31.128455     11.365610
159
Coordinates from ORCA-job /data/Seafile/ump/al_surf/frames/frame15/ump_al_frame15 E -13365.190510483468
  Si      3.453336     33.845681      7.823014
  Si      3.474159     30.742103      7.825944
  O       2.211964     34.675957      8.469072
  O       2.211146     29.941287      8.469405
  O       3.453625     32.294915      8.347409
  O       3.432204     33.852264      6.184168
  O       3.439185     30.802635      6.189778
  Si      6.136591     26.089668      7.710921
  Si      8.887883     24.512546      7.705199
  O       4.932239     25.244153      8.412686
  O       7.533764     25.344400      8.086454
  O       8.765309     23.050035      8.418457
  O       5.957471     26.253593      6.091341
  O       9.027000     24.371265      6.086854
  Si      6.123683     29.177233      7.694067
  Si      6.107620     35.404855      7.686684
  Si      8.861023     33.824238      7.665254
  Si      8.866417     30.742707      7.690755
  O       4.861874     30.012780      8.313525
  O       4.827187     34.598396      8.302135
  O       7.469282     34.608003      8.051031
  O       7.506199     29.940994      8.088731
  O       6.154103     27.640859      8.249114
  O       8.758647     32.271880      8.239683
  O       5.909670     29.158730      6.070238
  O       5.912764     35.556244      6.065072
  O       8.969234     33.724681      6.028316
  O       9.029328     30.814203      6.061759
  Si      6.149574     38.495084      7.752957
  Si      8.854190     40.090330      7.760249
  O       4.918346     39.330437      8.426617
  O       7.546910     39.217198      8.215693
  O       6.179167     36.934091      8.270977
  O       8.641503     41.583355      8.384416
  O       6.074106     38.507765      6.121441
  O       8.995463     40.087283      6.125085
  Si     11.536126     26.091820      7.724119
  Si     14.188750     24.531149      7.817001
  O      10.181742     25.361336      8.270706
  O      12.879037     25.382478      8.323237
  O      14.012176     23.028323      8.416379
  O      11.528038     25.933471      6.094282
  O      14.188033     24.548115      6.178071
  Si     11.537407     29.246290      7.746270
  Al     11.614872     35.385303      7.762636
  Si     14.269902     33.797763      7.811126
  Si     14.209861     30.742597      7.754972
  O      10.174065     29.961717      8.308072
  O      10.112716     34.607519      8.273166
  O      13.057083     34.617970      8.461179
  O      12.886782     29.958185      8.335526
  O      11.505810     27.667895      8.149424
  O      14.364574     32.240734      8.368777
  O      11.528213     29.421136      6.117479
  O      11.816156     35.105334      6.024657
  O      14.059600     33.673955      6.183995
  O      14.013807     30.855439      6.130693
  Si     11.599206     38.646342      7.756065
  Si     14.333588     40.081513      7.822175
  O      10.244503     39.418873      8.299592
  O      12.945035     39.398810      8.352939
  O      11.594582     37.102700      8.153859
  O      14.548039     41.584730      8.417389
  O      11.680882     38.890256      6.125353
  O      14.344695     40.040633      6.183221
  Si     16.904218     26.027153      7.833667
  O      15.550068     25.264330      8.353076
  O      18.182682     25.253451      8.478245
  O      16.877042     25.984341      6.197133
  Si     16.920014     29.111957      7.731252
  Si     17.033417     35.351897      7.725007
  Si     19.685320     33.775406      7.797945
  Si     19.579809     30.670295      7.813395
  O      15.525011     29.854407      8.121106
  O      15.719687     34.499222      8.140363
  O      18.357736     34.587997      8.314322
  O      18.185314     29.961685      8.317488
  O      16.879091     27.591421      8.330204
  O      19.628385     32.223553      8.329779
  O      17.073004     28.963560      6.108722
  O      17.222533     35.395393      6.096787
  O      19.665639     33.726516      6.161178
  O      19.574138     30.655128      6.175313
  Si     16.973887     38.446113      7.798128
  O      15.635765     39.220381      8.337296
  O      18.351320     39.070499      8.402565
  O      16.934676     36.880548      8.295089
  O      16.959204     38.449805      6.159581
  O      20.791138     29.782909      8.440237
  O      21.063932     34.407679      8.392064
  H       4.074657     24.986772      8.036591
  H       1.410409     29.602015      8.036749
  H       1.410409     35.007985      8.036749
  H       4.074657     39.623228      8.036591
  H       8.948181     22.173255      8.038302
  H       8.948181     42.436745      8.038302
  H      14.277762     22.173204      8.038282
  H      14.277762     42.436796      8.038282
  H      18.960557     24.876228      8.036406
  H      18.960557     39.733772      8.036406
  H      21.624717     29.491420      8.036583
  H      21.624717     35.118580      8.036583
  H      13.226307     34.157832      5.929127
  H      11.042636     34.713392      5.606833
  H       8.993095     32.814935      5.696613
  H       9.829537     30.375057      5.729132
  H      12.309094     29.889514      5.775502
  H      14.001032     31.787408      5.836201
  H      13.508947     39.719655      5.806610
  H      10.868918     39.251045      5.741467
  H       8.198662     39.890420      5.620820
  H       5.980990     37.628401      5.726142
  H       5.201022     35.016109      5.693726
  H       3.421220     32.972593      5.781386
  H       4.119172     30.264768      5.758080
  H       5.958514     28.275631      5.674874
  H       6.210707     25.522641      5.520528
  H       9.797828     24.825425      5.716729
  H      12.346149     25.576739      5.719503
  H      14.958765     24.977716      5.781000
  H      17.010423     26.843612      5.771300
  H      17.776549     29.499620      5.716441
  H      19.590853     31.530501      5.763941
  H      18.962291     34.256650      5.757358
  H      17.108253     36.266095      5.692809
  H      16.184441     38.878982      5.769760
  N       9.552267     30.359758     11.896809
  C      10.425933     29.319665     11.707989
  N       9.850605     28.111475     11.460319
  C       8.491655     27.830825     11.357363
  C       7.658851     28.994169     11.467979
  C       8.208337     30.193990     11.737282
  O      11.643690     29.463407     11.762469
  O       8.119925     26.679923     11.183971
  C      10.143082     31.633329     12.351654
  C      10.904747     32.388957     11.258135
  C      10.708219     33.835650     11.692405
  C       9.312602     33.809509     12.292002
  O      11.640907     34.169807     12.697214
  O       9.133303     32.473730     12.802016
  C       8.225732     34.176814     11.307474
  O       6.994856     34.455493     11.946633
  P       5.760435     33.405668     12.002638
  O       5.984815     32.309386     11.018840
  O       5.915722     32.725681     13.467927
  O       4.523166     34.235393     11.982570
  H      10.491674     27.338466     11.334703
  H       6.591305     28.891559     11.342040
  H       7.606990     31.091467     11.822799
  H      10.827874     31.371016     13.165904
  H      10.778023     34.524217     10.845451
  H       9.265714     34.489266     13.146315
  H      12.447222     33.677242     12.485917
  H       8.528119     35.089575     10.788662
  H       8.092059     33.383489     10.568918
  H       5.595865     33.319198     14.156465
  O      12.268980     32.079927     11.210598
  H      10.414811     32.217774     10.292724
  H      12.339573     31.118427     11.350481
159
Coordinates from ORCA-job /data/Seafile/ump/al_surf/frames/frame15/ump_al_frame15 E -13365.190534737310
  Si      3.453103     33.844752      7.823568
  Si      3.474432     30.741476      7.827340
  O       2.210423     34.672945      8.469895
  O       2.210370     29.941618      8.470660
  O       3.455363     32.294248      8.348419
  O       3.431871     33.851729      6.184568
  O       3.440007     30.801318      6.191553
  Si      6.136430     26.087920      7.707979
  Si      8.889663     24.511625      7.704207
  O       4.936640     25.235286      8.408728
  O       7.534959     25.344263      8.080179
  O       8.765065     23.049689      8.419099
  O       5.954910     26.259510      6.089441
  O       9.033446     24.367217      6.086771
  Si      6.122430     29.175287      7.694702
  Si      6.106369     35.404925      7.686544
  Si      8.859572     33.823177      7.665533
  Si      8.864538     30.741823      7.692807
  O       4.861152     30.010749      8.315469
  O       4.826007     34.598873      8.302515
  O       7.467882     34.607482      8.050433
  O       7.504717     29.938915      8.089855
  O       6.152597     27.638157      8.248497
  O       8.757033     32.271439      8.241012
  O       5.908718     29.156973      6.071251
  O       5.911224     35.555765      6.064758
  O       8.967165     33.721608      6.029327
  O       9.025593     30.813131      6.063959
  Si      6.149704     38.495574      7.751792
  Si      8.854993     40.090449      7.759970
  O       4.920436     39.334207      8.425100
  O       7.548073     39.216285      8.213975
  O       6.177770     36.934512      8.269895
  O       8.640659     41.583293      8.383741
  O       6.073123     38.507744      6.120454
  O       8.997791     40.087682      6.125025
  Si     11.536867     26.091977      7.725822
  Si     14.189434     24.531820      7.818154
  O      10.182578     25.361342      8.271698
  O      12.880388     25.384125      8.325627
  O      14.010844     23.028405      8.415172
  O      11.530393     25.932900      6.095874
  O      14.188326     24.551955      6.179281
  Si     11.535989     29.246163      7.746753
  Al     11.615217     35.384128      7.761808
  Si     14.269580     33.797627      7.811357
  Si     14.209289     30.742380      7.755948
  O      10.172668     29.961325      8.309829
  O      10.112752     34.606986      8.271261
  O      13.057217     34.617494      8.462049
  O      12.885494     29.958161      8.335754
  O      11.504757     27.668278      8.150520
  O      14.363500     32.240468      8.369458
  O      11.525419     29.421616      6.117612
  O      11.815595     35.102581      6.024105
  O      14.059880     33.673303      6.184517
  O      14.012554     30.854903      6.131687
  Si     11.599605     38.645777      7.755709
  Si     14.333769     40.081240      7.822545
  O      10.245401     39.419117      8.299453
  O      12.945235     39.397835      8.353126
  O      11.594940     37.101640      8.152147
  O      14.547664     41.585024      8.417954
  O      11.682488     38.890538      6.124931
  O      14.344783     40.040882      6.183714
  Si     16.904543     26.027520      7.834983
  O      15.551265     25.263234      8.354355
  O      18.184114     25.255294      8.479228
  O      16.876727     25.985456      6.198590
  Si     16.919310     29.112105      7.733918
  Si     17.033560     35.351201      7.726004
  Si     19.685513     33.774669      7.797742
  Si     19.579342     30.669576      7.813983
  O      15.524053     29.854127      8.123886
  O      15.720071     34.498006      8.141349
  O      18.358461     34.587865      8.315102
  O      18.184680     29.961969      8.319362
  O      16.878150     27.591478      8.332649
  O      19.628877     32.222938      8.329918
  O      17.072333     28.963305      6.111102
  O      17.222660     35.395028      6.097885
  O      19.664555     33.725755      6.160908
  O      19.572361     30.653204      6.175933
  Si     16.973983     38.445591      7.799008
  O      15.636307     39.220824      8.337890
  O      18.352064     39.069698      8.402445
  O      16.934436     36.879755      8.296147
  O      16.959388     38.449018      6.160492
  O      20.790677     29.781781      8.440180
  O      21.064718     34.406492      8.391007
  H       4.074657     24.986772      8.036591
  H       1.410409     29.602015      8.036749
  H       1.410409     35.007985      8.036749
  H       4.074657     39.623228      8.036591
  H       8.948181     22.173255      8.038302
  H       8.948181     42.436745      8.038302
  H      14.277762     22.173204      8.038282
  H      14.277762     42.436796      8.038282
  H      18.960557     24.876228      8.036406
  H      18.960557     39.733772      8.036406
  H      21.624717     29.491420      8.036583
  H      21.624717     35.118580      8.036583
  H      13.226161     34.156790      5.929766
  H      11.041671     34.709455      5.608161
  H       8.990215     32.811563      5.698277
  H       9.826171     30.374680      5.731194
  H      12.305919     29.890630      5.775615
  H      14.001181     31.787197      5.837792
  H      13.508751     39.719846      5.807641
  H      10.870158     39.250881      5.741353
  H       8.200475     39.897609      5.619130
  H       5.980927     37.628018      5.725745
  H       5.198633     35.016564      5.693682
  H       3.421733     32.971836      5.782192
  H       4.120996     30.263366      5.761255
  H       5.954878     28.273147      5.676773
  H       6.179385     25.521649      5.515473
  H       9.804012     24.823723      5.718551
  H      12.349268     25.576817      5.721807
  H      14.959830     24.980935      5.782853
  H      17.009597     26.845117      5.773250
  H      17.776002     29.499238      5.718806
  H      19.589392     31.528624      5.764633
  H      18.960937     34.256101      5.757823
  H      17.108547     36.266001      5.694401
  H      16.184131     38.877501      5.770871
  N       9.553963     30.362275     11.901779
  C      10.432564     29.326546     11.714045
  N       9.864031     28.115929     11.461881
  C       8.506676     27.829769     11.353628
  C       7.668288     28.989011     11.465132
  C       8.211360     30.190905     11.737974
  O      11.649171     29.476536     11.773242
  O       8.140779     26.677576     11.176212
  C      10.139388     31.638860     12.355769
  C      10.898409     32.396349     11.261842
  C      10.694926     33.843153     11.693408
  C       9.299455     33.811292     12.293662
  O      11.626403     34.184438     12.697168
  O       9.125538     32.475202     12.805018
  C       8.210741     34.172907     11.309190
  O       6.978492     34.447010     11.947622
  P       5.749546     33.390609     12.005800
  O       5.980063     32.294865     11.022728
  O       5.909747     32.711268     13.470024
  O       4.507648     34.213513     11.984847
  H      10.509058     27.346119     11.337088
  H       6.601522     28.882111     11.335884
  H       7.604938     31.085090     11.823749
  H      10.824643     31.379321     13.170426
  H      10.759986     34.530364     10.844993
  H       9.250902     34.491149     13.147843
  H      12.435199     33.696056     12.485421
  H       8.507575     35.086329     10.788566
  H       8.080657     33.376745     10.572990
  H       5.591137     33.302010     14.161464
  O      12.264353     32.093265     11.216168
  H      10.410191     32.222390     10.295761
  H      12.339220     31.132491     11.359455
159
Coordinates from ORCA-job /data/Seafile/ump/al_surf/frames/frame15/ump_al_frame15 E -13365.190562737798
  Si      3.453236     33.844473      7.823705
  Si      3.474342     30.741534      7.827594
  O       2.209395     34.670711      8.470193
  O       2.208957     29.943768      8.471490
  O       3.457552     32.294169      8.348677
  O       3.431883     33.851737      6.184580
  O       3.439742     30.801199      6.191963
  Si      6.136375     26.086834      7.704240
  Si      8.890975     24.511038      7.702326
  O       4.940156     25.229090      8.404805
  O       7.535811     25.344262      8.073969
  O       8.765181     23.049752      8.418972
  O       5.952103     26.263947      6.086674
  O       9.039284     24.362882      6.085876
  Si      6.121158     29.174329      7.693552
  Si      6.105467     35.405441      7.685474
  Si      8.857848     33.822379      7.663852
  Si      8.863120     30.741135      7.692115
  O       4.860065     30.009001      8.315611
  O       4.825102     34.600223      8.302280
  O       7.466606     34.607403      8.049451
  O       7.503058     29.938464      8.088840
  O       6.152241     27.636626      8.245982
  O       8.755900     32.270874      8.239937
  O       5.907300     29.157037      6.070482
  O       5.910313     35.555701      6.063515
  O       8.963719     33.719921      6.027914
  O       9.023775     30.811772      6.063555
  Si      6.149584     38.495954      7.750217
  Si      8.854776     40.090940      7.758948
  O       4.921301     39.335533      8.424100
  O       7.548280     39.216122      8.211865
  O       6.177151     36.935009      8.268259
  O       8.639544     41.583417      8.382947
  O       6.070720     38.508394      6.118936
  O       8.998789     40.089181      6.124117
  Si     11.537297     26.091778      7.725549
  Si     14.190195     24.532185      7.817945
  O      10.183237     25.361122      8.271126
  O      12.881217     25.384765      8.325618
  O      14.010881     23.028702      8.414440
  O      11.531695     25.932117      6.095482
  O      14.189820     24.553387      6.179122
  Si     11.534941     29.245738      7.746247
  Al     11.614774     35.383786      7.759245
  Si     14.269138     33.798040      7.810133
  Si     14.208829     30.742387      7.756093
  O      10.171209     29.960473      8.309604
  O      10.112320     34.606359      8.267919
  O      13.056680     34.617830      8.460620
  O      12.884231     29.958664      8.335161
  O      11.504155     27.667948      8.150578
  O      14.362749     32.240752      8.368506
  O      11.523815     29.421230      6.116975
  O      11.815764     35.102224      6.021760
  O      14.059702     33.673106      6.183213
  O      14.012702     30.853989      6.131880
  Si     11.599053     38.645827      7.754573
  Si     14.333312     40.081108      7.822705
  O      10.245156     39.419886      8.298438
  O      12.944875     39.396818      8.352737
  O      11.592968     37.101250      8.149909
  O      14.546204     41.584984      8.418889
  O      11.682922     38.891405      6.123893
  O      14.344895     40.041644      6.183974
  Si     16.904907     26.028172      7.835335
  O      15.552031     25.262863      8.354554
  O      18.185579     25.257805      8.479684
  O      16.876902     25.986310      6.199131
  Si     16.918808     29.112686      7.734910
  Si     17.033505     35.351458      7.725959
  Si     19.685201     33.774671      7.797378
  Si     19.579148     30.669615      7.813811
  O      15.523528     29.854499      8.125231
  O      15.720046     34.497613      8.140548
  O      18.358292     34.587935      8.315121
  O      18.184433     29.962276      8.319866
  O      16.877453     27.591961      8.333354
  O      19.628895     32.223003      8.329392
  O      17.071650     28.964173      6.111836
  O      17.223190     35.395878      6.098018
  O      19.664228     33.725635      6.160540
  O      19.571796     30.652117      6.175708
  Si     16.973451     38.445761      7.799223
  O      15.636008     39.221096      8.337951
  O      18.351596     39.070345      8.402722
  O      16.934343     36.879890      8.296241
  O      16.959684     38.449931      6.160747
  O      20.790670     29.781953      8.440009
  O      21.064472     34.406634      8.390756
  H       4.074657     24.986772      8.036591
  H       1.410409     29.602015      8.036749
  H       1.410409     35.007985      8.036749
  H       4.074657     39.623228      8.036591
  H       8.948181     22.173255      8.038302
  H       8.948181     42.436745      8.038302
  H      14.277762     22.173204      8.038282
  H      14.277762     42.436796      8.038282
  H      18.960557     24.876228      8.036406
  H      18.960557     39.733772      8.036406
  H      21.624717     29.491420      8.036583
  H      21.624717     35.118580      8.036583
  H      13.225956     34.157063      5.928594
  H      11.042051     34.708867      5.605740
  H       8.986563     32.809550      5.697582
  H       9.825197     30.374463      5.731228
  H      12.305033     29.888811      5.774816
  H      14.001759     31.786121      5.837492
  H      13.508749     39.720694      5.807964
  H      10.870609     39.252036      5.740502
  H       8.201296     39.903887      5.616826
  H       5.980350     37.628504      5.724216
  H       5.197338     35.016737      5.692835
  H       3.421744     32.971841      5.782204
  H       4.120916     30.263012      5.762101
  H       5.950091     28.272770      5.676326
  H       6.151208     25.520522      5.510568
  H       9.810043     24.820358      5.719075
  H      12.351314     25.577283      5.721823
  H      14.961718     24.982502      5.783531
  H      17.009594     26.846162      5.774056
  H      17.776134     29.499146      5.719675
  H      19.588634     31.527332      5.763997
  H      18.961078     34.256643      5.757554
  H      17.108384     36.266979      5.695029
  H      16.184194     38.877913      5.771044
  N       9.560218     30.365895     11.899987
  C      10.441523     29.332750     11.709935
  N       9.876105     28.121656     11.453481
  C       8.519368     27.832685     11.343676
  C       7.678118     28.989373     11.458763
  C       8.218121     30.191736     11.735495
  O      11.657809     29.485839     11.771175
  O       8.156425     26.680155     11.162560
  C      10.142385     31.644224     12.353940
  C      10.901108     32.403084     11.261215
  C      10.693105     33.849588     11.691816
  C       9.296772     33.814666     12.289298
  O      11.621713     34.193562     12.697277
  O       9.125529     32.478170     12.801516
  C       8.208980     34.172328     11.302495
  O       6.975131     34.448366     11.937654
  P       5.749438     33.388120     12.002893
  O       5.981612     32.290477     11.022534
  O       5.914541     32.713527     13.467919
  O       4.505150     34.207009     11.982186
  H      10.522626     27.353419     11.326863
  H       6.611615     28.880096     11.329385
  H       7.609202     31.083981     11.823370
  H      10.827307     31.386857     13.169541
  H      10.757817     34.536973     10.843539
  H       9.244807     34.495061     13.142886
  H      12.432160     33.707732     12.486133
  H       8.505478     35.084196     10.779086
  H       8.080925     33.373017     10.569387
  H       5.595427     33.303826     14.159469
  O      12.267953     32.103450     11.218739
  H      10.415567     32.228570     10.293990
  H      12.344584     31.142886     11.362752
159
Coordinates from ORCA-job /data/Seafile/ump/al_surf/frames/frame15/ump_al_frame15 E -13365.190556144094
  Si      3.453525     33.843561      7.823983
  Si      3.474188     30.741088      7.827447
  O       2.206797     34.665143      8.470673
  O       2.206063     29.948362      8.473010
  O       3.462337     32.293490      8.348980
  O       3.432182     33.851230      6.184657
  O       3.438581     30.800384      6.191899
  Si      6.136434     26.084369      7.694790
  Si      8.894499     24.509510      7.696708
  O       4.948524     25.214377      8.394764
  O       7.538113     25.344118      8.058462
  O       8.765980     23.050279      8.418173
  O       5.945937     26.273327      6.079524
  O       9.054141     24.352537      6.082572
  Si      6.119285     29.172306      7.689710
  Si      6.103833     35.406168      7.683118
  Si      8.854801     33.820758      7.659678
  Si      8.861089     30.739723      7.689516
  O       4.858147     30.004719      8.314695
  O       4.823471     34.602640      8.302068
  O       7.464389     34.607080      8.046690
  O       7.500468     29.937399      8.085310
  O       6.152258     27.633291      8.239186
  O       8.753492     32.269542      8.236847
  O       5.904724     29.157680      6.067223
  O       5.907933     35.555123      6.060999
  O       8.957423     33.717321      6.023844
  O       9.022432     30.808790      6.061372
  Si      6.148972     38.496334      7.746503
  Si      8.854231     40.092071      7.755822
  O       4.922617     39.337198      8.422266
  O       7.548453     39.215744      8.206256
  O       6.176348     36.935724      8.264821
  O       8.636552     41.583654      8.380763
  O       6.064560     38.508682      6.115414
  O       9.001781     40.092377      6.121328
  Si     11.538504     26.091817      7.724100
  Si     14.191663     24.532735      7.816800
  O      10.184804     25.360806      8.268785
  O      12.883091     25.386233      8.324600
  O      14.010477     23.029356      8.412712
  O      11.534960     25.931490      6.093850
  O      14.192787     24.555417      6.178020
  Si     11.533401     29.245571      7.744652
  Al     11.613761     35.383172      7.754754
  Si     14.268336     33.799192      7.808164
  Si     14.207992     30.742864      7.755874
  O      10.168875     29.959251      8.308496
  O      10.111450     34.604440      8.260672
  O      13.055891     34.619294      8.458705
  O      12.882076     29.960088      8.333819
  O      11.503470     27.667797      8.149727
  O      14.361261     32.241579      8.366974
  O      11.521954     29.421651      6.115394
  O      11.817156     35.101438      6.017856
  O      14.059202     33.673134      6.181125
  O      14.013193     30.853020      6.131689
  Si     11.597799     38.645960      7.752245
  Si     14.332184     40.080994      7.822784
  O      10.244565     39.421846      8.295775
  O      12.944293     39.394600      8.351958
  O      11.587992     37.100661      8.145477
  O      14.542963     41.584740      8.420652
  O      11.683693     38.892931      6.121765
  O      14.344355     40.043471      6.184210
  Si     16.905689     26.029506      7.835608
  O      15.553744     25.261847      8.354515
  O      18.188983     25.263773      8.480406
  O      16.877331     25.987707      6.199670
  Si     16.917739     29.113838      7.735656
  Si     17.033421     35.352336      7.725201
  Si     19.684544     33.775033      7.796377
  Si     19.578751     30.669912      7.813067
  O      15.522539     29.855524      8.126670
  O      15.720261     34.497049      8.138404
  O      18.358037     34.588677      8.314647
  O      18.183883     29.962870      8.320000
  O      16.875729     27.593076      8.333927
  O      19.628391     32.223387      8.327993
  O      17.070193     28.965869      6.112267
  O      17.224085     35.397669      6.097498
  O      19.663538     33.726084      6.159600
  O      19.570895     30.650705      6.174826
  Si     16.972496     38.446436      7.798919
  O      15.635276     39.221612      8.337508
  O      18.350484     39.071662      8.403093
  O      16.933992     36.880607      8.295748
  O      16.960250     38.451827      6.160492
  O      20.790648     29.782656      8.439474
  O      21.064288     34.406461      8.389939
  H       4.074657     24.986772      8.036591
  H       1.410409     29.602015      8.036749
  H       1.410409     35.007985      8.036749
  H       4.074657     39.623228      8.036591
  H       8.948181     22.173255      8.038302
  H       8.948181     42.436745      8.038302
  H      14.277762     22.173204      8.038282
  H      14.277762     42.436796      8.038282
  H      18.960557     24.876228      8.036406
  H      18.960557     39.733772      8.036406
  H      21.624717     29.491420      8.036583
  H      21.624717     35.118580      8.036583
  H      13.225278     34.157507      5.926487
  H      11.044144     34.708458      5.600297
  H       8.980681     32.806681      5.694304
  H       9.826092     30.374261      5.730542
  H      12.303872     29.888457      5.773802
  H      14.001971     31.784874      5.836519
  H      13.508112     39.722261      5.808394
  H      10.871898     39.254829      5.738369
  H       8.204097     39.918384      5.610544
  H       5.977495     37.628430      5.720848
  H       5.194261     35.016166      5.691583
  H       3.421333     32.971376      5.782190
  H       4.120913     30.263165      5.762429
  H       5.939266     28.272569      5.673607
  H       6.076548     25.517695      5.499878
  H       9.824143     24.813914      5.718716
  H      12.356162     25.578899      5.721427
  H      14.965175     24.985244      5.783988
  H      17.009910     26.847793      5.774938
  H      17.776323     29.499075      5.720601
  H      19.587183     31.525465      5.762184
  H      18.961023     34.258121      5.756849
  H      17.108699     36.269035      5.695234
  H      16.184626     38.879085      5.770296
  N       9.577129     30.375390     11.896427
  C      10.465856     29.349485     11.702060
  N       9.909332     28.136736     11.435869
  C       8.554578     27.839101     11.322376
  C       7.705117     28.988835     11.444607
  C       8.236513     30.193097     11.729763
  O      11.680928     29.511399     11.768576
  O       8.200005     26.685322     11.133033
  C      10.150407     31.656859     12.353498
  C      10.908384     32.420795     11.264036
  C      10.687807     33.865988     11.693086
  C       9.289979     33.821714     12.285625
  O      11.610270     34.217182     12.701834
  O       9.127063     32.484129     12.799085
  C       8.202609     34.169551     11.294990
  O       6.965690     34.445558     11.925368
  P       5.748147     33.376111     12.002936
  O       5.983133     32.277361     11.024812
  O       5.925040     32.707729     13.468195
  O       4.498582     34.186210     11.986332
  H      10.560618     27.373381     11.304390
  H       6.639511     28.872603     11.314096
  H       7.620947     31.080087     11.822687
  H      10.834674     31.403415     13.170849
  H      10.750647     34.554048     10.845191
  H       9.229633     34.502928     13.138020
  H      12.424968     33.737401     12.493147
  H       8.496468     35.079503     10.766975
  H       8.080002     33.365247     10.566501
  H       5.606607     33.296736     14.161132
  O      12.277760     32.131151     11.229232
  H      10.429944     32.243705     10.293680
  H      12.360447     31.171097     11.374801
159
Coordinates from ORCA-job /data/Seafile/ump/al_surf/frames/frame15/ump_al_frame15 E -13365.190576726874
  Si      3.453254     33.843863      7.824203
  Si      3.474165     30.741390      7.827823
  O       2.207212     34.666557      8.470845
  O       2.206565     29.947513      8.472826
  O       3.461359     32.293815      8.349518
  O       3.431278     33.851007      6.184986
  O       3.438980     30.800933      6.192116
  Si      6.136483     26.085766      7.698754
  Si      8.893325     24.510255      7.698789
  O       4.944217     25.222593      8.399494
  O       7.537138     25.343928      8.064511
  O       8.767092     23.050298      8.418479
  O       5.947374     26.267672      6.082181
  O       9.048371     24.356926      6.083588
  Si      6.119797     29.173520      7.691276
  Si      6.104013     35.406291      7.683708
  Si      8.855271     33.821406      7.660082
  Si      8.862002     30.740447      7.689394
  O       4.858603     30.006135      8.315852
  O       4.823768     34.602250      8.302215
  O       7.464751     34.607458      8.047114
  O       7.501480     29.938430      8.085961
  O       6.153467     27.635141      8.241851
  O       8.754444     32.270097      8.237287
  O       5.904615     29.158035      6.068654
  O       5.908515     35.555975      6.061691
  O       8.958582     33.718369      6.023982
  O       9.023632     30.809512      6.061096
  Si      6.149352     38.496396      7.748041
  Si      8.854023     40.091680      7.757041
  O       4.922191     39.336752      8.422824
  O       7.548445     39.215677      8.209213
  O       6.176291     36.935688      8.265936
  O       8.637702     41.583615      8.381669
  O       6.067109     38.509357      6.116734
  O       8.999484     40.091289      6.122340
  Si     11.537919     26.091750      7.724384
  Si     14.191038     24.532725      7.816382
  O      10.184273     25.360790      8.269616
  O      12.882326     25.385675      8.324502
  O      14.010408     23.029400      8.412516
  O      11.533505     25.931393      6.094245
  O      14.191505     24.554906      6.177553
  Si     11.534166     29.245603      7.745147
  Al     11.613812     35.383546      7.755539
  Si     14.268231     33.799049      7.808751
  Si     14.208494     30.742732      7.755664
  O      10.169923     29.960262      8.308249
  O      10.111222     34.605322      8.261552
  O      13.055600     34.619007      8.459439
  O      12.883232     29.959306      8.333939
  O      11.503234     27.667713      8.150218
  O      14.361725     32.241376      8.367073
  O      11.522907     29.421241      6.115968
  O      11.817084     35.101491      6.018593
  O      14.058981     33.673301      6.181604
  O      14.013935     30.853092      6.131473
  Si     11.597918     38.646364      7.752835
  Si     14.332356     40.081229      7.822557
  O      10.244571     39.421618      8.296822
  O      12.944584     39.395203      8.352110
  O      11.588818     37.101128      8.145946
  O      14.543743     41.584746      8.420178
  O      11.682863     38.893518      6.122391
  O      14.344105     40.043554      6.183923
  Si     16.905559     26.029228      7.834935
  O      15.553035     25.262433      8.353770
  O      18.187900     25.262135      8.479853
  O      16.877605     25.987462      6.198954
  Si     16.918206     29.113727      7.734751
  Si     17.033125     35.352391      7.725108
  Si     19.684428     33.775267      7.796703
  Si     19.578985     30.670187      7.812942
  O      15.523038     29.855286      8.126059
  O      15.719818     34.497605      8.138580
  O      18.357512     34.588372      8.314453
  O      18.184076     29.963000      8.319441
  O      16.876517     27.592908      8.332965
  O      19.628618     32.223541      8.328213
  O      17.070490     28.966130      6.111449
  O      17.223586     35.397518      6.097309
  O      19.663819     33.726255      6.159947
  O      19.571493     30.651729      6.174689
  Si     16.972698     38.446385      7.798543
  O      15.635359     39.221475      8.336915
  O      18.350422     39.071711      8.403075
  O      16.934243     36.880782      8.295603
  O      16.960564     38.451331      6.160073
  O      20.790536     29.782472      8.439308
  O      21.063692     34.407285      8.390629
  H       4.074657     24.986772      8.036591
  H       1.410409     29.602015      8.036749
  H       1.410409     35.007985      8.036749
  H       4.074657     39.623228      8.036591
  H       8.948181     22.173255      8.038302
  H       8.948181     42.436745      8.038302
  H      14.277762     22.173204      8.038282
  H      14.277762     42.436796      8.038282
  H      18.960557     24.876228      8.036406
  H      18.960557     39.733772      8.036406
  H      21.624717     29.491420      8.036583
  H      21.624717     35.118580      8.036583
  H      13.225042     34.157437      5.926841
  H      11.043975     34.707998      5.601615
  H       8.981557     32.807892      5.694086
  H       9.827207     30.374837      5.730274
  H      12.304828     29.887926      5.774211
  H      14.002129     31.784853      5.836185
  H      13.507808     39.722519      5.808155
  H      10.870946     39.255195      5.739088
  H       8.202413     39.909141      5.613314
  H       5.979273     37.629436      5.721619
  H       5.195611     35.016605      5.691484
  H       3.421181     32.971114      5.782615
  H       4.120934     30.263586      5.762340
  H       5.942036     28.273173      5.674983
  H       6.114929     25.517346      5.505031
  H       9.819399     24.815426      5.718546
  H      12.354461     25.578519      5.721652
  H      14.963515     24.984746      5.782935
  H      17.010340     26.847476      5.774184
  H      17.776587     29.499445      5.719890
  H      19.587446     31.526556      5.762183
  H      18.961348     34.258213      5.757010
  H      17.108707     36.268914      5.694957
  H      16.185389     38.878949      5.769447
  N       9.564409     30.370175     11.892431
  C      10.447267     29.340002     11.693665
  N       9.883522     28.129734     11.432204
  C       8.526770     27.837670     11.328474
  C       7.683353     28.991687     11.452655
  C       8.222051     30.193805     11.733379
  O      11.663408     29.495851     11.752633
  O       8.165837     26.684977     11.144822
  C      10.145445     31.647806     12.350333
  C      10.904224     32.410497     11.260262
  C      10.691551     33.855705     11.692959
  C       9.294703     33.816623     12.288028
  O      11.617625     34.200113     12.700735
  O       9.127936     32.479431     12.800980
  C       8.206777     34.169568     11.299610
  O       6.972218     34.448587     11.933188
  P       5.749392     33.384988     12.007139
  O       5.979300     32.287232     11.026684
  O       5.922136     32.712934     13.471507
  O       4.503812     34.201213     11.991767
  H      10.530595     27.363303     11.297711
  H       6.616524     28.880209     11.328089
  H       7.611482     31.083923     11.828360
  H      10.830948     31.389422     13.165125
  H      10.756535     34.545243     10.846404
  H       9.238139     34.497562     13.140860
  H      12.429426     33.716077     12.490594
  H       8.503451     35.079371     10.772779
  H       8.079791     33.367557     10.569340
  H       5.605506     33.302421     14.164869
  O      12.272034     32.114660     11.221041
  H      10.422388     32.237501     10.291001
  H      12.350374     31.153306     11.360084
159
Coordinates from ORCA-job /data/Seafile/ump/al_surf/frames/frame15/ump_al_frame15 E -13365.190585736455
  Si      3.452946     33.843858      7.824579
  Si      3.474138     30.741316      7.828041
  O       2.207046     34.666738      8.471432
  O       2.206689     29.947132      8.472921
  O       3.461143     32.293774      8.349909
  O       3.430293     33.850725      6.185443
  O       3.439173     30.800809      6.192234
  Si      6.136250     26.086261      7.698945
  Si      8.893189     24.510194      7.698019
  O       4.943970     25.223098      8.399694
  O       7.537212     25.344390      8.063347
  O       8.766168     23.050454      8.417738
  O       5.946717     26.267780      6.082259
  O       9.048608     24.357105      6.082709
  Si      6.119817     29.173915      7.691760
  Si      6.103970     35.406204      7.684036
  Si      8.855191     33.821178      7.660231
  Si      8.862209     30.740468      7.689596
  O       4.858731     30.006445      8.316704
  O       4.823741     34.602083      8.302428
  O       7.464816     34.607459      8.047109
  O       7.501917     29.938291      8.086344
  O       6.153303     27.635539      8.242217
  O       8.754889     32.269991      8.238052
  O       5.904268     29.158495      6.069020
  O       5.908600     35.556184      6.062090
  O       8.958892     33.717808      6.023978
  O       9.024140     30.809680      6.061132
  Si      6.149373     38.496321      7.748300
  Si      8.854010     40.091602      7.757063
  O       4.922320     39.337065      8.422801
  O       7.548607     39.215345      8.209515
  O       6.176226     36.935643      8.266311
  O       8.637881     41.583598      8.381794
  O       6.067078     38.508995      6.116964
  O       8.999485     40.091207      6.122376
  Si     11.537843     26.091607      7.724651
  Si     14.190873     24.532863      7.816489
  O      10.184055     25.360294      8.269263
  O      12.882066     25.385409      8.324981
  O      14.010707     23.029491      8.412465
  O      11.533865     25.931423      6.094535
  O      14.190680     24.555355      6.177589
  Si     11.534363     29.245404      7.745537
  Al     11.613431     35.383641      7.755638
  Si     14.267681     33.799119      7.809123
  Si     14.208511     30.742710      7.755586
  O      10.170385     29.960703      8.308141
  O      10.110771     34.605384      8.261634
  O      13.054986     34.618972      8.459906
  O      12.883714     29.958568      8.334099
  O      11.502762     27.667495      8.150786
  O      14.361593     32.241333      8.367060
  O      11.523281     29.420709      6.116449
  O      11.816745     35.101175      6.018711
  O      14.058482     33.673344      6.181878
  O      14.014082     30.853080      6.131386
  Si     11.597910     38.646516      7.752935
  Si     14.332340     40.081391      7.822394
  O      10.244632     39.421744      8.297057
  O      12.944837     39.395170      8.352057
  O      11.588669     37.101359      8.145906
  O      14.543690     41.584713      8.420116
  O      11.682469     38.893859      6.122526
  O      14.343829     40.043838      6.183692
  Si     16.905573     26.029364      7.834831
  O      15.552913     25.262739      8.353780
  O      18.187901     25.262311      8.479752
  O      16.877383     25.987390      6.198819
  Si     16.918295     29.113948      7.734322
  Si     17.032639     35.352439      7.724975
  Si     19.684203     33.775532      7.797096
  Si     19.579122     30.670441      7.812905
  O      15.523078     29.855302      8.125944
  O      15.719077     34.498198      8.138498
  O      18.356722     34.587923      8.314252
  O      18.184033     29.963376      8.319157
  O      16.876741     27.593119      8.332529
  O      19.628971     32.223683      8.328407
  O      17.070359     28.966614      6.111082
  O      17.223134     35.397482      6.097110
  O      19.664090     33.726410      6.160368
  O      19.571786     30.652514      6.174645
  Si     16.972795     38.446388      7.798261
  O      15.635406     39.221492      8.336442
  O      18.350305     39.071825      8.403127
  O      16.934380     36.880956      8.295439
  O      16.960760     38.451000      6.159746
  O      20.790371     29.782238      8.439148
  O      21.062757     34.408484      8.391612
  H       4.074657     24.986772      8.036591
  H       1.410409     29.602015      8.036749
  H       1.410409     35.007985      8.036749
  H       4.074657     39.623228      8.036591
  H       8.948181     22.173255      8.038302
  H       8.948181     42.436745      8.038302
  H      14.277762     22.173204      8.038282
  H      14.277762     42.436796      8.038282
  H      18.960557     24.876228      8.036406
  H      18.960557     39.733772      8.036406
  H      21.624717     29.491420      8.036583
  H      21.624717     35.118580      8.036583
  H      13.224555     34.157250      5.926871
  H      11.043524     34.706942      5.602561
  H       8.982131     32.807262      5.694244
  H       9.827338     30.374444      5.730179
  H      12.305657     29.886441      5.774458
  H      14.001708     31.784788      5.836079
  H      13.507479     39.722881      5.807990
  H      10.870544     39.255612      5.739284
  H       8.202716     39.908334      5.613132
  H       5.979533     37.628955      5.722030
  H       5.196138     35.016530      5.691494
  H       3.420448     32.970819      5.783086
  H       4.121391     30.263822      5.762403
  H       5.942608     28.273628      5.675447
  H       6.116780     25.517703      5.505505
  H       9.819391     24.816095      5.717725
  H      12.355082     25.578276      5.722627
  H      14.962722     24.984967      5.782789
  H      17.010481     26.847207      5.773806
  H      17.776417     29.500047      5.719606
  H      19.587480     31.527403      5.762257
  H      18.961872     34.258532      5.757197
  H      17.108620     36.268905      5.694690
  H      16.185917     38.878938      5.768846
  N       9.562126     30.371118     11.890670
  C      10.443888     29.339929     11.691314
  N       9.878589     28.130365     11.430239
  C       8.521467     27.839348     11.328265
  C       7.679272     28.994236     11.452773
  C       8.219460     30.195904     11.732761
  O      11.660368     29.493806     11.749217
  O       8.159393     26.686917     11.145252
  C      10.144223     31.647794     12.349502
  C      10.904205     32.410471     11.260078
  C      10.693642     33.855357     11.694509
  C       9.296218     33.817622     12.288187
  O      11.619323     34.196637     12.703583
  O       9.127725     32.480433     12.800364
  C       8.209706     34.172505     11.298833
  O       6.975093     34.452598     11.931571
  P       5.750643     33.390866     12.003584
  O       5.980341     32.292240     11.024006
  O       5.919734     32.719534     13.468875
  O       4.506412     34.209148     11.985611
  H      10.524779     27.363232     11.295009
  H       6.612233     28.883785     11.329025
  H       7.609909     31.086765     11.827809
  H      10.829373     31.388440     13.164312
  H      10.760924     34.545885     10.848929
  H       9.239321     34.498312     13.141164
  H      12.430093     33.710548     12.494406
  H       8.508458     35.082368     10.773159
  H       8.082218     33.371752     10.567302
  H       5.602149     33.309914     14.161024
  O      12.271479     32.112423     11.220618
  H      10.422255     32.238848     10.290761
  H      12.347637     31.150628     11.357603
159
Coordinates from ORCA-job /data/Seafile/ump/al_surf/frames/frame15/ump_al_frame15 E -13365.190596658729
  Si      3.452264     33.843509      7.825507
  Si      3.474084     30.740966      7.828769
  O       2.205326     34.664615      8.472936
  O       2.205904     29.948017      8.473635
  O       3.462395     32.293448      8.351032
  O       3.428450     33.849952      6.186539
  O       3.439328     30.800015      6.192834
  Si      6.135945     26.086636      7.697999
  Si      8.894017     24.509874      7.696119
  O       4.944671     25.222035      8.398594
  O       7.537944     25.345013      8.058631
  O       8.765832     23.050878      8.416721
  O       5.944253     26.268924      6.081410
  O       9.051920     24.355715      6.080941
  Si      6.119437     29.174089      7.692197
  Si      6.103383     35.406325      7.684653
  Si      8.854177     33.820594      7.660050
  Si      8.862010     30.740486      7.689535
  O       4.858316     30.005501      8.318626
  O       4.822911     34.602639      8.303079
  O       7.464229     34.607336      8.047129
  O       7.502071     29.937987      8.086393
  O       6.153657     27.635545      8.241998
  O       8.754928     32.269724      8.239122
  O       5.902971     29.159385      6.069258
  O       5.908367     35.556705      6.062825
  O       8.957873     33.716446      6.023507
  O       9.024634     30.809824      6.060865
  Si      6.149474     38.496459      7.748718
  Si      8.854087     40.091527      7.757246
  O       4.922795     39.338220      8.422570
  O       7.549048     39.214726      8.210136
  O       6.175943     36.935846      8.266881
  O       8.638663     41.583564      8.382392
  O       6.066876     38.508714      6.117351
  O       8.999491     40.091577      6.122616
  Si     11.538163     26.091880      7.725543
  Si     14.190845     24.533522      7.816892
  O      10.184039     25.359925      8.268887
  O      12.881982     25.385343      8.326460
  O      14.011313     23.029875      8.411937
  O      11.535590     25.932001      6.095438
  O      14.189289     24.557324      6.177878
  Si     11.534549     29.245520      7.746348
  Al     11.612494     35.383468      7.755121
  Si     14.266524     33.799502      7.809305
  Si     14.208570     30.742952      7.755559
  O      10.170730     29.961688      8.307773
  O      10.109581     34.605252      8.260493
  O      13.053599     34.618773      8.460586
  O      12.884231     29.958113      8.334330
  O      11.502006     27.667586      8.152370
  O      14.361292     32.241612      8.366778
  O      11.523582     29.420009      6.117368
  O      11.815814     35.100090      6.018268
  O      14.057604     33.673428      6.181920
  O      14.014965     30.852773      6.131270
  Si     11.597776     38.646594      7.752780
  Si     14.331996     40.081614      7.822122
  O      10.244745     39.421770      8.297472
  O      12.945211     39.394507      8.351969
  O      11.587724     37.101453      8.144810
  O      14.542774     41.584513      8.420417
  O      11.681758     38.894860      6.122532
  O      14.342932     40.044935      6.183308
  Si     16.905814     26.029998      7.834882
  O      15.553139     25.263294      8.354102
  O      18.188640     25.263855      8.479689
  O      16.876929     25.987661      6.198831
  Si     16.918227     29.114723      7.734106
  Si     17.031769     35.352653      7.724660
  Si     19.683728     33.776044      7.797819
  Si     19.579247     30.670911      7.812961
  O      15.522903     29.855490      8.126658
  O      15.717594     34.499474      8.137883
  O      18.355055     34.586843      8.313890
  O      18.183810     29.964362      8.319130
  O      16.877058     27.593815      8.332159
  O      19.629873     32.223947      8.328762
  O      17.069707     28.968118      6.110951
  O      17.222567     35.397973      6.096727
  O      19.664576     33.726777      6.161147
  O      19.571857     30.653778      6.174705
  Si     16.972925     38.446418      7.797943
  O      15.635264     39.221430      8.335384
  O      18.349701     39.072656      8.403655
  O      16.934929     36.881316      8.295365
  O      16.961566     38.450195      6.159370
  O      20.789879     29.781555      8.438630
  O      21.060737     34.411064      8.393583
  H       4.074657     24.986772      8.036591
  H       1.410409     29.602015      8.036749
  H       1.410409     35.007985      8.036749
  H       4.074657     39.623228      8.036591
  H       8.948181     22.173255      8.038302
  H       8.948181     42.436745      8.038302
  H      14.277762     22.173204      8.038282
  H      14.277762     42.436796      8.038282
  H      18.960557     24.876228      8.036406
  H      18.960557     39.733772      8.036406
  H      21.624717     29.491420      8.036583
  H      21.624717     35.118580      8.036583
  H      13.223523     34.156688      5.926370
  H      11.042404     34.704448      5.603681
  H       8.981447     32.805765      5.694129
  H       9.828029     30.374869      5.730041
  H      12.305936     29.885364      5.774871
  H      14.001658     31.784292      5.835535
  H      13.506560     39.723878      5.807761
  H      10.869948     39.257129      5.739516
  H       8.203170     39.908334      5.612824
  H       5.979936     37.628496      5.722659
  H       5.196831     35.016474      5.691407
  H       3.419146     32.970072      5.784118
  H       4.122329     30.263913      5.763067
  H       5.940992     28.274390      5.675876
  H       6.108897     25.517154      5.505289
  H       9.822672     24.815179      5.716559
  H      12.357370     25.577975      5.725317
  H      14.961586     24.986283      5.782855
  H      17.010584     26.847114      5.773339
  H      17.776035     29.501437      5.719772
  H      19.587035     31.528743      5.762455
  H      18.962821     34.259192      5.757547
  H      17.109101     36.269664      5.694544
  H      16.187678     38.878839      5.767496
  N       9.556154     30.372061     11.887011
  C      10.436628     29.341123     11.680553
  N       9.869669     28.132461     11.419187
  C       8.511966     27.841134     11.325934
  C       7.670517     28.995772     11.457801
  C       8.212599     30.196857     11.736951
  O      11.653401     29.494127     11.732508
  O       8.149095     26.688923     11.143225
  C      10.140405     31.646702     12.348726
  C      10.900100     32.411659     11.260022
  C      10.690685     33.855470     11.698086
  C       9.293336     33.816862     12.291733
  O      11.616495     34.193443     12.707993
  O       9.126212     32.479608     12.803756
  C       8.206507     34.172010     11.302561
  O       6.972775     34.452637     11.936337
  P       5.746924     33.392523     12.007522
  O       5.974355     32.294311     11.026907
  O       5.915757     32.720141     13.472655
  O       4.504030     34.213009     11.990871
  H      10.514877     27.365668     11.277167
  H       6.602737     28.885586     11.340366
  H       7.603883     31.087594     11.837425
  H      10.826640     31.384466     13.161737
  H      10.758924     34.547933     10.854122
  H       9.235557     34.497275     13.144807
  H      12.426807     33.706888     12.498451
  H       8.506122     35.081811     10.777068
  H       8.077828     33.372281     10.570100
  H       5.598315     33.310538     14.164829
  O      12.267160     32.112848     11.218406
  H      10.417482     32.242079     10.290916
  H      12.341770     31.149901     11.348476
159
Coordinates from ORCA-job /data/Seafile/ump/al_surf/frames/frame15/ump_al_frame15 E -13365.190601817068
  Si      3.451902     33.843312      7.825843
  Si      3.474099     30.740808      7.829246
  O       2.204354     34.663342      8.473682
  O       2.205421     29.948677      8.474004
  O       3.463125     32.293302      8.351568
  O       3.427647     33.849599      6.186974
  O       3.439495     30.799561      6.193348
  Si      6.135691     26.086474      7.696279
  Si      8.894792     24.509525      7.694468
  O       4.946252     25.219242      8.396706
  O       7.538709     25.345686      8.054083
  O       8.764615     23.051050      8.415751
  O       5.942305     26.271081      6.080102
  O       9.055475     24.353765      6.079702
  Si      6.119040     29.173868      7.692256
  Si      6.103080     35.406404      7.684813
  Si      8.853609     33.820152      7.660282
  Si      8.861547     30.740433      7.689988
  O       4.858031     30.004799      8.319523
  O       4.822391     34.603029      8.303197
  O       7.463930     34.607274      8.047170
  O       7.501936     29.937352      8.086513
  O       6.153187     27.634993      8.241191
  O       8.754416     32.269549      8.240177
  O       5.902366     29.160124      6.069173
  O       5.908228     35.556986      6.063012
  O       8.957317     33.715245      6.023712
  O       9.024316     30.810166      6.061278
  Si      6.149464     38.496579      7.748563
  Si      8.854310     40.091585      7.757055
  O       4.923182     39.339020      8.422363
  O       7.549338     39.214472      8.209698
  O       6.175915     36.935999      8.267041
  O       8.638686     41.583560      8.382480
  O       6.066338     38.508437      6.117271
  O       9.000096     40.092006      6.122510
  Si     11.538580     26.092252      7.726293
  Si     14.190866     24.533923      7.817669
  O      10.184181     25.359726      8.268572
  O      12.882107     25.385525      8.327866
  O      14.011448     23.029962      8.411854
  O      11.537387     25.932792      6.096097
  O      14.188573     24.558697      6.178609
  Si     11.534426     29.245746      7.746867
  Al     11.611931     35.383257      7.754763
  Si     14.265973     33.799605      7.808958
  Si     14.208346     30.743126      7.755737
  O      10.170677     29.962099      8.307745
  O      10.109055     34.604987      8.260295
  O      13.053054     34.618686      8.460409
  O      12.884201     29.958119      8.334743
  O      11.501635     27.667853      8.153375
  O      14.360955     32.241881      8.366668
  O      11.523562     29.419722      6.117848
  O      11.814829     35.099409      6.017844
  O      14.056960     33.673240      6.181605
  O      14.014844     30.852687      6.131415
  Si     11.597765     38.646533      7.752231
  Si     14.331869     40.081598      7.821764
  O      10.244955     39.421795      8.297344
  O      12.945397     39.393902      8.351590
  O      11.587177     37.101388      8.143901
  O      14.542189     41.584359      8.420456
  O      11.681617     38.895291      6.122102
  O      14.342664     40.045440      6.182891
  Si     16.905842     26.030301      7.835171
  O      15.553464     25.263311      8.354748
  O      18.189205     25.264915      8.479734
  O      16.876222     25.987569      6.199076
  Si     16.918000     29.115093      7.734296
  Si     17.031520     35.352552      7.724342
  Si     19.683701     33.776069      7.798042
  Si     19.579138     30.670913      7.813067
  O      15.522624     29.855634      8.127169
  O      15.716906     34.499944      8.137151
  O      18.354449     34.586164      8.313584
  O      18.183628     29.964677      8.319419
  O      16.876953     27.594141      8.332243
  O      19.630352     32.223887      8.328951
  O      17.069332     28.968725      6.111184
  O      17.222663     35.398205      6.096428
  O      19.665033     33.726786      6.161355
  O      19.571531     30.654143      6.174850
  Si     16.973098     38.446237      7.797794
  O      15.635289     39.221348      8.334717
  O      18.349631     39.072779      8.403803
  O      16.935217     36.881204      8.295270
  O      16.962056     38.449492      6.159207
  O      20.789475     29.780907      8.438290
  O      21.060031     34.411983      8.394360
  H       4.074657     24.986772      8.036591
  H       1.410409     29.602015      8.036749
  H       1.410409     35.007985      8.036749
  H       4.074657     39.623228      8.036591
  H       8.948181     22.173255      8.038302
  H       8.948181     42.436745      8.038302
  H      14.277762     22.173204      8.038282
  H      14.277762     42.436796      8.038282
  H      18.960557     24.876228      8.036406
  H      18.960557     39.733772      8.036406
  H      21.624717     29.491420      8.036583
  H      21.624717     35.118580      8.036583
  H      13.222702     34.156142      5.926077
  H      11.041165     34.703313      5.604119
  H       8.981364     32.804316      5.694917
  H       9.827411     30.374720      5.730378
  H      12.306112     29.884328      5.774845
  H      14.001238     31.784162      5.835546
  H      13.506297     39.724402      5.807327
  H      10.869793     39.257614      5.739157
  H       8.203727     39.910963      5.612057
  H       5.979735     37.628015      5.722916
  H       5.197031     35.016674      5.691132
  H       3.418469     32.969753      5.784482
  H       4.122963     30.263858      5.763753
  H       5.939083     28.275092      5.675658
  H       6.095987     25.517366      5.503499
  H       9.825871     24.814401      5.716031
  H      12.359470     25.577975      5.727194
  H      14.961091     24.987226      5.783498
  H      17.010240     26.846701      5.773112
  H      17.775555     29.502183      5.719998
  H      19.586901     31.529182      5.762744
  H      18.963530     34.259360      5.757523
  H      17.109630     36.270083      5.694475
  H      16.188673     38.878536      5.766831
  N       9.554886     30.374397     11.884809
  C      10.435478     29.344155     11.675634
  N       9.868741     28.135522     11.413362
  C       8.511042     27.843567     11.322215
  C       7.669209     28.997593     11.457154
  C       8.211176     30.198580     11.736804
  O      11.652249     29.497555     11.726007
  O       8.148564     26.691364     11.138709
  C      10.139299     31.648367     12.348305
  C      10.899403     32.414733     11.260642
  C      10.689785     33.857901     11.700556
  C       9.291913     33.818379     12.292912
  O      11.614503     34.194272     12.711993
  O       9.125393     32.480941     12.804452
  C       8.205740     34.173550     11.302969
  O       6.971921     34.454570     11.936062
  P       5.745474     33.395154     12.006529
  O       5.973519     32.296158     11.026936
  O       5.912957     32.723798     13.472560
  O       4.502811     34.216173     11.988265
  H      10.514071     27.369336     11.268887
  H       6.601308     28.887158     11.341023
  H       7.602267     31.088934     11.839489
  H      10.825365     31.384719     13.161029
  H      10.758798     34.551491     10.857577
  H       9.232964     34.498354     13.146248
  H      12.425025     33.707897     12.502915
  H       8.505854     35.083095     10.777313
  H       8.077016     33.373707     10.570645
  H       5.593026     33.314580     14.163270
  O      12.266529     32.116149     11.218952
  H      10.416920     32.246041     10.291210
  H      12.340718     31.152836     11.347017
159
Coordinates from ORCA-job /data/Seafile/ump/al_surf/frames/frame15/ump_al_frame15 E -13365.190605855474
  Si      3.451535     33.843142      7.825909
  Si      3.474143     30.740746      7.829681
  O       2.203255     34.661685      8.474355
  O       2.204807     29.949722      8.474244
  O       3.464006     32.293227      8.351885
  O       3.426993     33.849500      6.187146
  O       3.439703     30.799154      6.193896
  Si      6.135417     26.086065      7.694423
  Si      8.895640     24.509215      7.693201
  O       4.947860     25.216316      8.394815
  O       7.539569     25.346523      8.049609
  O       8.763359     23.051133      8.414937
  O       5.940348     26.272892      6.078679
  O       9.059128     24.351650      6.078934
  Si      6.118518     29.173396      7.692204
  Si      6.102767     35.406602      7.684991
  Si      8.853014     33.819845      7.661190
  Si      8.860850     30.740380      7.690598
  O       4.857643     30.003959      8.320095
  O       4.821680     34.603657      8.303009
  O       7.463452     34.607168      8.047673
  O       7.501561     29.936578      8.086487
  O       6.152501     27.634203      8.240230
  O       8.753433     32.269353      8.241337
  O       5.901982     29.160769      6.068966
  O       5.908370     35.557438      6.063143
  O       8.957008     33.714463      6.024683
  O       9.023594     30.810948      6.061941
  Si      6.149471     38.496784      7.748558
  Si      8.854629     40.091686      7.757311
  O       4.923352     39.339508      8.422372
  O       7.549442     39.214628      8.209498
  O       6.176094     36.936201      8.267346
  O       8.639188     41.583599      8.383059
  O       6.066090     38.508360      6.117355
  O       9.000654     40.092634      6.122836
  Si     11.539137     26.092619      7.727164
  Si     14.190866     24.534275      7.818853
  O      10.184373     25.359767      8.268529
  O      12.882124     25.385419      8.329665
  O      14.012003     23.029947      8.412205
  O      11.539556     25.933637      6.096843
  O      14.187861     24.559966      6.179747
  Si     11.534211     29.245906      7.747520
  Al     11.611305     35.382891      7.755017
  Si     14.265619     33.799497      7.808600
  Si     14.208134     30.743156      7.756086
  O      10.170356     29.962157      8.307739
  O      10.108478     34.604770      8.261376
  O      13.052558     34.618149      8.460176
  O      12.883972     29.958413      8.335315
  O      11.501646     27.668058      8.154509
  O      14.360865     32.242052      8.366682
  O      11.523330     29.419214      6.118377
  O      11.813172     35.098890      6.017852
  O      14.056365     33.673079      6.181327
  O      14.014775     30.852513      6.131730
  Si     11.597786     38.646288      7.751951
  Si     14.331725     40.081487      7.821591
  O      10.245011     39.421309      8.297546
  O      12.945399     39.393391      8.351426
  O      11.587100     37.101120      8.143576
  O      14.541627     41.584233      8.420537
  O      11.681500     38.895347      6.121934
  O      14.342545     40.045737      6.182690
  Si     16.905764     26.030470      7.835532
  O      15.553697     25.263421      8.355622
  O      18.189506     25.265483      8.479732
  O      16.875310     25.987187      6.199379
  Si     16.917799     29.115342      7.734655
  Si     17.031446     35.352336      7.724419
  Si     19.683812     33.775925      7.798425
  Si     19.578949     30.670770      7.813283
  O      15.522321     29.855539      8.127810
  O      15.716191     34.500489      8.136712
  O      18.353964     34.585255      8.313627
  O      18.183475     29.964842      8.319920
  O      16.877016     27.594315      8.332403
  O      19.630965     32.223683      8.329334
  O      17.069130     28.969232      6.111565
  O      17.222966     35.398461      6.096576
  O      19.665582     33.726620      6.161672
  O      19.571003     30.654487      6.175114
  Si     16.973267     38.445960      7.798091
  O      15.635245     39.221179      8.334345
  O      18.349480     39.073145      8.404215
  O      16.935655     36.880909      8.295658
  O      16.962496     38.448461      6.159495
  O      20.788948     29.779938      8.437882
  O      21.059444     34.412864      8.395191
  H       4.074657     24.986772      8.036591
  H       1.410409     29.602015      8.036749
  H       1.410409     35.007985      8.036749
  H       4.074657     39.623228      8.036591
  H       8.948181     22.173255      8.038302
  H       8.948181     42.436745      8.038302
  H      14.277762     22.173204      8.038282
  H      14.277762     42.436796      8.038282
  H      18.960557     24.876228      8.036406
  H      18.960557     39.733772      8.036406
  H      21.624717     29.491420      8.036583
  H      21.624717     35.118580      8.036583
  H      13.221919     34.155695      5.926019
  H      11.039243     34.702234      5.605145
  H       8.981142     32.803269      5.696439
  H       9.826451     30.375262      5.730858
  H      12.305508     29.883801      5.774652
  H      14.001319     31.783926      5.835634
  H      13.506229     39.724810      5.806969
  H      10.869665     39.257668      5.739036
  H       8.204121     39.913761      5.611931
  H       5.979544     37.627795      5.723274
  H       5.197586     35.017136      5.690562
  H       3.417796     32.969763      5.784455
  H       4.123835     30.264058      5.764533
  H       5.936746     28.275755      5.675168
  H       6.083411     25.517462      5.501561
  H       9.829085     24.813506      5.715905
  H      12.361696     25.577376      5.729251
  H      14.960711     24.987800      5.784489
  H      17.009791     26.845905      5.772805
  H      17.775056     29.502982      5.720260
  H      19.586727     31.529671      5.763315
  H      18.964326     34.259295      5.757590
  H      17.110017     36.270542      5.695001
  H      16.189794     38.878170      5.766581
  N       9.552426     30.375085     11.883464
  C      10.433286     29.346060     11.669856
  N       9.867039     28.137234     11.406893
  C       8.509410     27.844311     11.318683
  C       7.666881     28.997273     11.458436
  C       8.208465     30.198147     11.739012
  O      11.650047     29.500421     11.717012
  O       8.147495     26.692150     11.133774
  C      10.137064     31.648732     12.348249
  C      10.895891     32.416979     11.260981
  C      10.685628     33.859486     11.702668
  C       9.287880     33.818164     12.295199
  O      11.610189     34.195275     12.714428
  O       9.123265     32.480371     12.806444
  C       8.201145     34.172583     11.305546
  O       6.967552     34.453226     11.939058
  P       5.740894     33.394070     12.009055
  O       5.969592     32.294987     11.029772
  O       5.908333     32.722927     13.475548
  O       4.497927     34.214818     11.990622
  H      10.512783     27.372042     11.259298
  H       6.598749     28.886150     11.345129
  H       7.599209     31.087798     11.845243
  H      10.823682     31.383752     13.160073
  H      10.753667     34.554047     10.860409
  H       9.228344     34.497592     13.148946
  H      12.421373     33.710525     12.504196
  H       8.500417     35.081980     10.779191
  H       8.072274     33.372069     10.573928
  H       5.585636     33.313727     14.164988
  O      12.263184     32.119573     11.217606
  H      10.412278     32.249014     10.291951
  H      12.337793     31.155892     11.342892
159
Coordinates from ORCA-job /data/Seafile/ump/al_surf/frames/frame15/ump_al_frame15 E -13365.190610681957
  Si      3.451318     33.843153      7.825454
  Si      3.474162     30.740873      7.829487
  O       2.202830     34.660948      8.474486
  O       2.204673     29.950222      8.474036
  O       3.464245     32.293301      8.351542
  O       3.426559     33.849837      6.186754
  O       3.439685     30.799085      6.193812
  Si      6.135133     26.085744      7.692790
  Si      8.896051     24.509093      7.692373
  O       4.948887     25.214553      8.393571
  O       7.540133     25.347417      8.046725
  O       8.761811     23.051151      8.414144
  O       5.938826     26.273516      6.077312
  O       9.061440     24.350279      6.078498
  Si      6.118173     29.173094      7.691575
  Si      6.102617     35.406851      7.684648
  Si      8.852845     33.819874      7.661731
  Si      8.860436     30.740410      7.690672
  O       4.857537     30.003796      8.319600
  O       4.821342     34.603973      8.302268
  O       7.463218     34.607297      8.047670
  O       7.501373     29.935924      8.085847
  O       6.151681     27.633724      8.239039
  O       8.752491     32.269305      8.241676
  O       5.901927     29.161220      6.068297
  O       5.908496     35.557985      6.062749
  O       8.957217     33.714523      6.025345
  O       9.023244     30.811727      6.062130
  Si      6.149429     38.496946      7.748273
  Si      8.854793     40.091871      7.757267
  O       4.923397     39.339633      8.422377
  O       7.549395     39.214930      8.209019
  O       6.176233     36.936344      8.267306
  O       8.639051     41.583677      8.383176
  O       6.065925     38.508455      6.117140
  O       9.001007     40.093054      6.122825
  Si     11.539480     26.092775      7.727485
  Si     14.190737     24.534329      7.819543
  O      10.184564     25.359685      8.268396
  O      12.882084     25.385290      8.330703
  O      14.012048     23.029822      8.412533
  O      11.541071     25.934163      6.097076
  O      14.187455     24.560407      6.180414
  Si     11.533945     29.245918      7.747643
  Al     11.610962     35.382691      7.755277
  Si     14.265607     33.799315      7.807964
  Si     14.207816     30.743091      7.755995
  O      10.170013     29.962065      8.307466
  O      10.108297     34.604636      8.262569
  O      13.052562     34.617922      8.459540
  O      12.883691     29.958597      8.335534
  O      11.501700     27.668140      8.154886
  O      14.360787     32.242094      8.366512
  O      11.523013     29.418827      6.118371
  O      11.811981     35.098633      6.017875
  O      14.055878     33.673011      6.180815
  O      14.014103     30.852558      6.131678
  Si     11.597774     38.646219      7.751456
  Si     14.331759     40.081352      7.821232
  O      10.245020     39.421130      8.297410
  O      12.945366     39.393111      8.350976
  O      11.587182     37.100968      8.143179
  O      14.541486     41.584129      8.420369
  O      11.681534     38.895437      6.121518
  O      14.342734     40.045824      6.182365
  Si     16.905543     26.030322      7.835529
  O      15.553721     25.263291      8.356010
  O      18.189414     25.265437      8.479589
  O      16.874632     25.986493      6.199354
  Si     16.917617     29.115281      7.734451
  Si     17.031683     35.352118      7.724216
  Si     19.684100     33.775642      7.798336
  Si     19.578703     30.670506      7.813121
  O      15.522081     29.855404      8.127495
  O      15.716002     34.500640      8.136028
  O      18.354091     34.584887      8.313459
  O      18.183328     29.964663      8.319921
  O      16.876883     27.594224      8.332148
  O      19.631149     32.223424      8.329340
  O      17.069254     28.969173      6.111380
  O      17.223538     35.398590      6.096470
  O      19.666081     33.726398      6.161516
  O      19.570572     30.654582      6.174971
  Si     16.973431     38.445712      7.798080
  O      15.635335     39.221110      8.333934
  O      18.349590     39.073037      8.404188
  O      16.935806     36.880569      8.295702
  O      16.962767     38.447732      6.159477
  O      20.788465     29.779143      8.437457
  O      21.059694     34.412630      8.395162
  H       4.074657     24.986772      8.036591
  H       1.410409     29.602015      8.036749
  H       1.410409     35.007985      8.036749
  H       4.074657     39.623228      8.036591
  H       8.948181     22.173255      8.038302
  H       8.948181     42.436745      8.038302
  H      14.277762     22.173204      8.038282
  H      14.277762     42.436796      8.038282
  H      18.960557     24.876228      8.036406
  H      18.960557     39.733772      8.036406
  H      21.624717     29.491420      8.036583
  H      21.624717     35.118580      8.036583
  H      13.221260     34.155590      5.925937
  H      11.037922     34.701772      5.605601
  H       8.981411     32.803195      5.697366
  H       9.825813     30.375539      5.730993
  H      12.304978     29.883388      5.774221
  H      14.000552     31.784011      5.835665
  H      13.506507     39.724903      5.806453
  H      10.869615     39.257506      5.738564
  H       8.204301     39.915361      5.611791
  H       5.979389     37.627834      5.723150
  H       5.197846     35.017897      5.689681
  H       3.417014     32.970234      5.783803
  H       4.124196     30.264337      5.764588
  H       5.935336     28.276307      5.674151
  H       6.077589     25.517613      5.499772
  H       9.831042     24.813025      5.715862
  H      12.363074     25.576647      5.730290
  H      14.960497     24.987823      5.785038
  H      17.009472     26.844880      5.772285
  H      17.774809     29.503268      5.719900
  H      19.586774     31.529913      5.763480
  H      18.964864     34.259032      5.757331
  H      17.110254     36.270795      5.695210
  H      16.190434     38.877809      5.766271
  N       9.549998     30.374782     11.881456
  C      10.430492     29.346217     11.664903
  N       9.864005     28.137381     11.402256
  C       8.506292     27.844528     11.315986
  C       7.663893     28.997294     11.458221
  C       8.205782     30.197878     11.739229
  O      11.647332     29.500889     11.709563
  O       8.144037     26.692501     11.130868
  C      10.135591     31.647848     12.347085
  C      10.894004     32.416930     11.260225
  C      10.684155     33.859043     11.703315
  C       9.286465     33.817437     12.295877
  O      11.608682     34.193511     12.715613
  O       9.122263     32.479382     12.806760
  C       8.199590     34.171794     11.306412
  O       6.966136     34.452838     11.940186
  P       5.738655     33.394622     12.009295
  O       5.967949     32.295142     11.030681
  O       5.904370     32.723852     13.476367
  O       4.495938     34.215711     11.989645
  H      10.509761     27.372555     11.253106
  H       6.595585     28.886271     11.346450
  H       7.596780     31.087397     11.847622
  H      10.822316     31.381430     13.158333
  H      10.752089     34.554502     10.861791
  H       9.226981     34.496460     13.149965
  H      12.419803     33.708717     12.505178
  H       8.498560     35.080869     10.779415
  H       8.070439     33.370589     10.575595
  H       5.579739     33.315175     14.164500
  O      12.261270     32.119744     11.215783
  H      10.409431     32.250100     10.291333
  H      12.336098     31.155814     11.339391
159
Coordinates from ORCA-job /data/Seafile/ump/al_surf/frames/frame15/ump_al_frame15 E -13365.190611319045
  Si      3.451186     33.843209      7.824941
  Si      3.474234     30.740994      7.829094
  O       2.202769     34.660687      8.474451
  O       2.204877     29.950209      8.473649
  O       3.464072     32.293377      8.350977
  O       3.426293     33.850316      6.186254
  O       3.439669     30.799034      6.193457
  Si      6.134857     26.085609      7.691991
  Si      8.896034     24.509012      7.692092
  O       4.949196     25.213978      8.393226
  O       7.540426     25.348251      8.045509
  O       8.760411     23.051068      8.413654
  O       5.937845     26.273308      6.076603
  O       9.062367     24.349582      6.078406
  Si      6.118123     29.173001      7.691074
  Si      6.102617     35.406989      7.684503
  Si      8.852957     33.820117      7.662594
  Si      8.860435     30.740429      7.690769
  O       4.857705     30.004114      8.318881
  O       4.821169     34.604079      8.301544
  O       7.463076     34.607393      8.048064
  O       7.501455     29.935508      8.085343
  O       6.150962     27.633593      8.238306
  O       8.752098     32.269271      8.241847
  O       5.902305     29.161422      6.067809
  O       5.908922     35.558287      6.062522
  O       8.957987     33.715292      6.026325
  O       9.023338     30.812531      6.062297
  Si      6.149353     38.496975      7.748220
  Si      8.854855     40.091971      7.757470
  O       4.923260     39.339443      8.422523
  O       7.549180     39.215306      8.208878
  O       6.176355     36.936368      8.267400
  O       8.639041     41.583752      8.383352
  O       6.065951     38.508385      6.117105
  O       9.001236     40.093132      6.123019
  Si     11.539588     26.092472      7.727617
  Si     14.190579     24.534172      7.820027
  O      10.184571     25.359457      8.268353
  O      12.881849     25.384771      8.331399
  O      14.012272     23.029630      8.413043
  O      11.541876     25.934082      6.097202
  O      14.187178     24.560347      6.180862
  Si     11.533854     29.245510      7.747854
  Al     11.610733     35.382595      7.756292
  Si     14.265710     33.799044      7.808156
  Si     14.207691     30.742826      7.756009
  O      10.169831     29.961670      8.307416
  O      10.108161     34.604705      8.264535
  O      13.052555     34.617615      8.459595
  O      12.883593     29.958471      8.335700
  O      11.501963     27.667789      8.155141
  O      14.360890     32.241855      8.366742
  O      11.522822     29.418210      6.118497
  O      11.811059     35.098736      6.018678
  O      14.055705     33.673116      6.181069
  O      14.013749     30.852571      6.131730
  Si     11.597767     38.646136      7.751725
  Si     14.331826     40.081268      7.821295
  O      10.244848     39.420830      8.297696
  O      12.945259     39.393217      8.351096
  O      11.587609     37.100843      8.143815
  O      14.541610     41.584152      8.420327
  O      11.681538     38.895165      6.121772
  O      14.342907     40.045595      6.182499
  Si     16.905324     26.030049      7.835486
  O      15.553540     25.263248      8.356211
  O      18.189018     25.264788      8.479463
  O      16.874203     25.985888      6.199306
  Si     16.917637     29.115062      7.734257
  Si     17.031810     35.351970      7.724623
  Si     19.684245     33.775464      7.798507
  Si     19.578588     30.670352      7.813054
  O      15.522046     29.855114      8.127173
  O      15.715909     34.500717      8.136400
  O      18.354241     34.584758      8.313845
  O      18.183284     29.964486      8.319871
  O      16.876928     27.593990      8.331934
  O      19.631258     32.223271      8.329531
  O      17.069545     28.968895      6.111188
  O      17.223652     35.398476      6.096920
  O      19.666162     33.726217      6.161637
  O      19.570350     30.654814      6.174886
  Si     16.973485     38.445589      7.798355
  O      15.635433     39.221186      8.334052
  O      18.349691     39.072959      8.404215
  O      16.935775     36.880380      8.296190
  O      16.962697     38.447191      6.159723
  O      20.788178     29.778580      8.437240
  O      21.059949     34.412412      8.395122
  H       4.074657     24.986772      8.036591
  H       1.410409     29.602015      8.036749
  H       1.410409     35.007985      8.036749
  H       4.074657     39.623228      8.036591
  H       8.948181     22.173255      8.038302
  H       8.948181     42.436745      8.038302
  H      14.277762     22.173204      8.038282
  H      14.277762     42.436796      8.038282
  H      18.960557     24.876228      8.036406
  H      18.960557     39.733772      8.036406
  H      21.624717     29.491420      8.036583
  H      21.624717     35.118580      8.036583
  H      13.221008     34.155653      5.926460
  H      11.037011     34.701490      5.606747
  H       8.982237     32.803986      5.698215
  H       9.825564     30.375865      5.731010
  H      12.304599     29.882893      5.774151
  H      14.000619     31.784067      5.835838
  H      13.506692     39.724882      5.806429
  H      10.869535     39.256991      5.738773
  H       8.204405     39.915613      5.612111
  H       5.979357     37.627732      5.723181
  H       5.198303     35.018426      5.689113
  H       3.416239     32.970825      5.783105
  H       4.124421     30.264540      5.764315
  H       5.934964     28.276594      5.673456
  H       6.076976     25.517627      5.498854
  H       9.831657     24.812953      5.715916
  H      12.363726     25.575745      5.730814
  H      14.960331     24.987541      5.785451
  H      17.009338     26.844080      5.771970
  H      17.774821     29.503249      5.719591
  H      19.586727     31.530313      5.763747
  H      18.964946     34.258827      5.757452
  H      17.110036     36.270724      5.695839
  H      16.190502     38.877490      5.766494
  N       9.547381     30.373428     11.879873
  C      10.427257     29.344802     11.661253
  N       9.860146     28.136073     11.399462
  C       8.502302     27.843613     11.314983
  C       7.660396     28.996569     11.458616
  C       8.202891     30.196891     11.739569
  O      11.644256     29.499107     11.703551
  O       8.139363     26.691730     11.130272
  C      10.133900     31.646177     12.345672
  C      10.891613     32.415699     11.258822
  C      10.682801     33.857613     11.703033
  C       9.285500     33.816219     12.296434
  O      11.608247     34.190989     12.714893
  O       9.120976     32.477754     12.806434
  C       8.198265     34.171587     11.307738
  O       6.965048     34.452554     11.942235
  P       5.737018     33.395013     12.010504
  O       5.966431     32.295579     11.031909
  O       5.901449     32.723991     13.477677
  O       4.494566     34.216362     11.990391
  H      10.505785     27.371295     11.249574
  H       6.591889     28.885809     11.348476
  H       7.594327     31.086534     11.849173
  H      10.820918     31.379010     13.156410
  H      10.750309     34.553643     10.861968
  H       9.226914     34.494616     13.151089
  H      12.419032     33.705990     12.503518
  H       8.497033     35.080935     10.781133
  H       8.068705     33.370631     10.576717
  H       5.576705     33.315718     14.165431
  O      12.258643     32.118202     11.212993
  H      10.405809     32.249946     10.290363
  H      12.333266     31.154014     11.334430
159
Coordinates from ORCA-job /data/Seafile/ump/al_surf/frames/frame15/ump_al_frame15 E -13365.190615775682
  Si      3.451123     33.843304      7.824403
  Si      3.474299     30.741074      7.828297
  O       2.202986     34.660902      8.474245
  O       2.205504     29.949512      8.473042
  O       3.463475     32.293402      8.350134
  O       3.426113     33.850962      6.185700
  O       3.439477     30.799075      6.192648
  Si      6.134606     26.085628      7.691563
  Si      8.895715     24.509017      7.691864
  O       4.949179     25.214006      8.393303
  O       7.540598     25.349128      8.045252
  O       8.758795     23.051002      8.413081
  O       5.937274     26.272567      6.076173
  O       9.062396     24.349483      6.078229
  Si      6.118313     29.173080      7.690280
  Si      6.102731     35.407033      7.684254
  Si      8.853370     33.820462      7.662880
  Si      8.860793     30.740441      7.690382
  O       4.858126     30.004804      8.317662
  O       4.821307     34.603808      8.300837
  O       7.463186     34.607534      8.047988
  O       7.501878     29.935124      8.084512
  O       6.150312     27.633749      8.237629
  O       8.752053     32.269281      8.241327
  O       5.902793     29.161354      6.067091
  O       5.909199     35.558481      6.062244
  O       8.959064     33.716419      6.026693
  O       9.024057     30.812951      6.061972
  Si      6.149265     38.496877      7.748072
  Si      8.854827     40.092016      7.757328
  O       4.923135     39.339152      8.422588
  O       7.549008     39.215506      8.208561
  O       6.176363     36.936290      8.267403
  O       8.638698     41.583771      8.383112
  O       6.065906     38.508185      6.116969
  O       9.001344     40.092979      6.122848
  Si     11.539482     26.092070      7.727477
  Si     14.190352     24.533897      7.820030
  O      10.184541     25.359010      8.268182
  O      12.881609     25.384359      8.331543
  O      14.012028     23.029450      8.413317
  O      11.542075     25.933877      6.097105
  O      14.186957     24.559943      6.180859
  Si     11.533849     29.245066      7.747814
  Al     11.610704     35.382590      7.756971
  Si     14.265952     33.798867      7.808015
  Si     14.207552     30.742609      7.755641
  O      10.169834     29.961418      8.307302
  O      10.108273     34.604770      8.265961
  O      13.052837     34.617620      8.459321
  O      12.883610     29.958221      8.335655
  O      11.502073     27.667416      8.155068
  O      14.360997     32.241622      8.366665
  O      11.522666     29.417762      6.118433
  O      11.810576     35.098708      6.019228
  O      14.055631     33.673208      6.180990
  O      14.013062     30.852609      6.131438
  Si     11.597772     38.646143      7.751657
  Si     14.331998     40.081213      7.821017
  O      10.244767     39.420806      8.297589
  O      12.945259     39.393394      8.350809
  O      11.588043     37.100825      8.144007
  O      14.541979     41.584130      8.420028
  O      11.681537     38.894988      6.121674
  O      14.343076     40.045408      6.182299
  Si     16.905104     26.029695      7.835214
  O      15.553270     25.263098      8.356013
  O      18.188521     25.264014      8.479280
  O      16.874030     25.985358      6.199067
  Si     16.917677     29.114747      7.733693
  Si     17.032024     35.351894      7.724465
  Si     19.684392     33.775293      7.798263
  Si     19.578501     30.670240      7.812741
  O      15.522092     29.854960      8.126245
  O      15.716126     34.500615      8.136343
  O      18.354632     34.585033      8.313769
  O      18.183231     29.964239      8.319446
  O      16.876830     27.593707      8.331480
  O      19.631055     32.223185      8.329421
  O      17.069923     28.968366      6.110654
  O      17.223821     35.398260      6.096779
  O      19.666142     33.726072      6.161386
  O      19.570333     30.654949      6.174542
  Si     16.973548     38.445531      7.798076
  O      15.635616     39.221300      8.333830
  O      18.349935     39.072502      8.403797
  O      16.935594     36.880276      8.296053
  O      16.962627     38.447064      6.159430
  O      20.787990     29.778319      8.437037
  O      21.060553     34.411626      8.394537
  H       4.074657     24.986772      8.036591
  H       1.410409     29.602015      8.036749
  H       1.410409     35.007985      8.036749
  H       4.074657     39.623228      8.036591
  H       8.948181     22.173255      8.038302
  H       8.948181     42.436745      8.038302
  H      14.277762     22.173204      8.038282
  H      14.277762     42.436796      8.038282
  H      18.960557     24.876228      8.036406
  H      18.960557     39.733772      8.036406
  H      21.624717     29.491420      8.036583
  H      21.624717     35.118580      8.036583
  H      13.220832     34.155756      5.926650
  H      11.036639     34.701213      5.607313
  H       8.983348     32.805280      5.698157
  H       9.825977     30.375664      5.730730
  H      12.304280     29.882826      5.774216
  H      13.999729     31.784167      5.835750
  H      13.506893     39.724657      5.806181
  H      10.869463     39.256659      5.738661
  H       8.204386     39.915305      5.612165
  H       5.979330     37.627516      5.723055
  H       5.198505     35.018791      5.688736
  H       3.415591     32.971619      5.782268
  H       4.124271     30.264672      5.763486
  H       5.935330     28.276596      5.672633
  H       6.079171     25.517409      5.498411
  H       9.831361     24.813386      5.715712
  H      12.363779     25.575119      5.730789
  H      14.960107     24.987128      5.785416
  H      17.009263     26.843477      5.771618
  H      17.775026     29.502873      5.718970
  H      19.586669     31.530594      5.763678
  H      18.964725     34.258498      5.757286
  H      17.109979     36.270508      5.695741
  H      16.190331     38.877323      5.766322
  N       9.545005     30.371604     11.878472
  C      10.423951     29.342449     11.658738
  N       9.855729     28.133979     11.398304
  C       8.497632     27.842407     11.315476
  C       7.656682     28.996050     11.459129
  C       8.200253     30.196072     11.739369
  O      11.641156     29.495985     11.699098
  O       8.133586     26.690676     11.131942
  C      10.132795     31.643807     12.344107
  C      10.890320     32.413108     11.257073
  C      10.682920     33.854971     11.702042
  C       9.285962     33.814529     12.296231
  O      11.609232     34.186947     12.713611
  O       9.120670     32.475936     12.805781
  C       8.198440     34.170770     11.308226
  O       6.965530     34.451923     11.943534
  P       5.736551     33.395422     12.010481
  O       5.965526     32.296300     11.031422
  O       5.899251     32.723472     13.477352
  O       4.494900     34.217803     11.990033
  H      10.500879     27.368813     11.248156
  H       6.588008     28.885991     11.349887
  H       7.592456     31.086178     11.849250
  H      10.820104     31.376001     13.154386
  H      10.750733     34.551441     10.861364
  H       9.228427     34.492649     13.151160
  H      12.419062     33.700333     12.502278
  H       8.497229     35.080273     10.781915
  H       8.068325     33.370163     10.576939
  H       5.575515     33.315327     14.165474
  O      12.257048     32.114706     11.210297
  H      10.403689     32.248355     10.288884
  H      12.331203     31.150286     11.330284
159
Coordinates from ORCA-job /data/Seafile/ump/al_surf/frames/frame15/ump_al_frame15 E -13365.190618039962
  Si      3.451089     33.843347      7.824258
  Si      3.474376     30.741038      7.827794
  O       2.203128     34.661102      8.474187
  O       2.206104     29.948650      8.472658
  O       3.462899     32.293351      8.349626
  O       3.426119     33.851402      6.185501
  O       3.439306     30.799034      6.192077
  Si      6.134424     26.085738      7.691613
  Si      8.895344     24.508953      7.691774
  O       4.949063     25.214088      8.393561
  O       7.540753     25.349860      8.045414
  O       8.757496     23.050892      8.412740
  O       5.936988     26.272071      6.076205
  O       9.062175     24.349448      6.078114
  Si      6.118603     29.173253      7.689895
  Si      6.102860     35.406974      7.684423
  Si      8.853709     33.820736      7.663330
  Si      8.861271     30.740434      7.690242
  O       4.858586     30.005487      8.316946
  O       4.821422     34.603546      8.300636
  O       7.463263     34.607545      8.048325
  O       7.502360     29.934922      8.084116
  O       6.149899     27.633995      8.237386
  O       8.752302     32.269261      8.241042
  O       5.903258     29.161280      6.066763
  O       5.909531     35.558384      6.062377
  O       8.960036     33.717403      6.027163
  O       9.024951     30.813241      6.061847
  Si      6.149184     38.496718      7.748150
  Si      8.854799     40.091941      7.757317
  O       4.923018     39.338934      8.422681
  O       7.548883     39.215560      8.208459
  O       6.176312     36.936193      8.267604
  O       8.638574     41.583744      8.382930
  O       6.065783     38.507790      6.117032
  O       9.001543     40.092635      6.122797
  Si     11.539301     26.091581      7.727524
  Si     14.190225     24.533675      7.820025
  O      10.184430     25.358506      8.268141
  O      12.881409     25.383960      8.331700
  O      14.011933     23.029305      8.413562
  O      11.541886     25.933499      6.097219
  O      14.186789     24.559668      6.180839
  Si     11.533952     29.244584      7.748056
  Al     11.610658     35.382571      7.757888
  Si     14.266057     33.798737      7.808532
  Si     14.207566     30.742407      7.755581
  O      10.169946     29.961215      8.307533
  O      10.108266     34.604858      8.267354
  O      13.052930     34.617649      8.459689
  O      12.883762     29.957872      8.335720
  O      11.502165     27.666980      8.155261
  O      14.361129     32.241335      8.366917
  O      11.522764     29.417327      6.118678
  O      11.810342     35.098609      6.020122
  O      14.055629     33.673283      6.181495
  O      14.012776     30.852620      6.131431
  Si     11.597801     38.646082      7.752049
  Si     14.332107     40.081213      7.821087
  O      10.244682     39.420738      8.297737
  O      12.945288     39.393622      8.350973
  O      11.588395     37.100790      8.144610
  O      14.542317     41.584179      8.419950
  O      11.681492     38.894663      6.121989
  O      14.343052     40.045130      6.182421
  Si     16.905038     26.029486      7.835118
  O      15.553081     25.263036      8.355875
  O      18.188184     25.263391      8.479241
  O      16.874057     25.985227      6.199000
  Si     16.917815     29.114536      7.733482
  Si     17.031973     35.351886      7.724746
  Si     19.684292     33.775288      7.798312
  Si     19.578546     30.670286      7.812701
  O      15.522246     29.854868      8.125787
  O      15.716244     34.500479      8.137000
  O      18.354777     34.585343      8.314078
  O      18.183250     29.964165      8.319264
  O      16.876841     27.593521      8.331335
  O      19.630891     32.223231      8.329530
  O      17.070219     28.968000      6.110459
  O      17.223513     35.397944      6.097011
  O      19.665674     33.726003      6.161455
  O      19.570471     30.655161      6.174464
  Si     16.973524     38.445543      7.798028
  O      15.635767     39.221478      8.333940
  O      18.350127     39.072155      8.403516
  O      16.935330     36.880325      8.296228
  O      16.962400     38.447059      6.159359
  O      20.788016     29.778338      8.437079
  O      21.060811     34.411247      8.394199
  H       4.074657     24.986772      8.036591
  H       1.410409     29.602015      8.036749
  H       1.410409     35.007985      8.036749
  H       4.074657     39.623228      8.036591
  H       8.948181     22.173255      8.038302
  H       8.948181     42.436745      8.038302
  H      14.277762     22.173204      8.038282
  H      14.277762     42.436796      8.038282
  H      18.960557     24.876228      8.036406
  H      18.960557     39.733772      8.036406
  H      21.624717     29.491420      8.036583
  H      21.624717     35.118580      8.036583
  H      13.220769     34.155759      5.927285
  H      11.036432     34.700988      5.608249
  H       8.984471     32.806470      5.698129
  H       9.826659     30.375538      5.730649
  H      12.304562     29.882329      5.774723
  H      13.999678     31.784220      5.835878
  H      13.506828     39.724421      5.806369
  H      10.869353     39.256271      5.739033
  H       8.204488     39.914932      5.612262
  H       5.979251     37.627061      5.723228
  H       5.198696     35.018800      5.688963
  H       3.415180     32.972153      5.781899
  H       4.124091     30.264694      5.762860
  H       5.935747     28.276523      5.672344
  H       6.080159     25.517066      5.498557
  H       9.831014     24.813573      5.715607
  H      12.363598     25.574897      5.730772
  H      14.959935     24.986925      5.785464
  H      17.009312     26.843398      5.771641
  H      17.775273     29.502588      5.718797
  H      19.586503     31.530916      5.763801
  H      18.964122     34.258376      5.757506
  H      17.109662     36.270150      5.695885
  H      16.189822     38.877047      5.766486
  N       9.543151     30.369906     11.876962
  C      10.421296     29.340177     11.656496
  N       9.852111     28.131971     11.397131
  C       8.493789     27.841048     11.315940
  C       7.653656     28.995298     11.459600
  C       8.198177     30.195113     11.739020
  O      11.638649     29.492926     11.695276
  O       8.128897     26.689403     11.133548
  C      10.131859     31.641676     12.342536
  C      10.889228     32.411019     11.255413
  C      10.683144     33.852798     11.701301
  C       9.286565     33.813046     12.296382
  O      11.610572     34.183608     12.712282
  O       9.120405     32.474195     12.805025
  C       8.198799     34.170790     11.309187
  O       6.966233     34.451784     11.945280
  P       5.736754     33.395822     12.011315
  O       5.965157     32.297208     11.031515
  O       5.898770     32.722824     13.477624
  O       4.495641     34.218929     11.991106
  H      10.496775     27.366415     11.246800
  H       6.584824     28.885787     11.351324
  H       7.590959     31.085612     11.848911
  H      10.819585     31.373476     13.152336
  H      10.751019     34.549635     10.860961
  H       9.230075     34.490651     13.151775
  H      12.419664     33.695990     12.500355
  H       8.497839     35.080794     10.783840
  H       8.068062     33.371190     10.576915
  H       5.576686     33.314441     14.166697
  O      12.255656     32.111703     11.207830
  H      10.402055     32.247178     10.287398
  H      12.329053     31.147007     11.325801
159
Coordinates from ORCA-job /data/Seafile/ump/al_surf/frames/frame15/ump_al_frame15 E -13365.190613878061
  Si      3.451072     33.843344      7.824278
  Si      3.474409     30.740932      7.827410
  O       2.203229     34.661309      8.474145
  O       2.206658     29.947727      8.472404
  O       3.462418     32.293247      8.349312
  O       3.426133     33.851620      6.185476
  O       3.439058     30.799062      6.191638
  Si      6.134286     26.085808      7.691509
  Si      8.895098     24.508877      7.691422
  O       4.949191     25.213738      8.393501
  O       7.540961     25.350454      8.045219
  O       8.756353     23.050851      8.412309
  O       5.936687     26.271966      6.076142
  O       9.062222     24.349265      6.077782
  Si      6.118824     29.173365      7.689496
  Si      6.102970     35.406842      7.684475
  Si      8.853957     33.820793      7.663281
  Si      8.861656     30.740348      7.689914
  O       4.858957     30.005952      8.316409
  O       4.821587     34.603239      8.300615
  O       7.463376     34.607439      8.048268
  O       7.502800     29.934639      8.083711
  O       6.149584     27.634135      8.237103
  O       8.752498     32.269171      8.240586
  O       5.903452     29.161177      6.066396
  O       5.909627     35.558147      6.062429
  O       8.960722     33.717860      6.027091
  O       9.025766     30.813143      6.061543
  Si      6.149110     38.496548      7.748047
  Si      8.854798     40.091815      7.756994
  O       4.922989     39.338782      8.422639
  O       7.548884     39.215419      8.208077
  O       6.176248     36.936078      8.267610
  O       8.638476     41.583627      8.382575
  O       6.065381     38.507439      6.116942
  O       9.001779     40.092421      6.122457
  Si     11.539158     26.091316      7.727510
  Si     14.190176     24.533555      7.819883
  O      10.184390     25.358041      8.267965
  O      12.881361     25.383869      8.331669
  O      14.011667     23.029239      8.413567
  O      11.541639     25.933364      6.097239
  O      14.186707     24.559495      6.180711
  Si     11.534061     29.244351      7.748130
  Al     11.610622     35.382479      7.758055
  Si     14.266108     33.798715      7.808427
  Si     14.207571     30.742337      7.755374
  O      10.170107     29.961225      8.307682
  O      10.108285     34.604815      8.267808
  O      13.053038     34.617748      8.459505
  O      12.883894     29.957670      8.335693
  O      11.502091     27.666775      8.155374
  O      14.361208     32.241223      8.366729
  O      11.522880     29.417147      6.118776
  O      11.810149     35.098208      6.020330
  O      14.055619     33.673187      6.181366
  O      14.012508     30.852466      6.131263
  Si     11.597854     38.645967      7.751902
  Si     14.332169     40.081224      7.820865
  O      10.244722     39.420716      8.297437
  O      12.945368     39.393671      8.350725
  O      11.588564     37.100726      8.144467
  O      14.542538     41.584149      8.419751
  O      11.681470     38.894416      6.121797
  O      14.342948     40.045077      6.182202
  Si     16.905062     26.029413      7.835036
  O      15.553020     25.262969      8.355693
  O      18.188059     25.263145      8.479239
  O      16.874212     25.985337      6.198952
  Si     16.917904     29.114436      7.733306
  Si     17.031892     35.351896      7.724461
  Si     19.684169     33.775300      7.798079
  Si     19.578607     30.670359      7.812625
  O      15.522385     29.854963      8.125340
  O      15.716373     34.500301      8.136993
  O      18.354848     34.585634      8.313872
  O      18.183266     29.964147      8.319071
  O      16.876793     27.593462      8.331250
  O      19.630674     32.223307      8.329452
  O      17.070379     28.967734      6.110310
  O      17.223293     35.397714      6.096678
  O      19.665308     33.725944      6.161263
  O      19.570716     30.655201      6.174374
  Si     16.973510     38.445551      7.797624
  O      15.635869     39.221554      8.333701
  O      18.350320     39.071723      8.403066
  O      16.935132     36.880383      8.295862
  O      16.962330     38.447328      6.158964
  O      20.788112     29.778553      8.437126
  O      21.060971     34.410892      8.393755
  H       4.074657     24.986772      8.036591
  H       1.410409     29.602015      8.036749
  H       1.410409     35.007985      8.036749
  H       4.074657     39.623228      8.036591
  H       8.948181     22.173255      8.038302
  H       8.948181     42.436745      8.038302
  H      14.277762     22.173204      8.038282
  H      14.277762     42.436796      8.038282
  H      18.960557     24.876228      8.036406
  H      18.960557     39.733772      8.036406
  H      21.624717     29.491420      8.036583
  H      21.624717     35.118580      8.036583
  H      13.220654     34.155569      5.927259
  H      11.036217     34.700621      5.608453
  H       8.985108     32.807088      5.697681
  H       9.827484     30.375311      5.730514
  H      12.304638     29.882514      5.775135
  H      13.999221     31.784053      5.835673
  H      13.506703     39.724251      5.806275
  H      10.869391     39.256304      5.738957
  H       8.204633     39.915294      5.611864
  H       5.978986     37.626650      5.723234
  H       5.198599     35.018620      5.689257
  H       3.414954     32.972448      5.781723
  H       4.123725     30.264684      5.762305
  H       5.935905     28.276381      5.672070
  H       6.078829     25.516729      5.498553
  H       9.830876     24.813723      5.715303
  H      12.363408     25.575093      5.730615
  H      14.959829     24.986834      5.785382
  H      17.009286     26.843619      5.771737
  H      17.775514     29.502243      5.718681
  H      19.586344     31.530991      5.763751
  H      18.963564     34.258168      5.757412
  H      17.109698     36.269888      5.695418
  H      16.189439     38.876950      5.766281
  N       9.542061     30.368719     11.875743
  C      10.419611     29.338468     11.655156
  N       9.849656     28.130472     11.396596
  C       8.491123     27.840126     11.316447
  C       7.651655     28.994915     11.459695
  C       8.196953     30.194595     11.738261
  O      11.637057     29.490646     11.693163
  O       8.125629     26.688527     11.135029
  C      10.131498     31.640048     12.341252
  C      10.889031     32.409313     11.254101
  C      10.683902     33.851010     11.700680
  C       9.287474     33.811869     12.296133
  O      11.611856     34.180756     12.711549
  O       9.120694     32.472980     12.804354
  C       8.199657     34.170598     11.309357
  O       6.967365     34.451665     11.945896
  P       5.737332     33.396218     12.011130
  O       5.965200     32.298021     11.030692
  O       5.898846     32.722302     13.476909
  O       4.496757     34.220170     11.991063
  H      10.493776     27.364462     11.246154
  H       6.582738     28.885899     11.351752
  H       7.590194     31.085464     11.847831
  H      10.819569     31.371495     13.150662
  H      10.752198     34.548163     10.860639
  H       9.231544     34.489247     13.151739
  H      12.420261     33.692038     12.499589
  H       8.499082     35.080826     10.784573
  H       8.068368     33.371702     10.576416
  H       5.577755     33.313401     14.166861
  O      12.255278     32.109142     11.206182
  H      10.401763     32.246123     10.286075
  H      12.327990     31.144261     11.323230
159
Coordinates from ORCA-job /data/Seafile/ump/al_surf/frames/frame15/ump_al_frame15 E -13365.190618203884
  Si      3.451065     33.843293      7.824470
  Si      3.474403     30.740788      7.827383
  O       2.203229     34.661372      8.474188
  O       2.206947     29.947083      8.472407
  O       3.462178     32.293134      8.349319
  O       3.426215     33.851593      6.185629
  O       3.438858     30.799077      6.191579
  Si      6.134210     26.085778      7.691430
  Si      8.895028     24.508784      7.691157
  O       4.949473     25.213046      8.393263
  O       7.541179     25.350809      8.044903
  O       8.755716     23.050815      8.412072
  O       5.936447     26.272209      6.076133
  O       9.062506     24.348936      6.077578
  Si      6.118887     29.173345      7.689405
  Si      6.103028     35.406656      7.684551
  Si      8.854025     33.820634      7.663214
  Si      8.861814     30.740149      7.689756
  O       4.859134     30.006113      8.316343
  O       4.821651     34.603071      8.300812
  O       7.463381     34.607143      8.048210
  O       7.503012     29.934344      8.083622
  O       6.149384     27.634085      8.237019
  O       8.752532     32.268980      8.240323
  O       5.903413     29.161100      6.066288
  O       5.909588     35.557787      6.062501
  O       8.961166     33.717835      6.026980
  O       9.026128     30.812773      6.061403
  Si      6.149050     38.496395      7.747954
  Si      8.854835     40.091674      7.756780
  O       4.922923     39.338553      8.422621
  O       7.548891     39.215275      8.207726
  O       6.176291     36.935951      8.267542
  O       8.638671     41.583495      8.382426
  O       6.064900     38.507190      6.116868
  O       9.002098     40.092383      6.122251
  Si     11.539112     26.091216      7.727570
  Si     14.190246     24.533546      7.819845
  O      10.184392     25.357777      8.267879
  O      12.881415     25.383902      8.331652
  O      14.011689     23.029232      8.413607
  O      11.541409     25.933359      6.097293
  O      14.186727     24.559415      6.180687
  Si     11.534178     29.244280      7.748235
  Al     11.610536     35.382292      7.758091
  Si     14.266050     33.798704      7.808438
  Si     14.207647     30.742314      7.755387
  O      10.170238     29.961252      8.307860
  O      10.108185     34.604693      8.267982
  O      13.052984     34.617730      8.459475
  O      12.884015     29.957572      8.335738
  O      11.502039     27.666706      8.155540
  O      14.361296     32.241170      8.366622
  O      11.523151     29.417079      6.118888
  O      11.809979     35.097719      6.020445
  O      14.055581     33.673039      6.181332
  O      14.012496     30.852321      6.131285
  Si     11.597900     38.645761      7.751872
  Si     14.332120     40.081239      7.820881
  O      10.244731     39.420528      8.297234
  O      12.945374     39.393651      8.350699
  O      11.588669     37.100578      8.144399
  O      14.542589     41.584149      8.419721
  O      11.681454     38.894086      6.121729
  O      14.342793     40.045019      6.182182
  Si     16.905181     26.029464      7.835091
  O      15.553059     25.263027      8.355656
  O      18.188075     25.263077      8.479325
  O      16.874458     25.985609      6.199018
  Si     16.918018     29.114440      7.733384
  Si     17.031695     35.351911      7.724384
  Si     19.683979     33.775369      7.797998
  Si     19.578718     30.670470      7.812703
  O      15.522536     29.855075      8.125274
  O      15.716337     34.500189      8.137144
  O      18.354725     34.585734      8.313784
  O      18.183339     29.964209      8.319070
  O      16.876874     27.593498      8.331368
  O      19.630567     32.223400      8.329461
  O      17.070437     28.967645      6.110392
  O      17.222956     35.397572      6.096555
  O      19.664931     33.725913      6.161211
  O      19.571012     30.655190      6.174456
  Si     16.973437     38.445561      7.797494
  O      15.635851     39.221560      8.333708
  O      18.350386     39.071548      8.402867
  O      16.935015     36.880445      8.295695
  O      16.962201     38.447599      6.158849
  O      20.788297     29.778870      8.437273
  O      21.060842     34.410917      8.393597
  H       4.074657     24.986772      8.036591
  H       1.410409     29.602015      8.036749
  H       1.410409     35.007985      8.036749
  H       4.074657     39.623228      8.036591
  H       8.948181     22.173255      8.038302
  H       8.948181     42.436745      8.038302
  H      14.277762     22.173204      8.038282
  H      14.277762     42.436796      8.038282
  H      18.960557     24.876228      8.036406
  H      18.960557     39.733772      8.036406
  H      21.624717     29.491420      8.036583
  H      21.624717     35.118580      8.036583
  H      13.220529     34.155312      5.927305
  H      11.035950     34.700245      5.608632
  H       8.985271     32.807142      5.697359
  H       9.827857     30.374844      5.730502
  H      12.305068     29.882403      5.775478
  H      13.999238     31.783871      5.835585
  H      13.506562     39.723994      5.806383
  H      10.869464     39.256302      5.738997
  H       8.204916     39.916184      5.611412
  H       5.978699     37.626347      5.723242
  H       5.198399     35.018239      5.689627
  H       3.414963     32.972450      5.781819
  H       4.123340     30.264568      5.762125
  H       5.935648     28.276235      5.672082
  H       6.075360     25.516373      5.498549
  H       9.831035     24.813658      5.715170
  H      12.363254     25.575498      5.730469
  H      14.959842     24.986776      5.785373
  H      17.009318     26.844024      5.771976
  H      17.775677     29.502043      5.718793
  H      19.586229     31.530965      5.763783
  H      18.963163     34.258153      5.757412
  H      17.109559     36.269690      5.695135
  H      16.189050     38.876907      5.766326
  N       9.541639     30.367850     11.875082
  C      10.418999     29.337348     11.654714
  N       9.848788     28.129421     11.396443
  C       8.490163     27.839288     11.316509
  C       7.650926     28.994273     11.459544
  C       8.196503     30.193919     11.737688
  O      11.636442     29.489356     11.692597
  O       8.124543     26.687687     11.135394
  C      10.131282     31.639044     12.340496
  C      10.888788     32.408390     11.253301
  C      10.684002     33.850028     11.700265
  C       9.287665     33.810965     12.295944
  O      11.612244     34.179408     12.711004
  O       9.120746     32.472064     12.803938
  C       8.199754     34.170251     11.309458
  O       6.967640     34.451117     11.946262
  P       5.737549     33.395629     12.011236
  O       5.965330     32.297679     11.030480
  O       5.899283     32.721310     13.476693
  O       4.497010     34.219734     11.991316
  H      10.492599     27.363140     11.246099
  H       6.581989     28.885436     11.351629
  H       7.589875     31.084929     11.846978
  H      10.819670     31.370406     13.149626
  H      10.752301     34.547313     10.860348
  H       9.231927     34.488202     13.151679
  H      12.420466     33.690510     12.498744
  H       8.499347     35.080689     10.785107
  H       8.068172     33.371865     10.576009
  H       5.578475     33.311883     14.167209
  O      12.254991     32.107875     11.205161
  H      10.401547     32.245429     10.285250
  H      12.327342     31.142914     11.321716
