159
Coordinates from ORCA-job /data/Seafile/ump/al_surf/frames/frame15/ump_al_frame15 E -13365.190618203884
  Si          3.45106472481888     33.84329275778790      7.82447014485703
  Si          3.47440274648855     30.74078839840709      7.82738315076312
  O           2.20322917228717     34.66137165555795      8.47418818915513
  O           2.20694695035114     29.94708297307195      8.47240679293115
  O           3.46217836068172     32.29313390251438      8.34931875464967
  O           3.42621484299097     33.85159253887851      6.18562879925768
  O           3.43885840091118     30.79907737852071      6.19157942093318
  Si          6.13420976993979     26.08577783647943      7.69143027171856
  Si          8.89502836422265     24.50878448817484      7.69115711242879
  O           4.94947344310008     25.21304578604943      8.39326304442095
  O           7.54117886009218     25.35080911685092      8.04490286895011
  O           8.75571592405069     23.05081495294353      8.41207243840115
  O           5.93644653122418     26.27220944168156      6.07613330720278
  O           9.06250585000389     24.34893582316633      6.07757799477694
  Si          6.11888736685459     29.17334453141509      7.68940501599373
  Si          6.10302772583446     35.40665614845570      7.68455132504988
  Si          8.85402524486212     33.82063441449858      7.66321440462446
  Si          8.86181412734791     30.74014903206369      7.68975582058966
  O           4.85913353887493     30.00611263806110      8.31634320111193
  O           4.82165114115509     34.60307147414330      8.30081163102303
  O           7.46338094239863     34.60714301361806      8.04820957601038
  O           7.50301207539037     29.93434410840411      8.08362232866113
  O           6.14938369801035     27.63408534596793      8.23701915936009
  O           8.75253201498465     32.26898012739230      8.24032314380717
  O           5.90341313574716     29.16109996021238      6.06628828390541
  O           5.90958831556779     35.55778725358353      6.06250125424612
  O           8.96116612969177     33.71783458881723      6.02698036382306
  O           9.02612797117731     30.81277329189081      6.06140266256409
  Si          6.14904995599091     38.49639505592660      7.74795378339553
  Si          8.85483450160990     40.09167432236916      7.75677973146475
  O           4.92292325316645     39.33855263629602      8.42262124801955
  O           7.54889064698697     39.21527452799436      8.20772642998010
  O           6.17629119834930     36.93595088770269      8.26754228327694
  O           8.63867134344614     41.58349477113600      8.38242596112713
  O           6.06489980604158     38.50719011879161      6.11686780879673
  O           9.00209768866930     40.09238317606471      6.12225071125633
  Si         11.53911187846531     26.09121617663014      7.72756976406710
  Si         14.19024551757124     24.53354555251664      7.81984525022716
  O          10.18439239911986     25.35777679988376      8.26787887535010
  O          12.88141517742548     25.38390215025710      8.33165221266240
  O          14.01168858102059     23.02923161043837      8.41360699818818
  O          11.54140942549686     25.93335854817260      6.09729266659260
  O          14.18672738960825     24.55941493979866      6.18068701621565
  Si         11.53417759688237     29.24428022237600      7.74823453990732
  Al         11.61053580319952     35.38229236614245      7.75809138384320
  Si         14.26605022650227     33.79870400098941      7.80843832240891
  Si         14.20764709047633     30.74231431951094      7.75538722051996
  O          10.17023806147209     29.96125172818931      8.30785985429130
  O          10.10818488475560     34.60469344223210      8.26798177032438
  O          13.05298350936129     34.61773025067523      8.45947517096146
  O          12.88401509664823     29.95757224681608      8.33573780697822
  O          11.50203886534907     27.66670628407043      8.15554048810668
  O          14.36129557623923     32.24116953491131      8.36662171605126
  O          11.52315109338381     29.41707889076869      6.11888835387452
  O          11.80997947259928     35.09771942007785      6.02044522528912
  O          14.05558129160383     33.67303947377115      6.18133205299967
  O          14.01249638329039     30.85232067417285      6.13128503075400
  Si         11.59790032106407     38.64576064116989      7.75187229050170
  Si         14.33211953635274     40.08123889440844      7.82088064197167
  O          10.24473075266330     39.42052848872076      8.29723435654145
  O          12.94537376057862     39.39365097222229      8.35069928272076
  O          11.58866897351678     37.10057782457067      8.14439868165079
  O          14.54258867979891     41.58414908973669      8.41972062618621
  O          11.68145415529828     38.89408601962965      6.12172879863455
  O          14.34279308389248     40.04501851107405      6.18218153295044
  Si         16.90518134161252     26.02946368669113      7.83509050882718
  O          15.55305860995320     25.26302700111117      8.35565595746469
  O          18.18807505574906     25.26307725744734      8.47932524101481
  O          16.87445776762891     25.98560854475434      6.19901773144988
  Si         16.91801803976865     29.11444023373117      7.73338380604627
  Si         17.03169496468538     35.35191051868651      7.72438394421482
  Si         19.68397861287549     33.77536868526992      7.79799775978092
  Si         19.57871824977478     30.67046974195967      7.81270282100923
  O          15.52253597986643     29.85507480423572      8.12527363469944
  O          15.71633671550280     34.50018872130659      8.13714383973060
  O          18.35472515124994     34.58573355485259      8.31378396934314
  O          18.18333853863065     29.96420914712395      8.31907011350576
  O          16.87687417201707     27.59349823497869      8.33136772799114
  O          19.63056712517356     32.22340013312731      8.32946119103520
  O          17.07043666003522     28.96764505143484      6.11039202948543
  O          17.22295611337436     35.39757151045688      6.09655528912998
  O          19.66493105019055     33.72591285807079      6.16121084376810
  O          19.57101242057582     30.65519044891646      6.17445649270298
  Si         16.97343696950457     38.44556085542106      7.79749359051835
  O          15.63585054188147     39.22155953852607      8.33370835135092
  O          18.35038571122592     39.07154800369116      8.40286704994676
  O          16.93501490648678     36.88044525542040      8.29569507109469
  O          16.96220078438554     38.44759891670090      6.15884899792960
  O          20.78829693280287     29.77886958029317      8.43727301259316
  O          21.06084230857410     34.41091740825384      8.39359708280200
  H           4.07465742736233     24.98677203957859      8.03659115513725
  H           1.41040896839061     29.60201497240639      8.03674925828084
  H           1.41040906485263     35.00798500637974      8.03674925952843
  H           4.07465741714655     39.62322797936333      8.03659115885933
  H           8.94818084554017     22.17325472366415      8.03830169066412
  H           8.94818088014561     42.43674531845149      8.03830167620748
  H          14.27776170126623     22.17320384547383      8.03828219157015
  H          14.27776169109244     42.43679610514977      8.03828219661678
  H          18.96055657569323     24.87622777837184      8.03640577913841
  H          18.96055653019909     39.73377223079282      8.03640577793649
  H          21.62471725022025     29.49141993011349      8.03658340438547
  H          21.62471723407300     35.11858007961602      8.03658341112048
  H          13.22052889572402     34.15531247757367      5.92730546844241
  H          11.03595025947897     34.70024545152221      5.60863238303545
  H           8.98527127708815     32.80714192573515      5.69735946250808
  H           9.82785746214570     30.37484414997100      5.73050204677521
  H          12.30506801650940     29.88240341369307      5.77547806993627
  H          13.99923818636124     31.78387110610493      5.83558482836331
  H          13.50656195855122     39.72399369734451      5.80638338651709
  H          10.86946411267506     39.25630239682008      5.73899711632463
  H           8.20491630847770     39.91618376016201      5.61141177630371
  H           5.97869941270185     37.62634672228332      5.72324216521755
  H           5.19839911715222     35.01823876667672      5.68962662534441
  H           3.41496264926643     32.97245025171693      5.78181945234240
  H           4.12333997738702     30.26456795812541      5.76212495181610
  H           5.93564805556522     28.27623471030937      5.67208150479917
  H           6.07536004738163     25.51637297531875      5.49854929193840
  H           9.83103454597561     24.81365818955728      5.71516995256694
  H          12.36325435416582     25.57549775894586      5.73046885172783
  H          14.95984212201878     24.98677572479997      5.78537347911129
  H          17.00931760277306     26.84402432830356      5.77197588555465
  H          17.77567684338453     29.50204272273773      5.71879328898135
  H          19.58622900400158     31.53096473163071      5.76378271489441
  H          18.96316301844959     34.25815309946017      5.75741239602789
  H          17.10955910707921     36.26969029584157      5.69513538959629
  H          16.18904987825165     38.87690650662331      5.76632581621514
  N           9.54163868827583     30.36785012743260     11.87508218923982
  C          10.41899904858970     29.33734837673100     11.65471446482603
  N           9.84878767857299     28.12942055574185     11.39644294272810
  C           8.49016267701077     27.83928758758179     11.31650896834251
  C           7.65092580768092     28.99427330039861     11.45954375084934
  C           8.19650332117664     30.19391884723533     11.73768845747078
  O          11.63644225292110     29.48935565625059     11.69259702749381
  O           8.12454277594784     26.68768666411005     11.13539351343409
  C          10.13128216066668     31.63904360397641     12.34049554590566
  C          10.88878832317388     32.40839002490157     11.25330128202202
  C          10.68400177349909     33.85002793416052     11.70026531596995
  C           9.28766546985973     33.81096476460551     12.29594413903463
  O          11.61224386347981     34.17940795336586     12.71100363506893
  O           9.12074584249972     32.47206390981169     12.80393791278381
  C           8.19975392653281     34.17025117842510     11.30945817260575
  O           6.96764046179573     34.45111716870611     11.94626155928595
  P           5.73754886076022     33.39562861864213     12.01123613253144
  O           5.96532952690234     32.29767888071787     11.03048042731320
  O           5.89928325810268     32.72131030907275     13.47669281231073
  O           4.49701048111098     34.21973408333312     11.99131621074013
  H          10.49259924769938     27.36314022180261     11.24609946365953
  H           6.58198888685126     28.88543557044333     11.35162877266366
  H           7.58987459179069     31.08492901731154     11.84697763141555
  H          10.81967042710540     31.37040599496618     13.14962557283198
  H          10.75230142520178     34.54731342386492     10.86034751968034
  H           9.23192689591413     34.48820165926595     13.15167899519275
  H          12.42046605340557     33.69050980698189     12.49874407416231
  H           8.49934694131151     35.08068943083961     10.78510735112707
  H           8.06817177285361     33.37186513648003     10.57600887485830
  H           5.57847490826419     33.31188264731438     14.16720867712349
  O          12.25499064409717     32.10787547577767     11.20516140910352
  H          10.40154728223191     32.24542936631735     10.28524995563719
  H          12.32734150982035     31.14291356335946     11.32171649280279
