69        
1GID
O 31.959000 42.541000 65.612000
P 30.784000 41.487999 65.349998
C 32.389999 39.450001 64.939003
H 33.260010 40.103138 64.871193
H 32.001453 39.265205 63.937515
O 31.389999 40.069000 65.730003
C 32.786999 38.139999 65.578003
H 33.591484 37.735935 64.963478
O 33.092999 38.414001 66.962997
C 31.648001 37.153000 65.696999
H 30.675190 37.614574 65.866371
O 31.483000 36.414001 64.510002
C 32.113998 36.280998 66.844002
H 31.326870 35.651321 67.258774
O 33.151001 35.410000 66.445999
H 33.362499 35.564426 65.522408
C 32.698002 37.327999 67.769997
H 33.491894 36.812386 68.310349
N 30.184999 36.650002 72.237000
C 30.879000 35.800999 71.480003
H 31.668509 35.436337 72.137115
N 31.490999 36.015999 70.316002
C 31.326000 37.285999 69.924004
C 30.632999 38.275002 70.595001
C 30.040001 37.924999 71.809998
N 29.334999 38.770000 72.566002
H 29.823048 38.932297 73.435234
H 29.219622 39.645348 72.075539
N 30.663000 39.458000 69.886002
C 31.372000 39.167999 68.821999
H 30.753784 39.336308 67.940193
N 31.822001 37.881001 68.792999
O 30.524000 41.514999 63.896000
H 30.220411 40.650806 63.608589
O 29.698000 41.763000 66.318001
P 30.011000 36.009998 64.031998
C 29.987000 33.724998 65.283997
H 31.025948 33.793079 65.606567
H 29.918232 33.231831 64.314377
O 29.464001 35.039001 65.174004
C 29.225000 32.919998 66.300003
H 29.481928 31.892048 66.044250
O 29.606001 33.297001 67.635002
C 27.733000 33.063999 66.254997
H 27.346720 34.030380 65.930969
O 27.236000 32.118000 65.342003
H 27.037533 31.300207 65.803986
C 27.351000 32.755001 67.686996
H 26.328382 33.032902 67.942192
O 27.412001 31.379999 67.987000
H 27.632601 30.888113 67.192657
C 28.457001 33.507999 68.415001
H 28.536383 33.186596 69.453506
N 26.636999 37.768002 70.679001
C 26.753000 36.495998 71.124001
H 25.699181 36.222382 71.072052
N 27.249001 35.430000 70.507004
C 27.662001 35.763000 69.272003
C 27.613001 37.012001 68.679001
C 27.077000 38.056999 69.428001
N 26.988001 39.321999 68.963997
H 27.884590 39.778152 69.054291
H 26.714104 39.306145 67.991974
N 28.128000 36.966000 67.396004
C 28.466000 35.712002 67.240997
H 29.545256 35.691288 67.089745
N 28.202999 34.931000 68.329002
O 30.285999 35.256001 62.778000
O 29.141001 37.201000 63.999001
