69
Coordinates from ORCA-job amp_dimer_geom E -2983.672340449095
  O          31.02243373652975     42.08372611668310     64.24854640508532
  P          30.42001777410070     40.80617923962769     64.73077196352895
  C          32.70735586071017     39.50713181652682     64.99189484411121
  H          33.52165462204940     40.21890401607035     65.16165800512019
  H          32.57654928831300     39.38909316854245     63.91173016252311
  O          31.51968038035971     39.96872697128660     65.59928674052819
  C          33.08561223581687     38.16482025122854     65.56020299577170
  H          33.92447833834407     37.76516067625426     64.97873529746870
  O          33.48582821011296     38.29619573138374     66.92994614014006
  C          31.95817825682190     37.14367457969656     65.59605378526867
  H          31.02437105948609     37.64531016357120     65.85859688274641
  O          31.83489782672150     36.45758521131258     64.37037742130366
  C          32.39135439903927     36.22475007128973     66.72969587245196
  H          31.55911987786751     35.67867547331439     67.18002150181772
  O          33.41315659870092     35.35029633907256     66.31152089361819
  H          33.24416245942274     35.13121368514207     65.38586760378769
  C          32.99858075425990     37.23137965316047     67.69573339805669
  H          33.80878870381461     36.77602908628243     68.27059770000987
  N          30.24307918296490     36.15216012817804     71.86469533057431
  C          31.06347217317115     35.40862730491352     71.12278108581870
  H          31.19497006511596     34.38288367048307     71.45698479660587
  N          31.73613948753522     35.75781371553374     70.03391869035288
  C          31.50240162438519     37.02907089476334     69.70143587495731
  C          30.67576298055864     37.92250511854278     70.37276591818041
  C          30.02686487140168     37.42932649561998     71.51648510004524
  N          29.23091737376697     38.18719115703870     72.28332120869023
  H          28.66845585442161     37.73765689471357     72.98632633680432
  H          28.93358085439896     39.08748817515232     71.94803192531292
  N          30.67861683845354     39.14830574002677     69.74879442124117
  C          31.48409202014351     38.99370156673809     68.72880029285460
  H          31.72223196764219     39.74346429978654     67.99047494563415
  N          32.01399297241445     37.73454022053055     68.64683264414005
  O          30.20251253354769     39.88588393914311     63.44034191669506
  H          29.93278258699166     38.94430419618653     63.63375387631574
  O          29.20994814799412     40.83658133168912     65.60421566827965
  P          30.34795849270169     36.14776082349258     63.78221691664950
  C          30.10639026466283     33.89522017239093     65.13930675148961
  H          31.18202419268838     33.85347901552259     65.33403763549688
  H          29.89593161312319     33.28585227990790     64.25529034213353
  O          29.68512066056404     35.23183453257882     64.93169840056731
  C          29.36130378982255     33.31514840880148     66.30970597749902
  H          29.68728704452453     32.27149738763199     66.41643823943035
  O          29.67535371108348     34.03740138393465     67.50601767961349
  C          27.83732846135951     33.36203113239366     66.21459432529490
  H          27.53184913434570     34.31666221614704     65.78002000750551
  O          27.27460819172461     32.34237554321579     65.44256102665690
  H          27.23610780359579     31.55465517942432     66.00241123479309
  C          27.43730347476690     33.32076446527511     67.69017712494279
  H          26.45421059392375     33.75138779814635     67.87539997562033
  O          27.39221669449911     31.99690607982534     68.17128039723065
  H          28.28292960811928     31.63551269841060     68.25007227842413
  C          28.54847375943330     34.15050754836490     68.33493858974701
  H          28.77459074684178     33.78449023955557     69.34000307607484
  N          26.03435831596410     37.60147606682287     71.14580601721711
  C          26.24754208979600     36.29738246716876     71.31924332960068
  H          25.80112675432743     35.86630327829099     72.21149711376395
  N          26.93021839622349     35.46101602623075     70.54787524948502
  C          27.43331943748125     36.08286334218193     69.47977344740538
  C          27.29033729712937     37.42764731230140     69.16064232191785
  C          26.55751710481196     38.20887704384036     70.06974159260406
  N          26.36264541158663     39.52049923304372     69.90294022005055
  H          25.86277712767447     40.04492936439311     70.60002308873578
  H          26.78211747051369     40.00561314338513     69.12954034094776
  N          27.92843499029759     37.71711165867051     67.97696176185987
  C          28.44325364026122     36.57693799243893     67.59555803874463
  H          29.01573006870617     36.40825576050809     66.69641155468673
  N          28.18396024533338     35.55138223209735     68.46606272114835
  O          30.56439844531188     35.38462516462106     62.53303710260825
  O          29.53086704941764     37.39843290949435     63.80986947420269
