159
13 Eopt=-404.2468940290 (Eh) Einter=-11.582533 (kcal/mol)
Si 3.55625019623644611499 33.84481352487234318005 7.82283052263041955854
Si 3.55593639464739741385 30.76681375283651931341 7.82283149654441700704
O  2.14730563688920028653 34.47995712144078339634 8.40980825185853042569
O  2.14686231948581074391 30.13195801665700557237 8.40980966030856436078
O  3.71008409444360509610 32.30579811907615095379 8.41283350948218178189
O  3.55527628730387323941 33.84681297516025466621 6.16683050751354944197
O  3.55496202291667806605 30.76481349747629678859 6.16683148086924326492
Si 6.21946585080619485097 26.15154206634018763111 7.82287394239242139804
Si 8.88330922147114776521 24.61427032211068421930 7.82291554207855632797
O  4.81039181896769996172 25.51668623390170154153 8.40985212616476651704
O  7.47536479324809999270 25.24941401080048564154 8.40989357714055785209
O  9.03814384377595914088 23.07525464026900152703 8.41291806243904716212
O  6.21949137440484367545 26.14954191102968650284 6.16687394249540865587
O  8.88333532801549630165 24.61627018287019197373 6.16691554202296909892
Si 6.21977961290897596314 29.22954196168935681044 7.82287341160037552612
Si 6.22040691685081448270 35.38154176981052501105 7.82287164473603180426
Si 8.88425009772774743055 33.84427024900774227945 7.82291376007083183453
Si 8.88393637114332257454 30.76627050250382566787 7.82291468454146343703
O  4.81083521754539411575 29.86468585831192967817 8.40985130305669237316
O  4.81133299515354107001 34.74668571079019585568 8.40984984627225884424
O  7.47630575463588620266 34.47941396132720370815 8.40989160004182778607
O  7.47586236776645929325 30.13141406006403855145 8.40989279696736424796
O  6.37361355115295058482 27.69052643331623997369 8.41287612050712496625
O  9.03908401728930499530 32.30525463074881997727 8.41291662455603805881
O  6.21980562113945989466 29.23154162882032736093 6.16687340392786431664
O  6.22043261414328263470 35.37954121227743087275 6.16687165247117619060
O  8.88427616645704532061 33.84626969342770053117 6.16691376572103244769
O  8.88396186401870835425 30.76426987564649095930 6.16691459957829657412
Si 6.22072075007516644973 38.45954160554190082166 7.82287043973387952178
Si 8.88487749533824455739 39.99627009118537301902 7.82291135205166554556
O  4.81177610562057367360 39.09468497622938798486 8.40984815274718933154
O  7.47680356733008633086 39.36141385631763967012 8.40988966391073411444
O  6.37455463051264548113 36.92052622992165566984 8.41287352839872148991
O  9.04002569311109738237 41.53525449284224180246 8.41291308234476176153
O  6.22074678638448830270 38.46154080486444115650 6.16687043987279892576
O  8.88490322656254960521 39.99426934469604333344 6.16691135386266964247
Si 11.54846571735999205544 26.15099867865894722740 7.82295698948122986138
Si 14.21330911756145631841 24.61372707464966325119 7.82299879694239486128
O  10.13939192763804086894 25.51614235997433510761 8.40993508057685801305
O  12.80436466296706932155 25.24887073828359262961 8.40997670934707386436
O  14.36714372197105227258 23.07471151554590704791 8.41300136422854016871
O  11.54849138481512227372 26.14899848279498328907 6.16695698266460201609
O  14.21233531184239851086 24.61572701498719339952 6.16699878093773889987
Si 11.54877955691264190818 29.22899864137910341810 7.82295656879170575593
Si 11.54940661259952250361 35.38099828219409204166 7.82295470569472062294
Si 14.21424973568160510240 33.84372649663306020784 7.82299676693154300011
Si 14.21393604709655633656 30.76572685621413327794 7.82299775549980225264
O  10.13983494332447321540 29.86414209650563478249 8.40993433440308280069
O  10.14033291469113962080 34.74614231773075090359 8.40993306693786202288
O  12.80530582628706959269 34.47887115221102050100 8.40997479832861927207
O  12.80486212629159936682 30.13087093654860026959 8.40997584578730972282
O  11.70261348807686552220 27.68998305155874106731 8.41295917662636760781
O  14.36808386885611987793 32.30471140488422321368 8.41299963558162566812
O  11.54880543984906182686 29.23099832044522017327 6.16695651085985208084
O  11.54943238326880283751 35.37899795954604087456 6.16695480972421172794
O  14.21327590560423814736 33.84572647534797340541 6.16699677595587747447
O  14.21296161720299089382 30.76372666219743479132 6.16699766724550180186
Si 11.54972068518244832092 38.45899843177124211024 7.82295358386810502083
Si 14.21487735329269419537 39.99572666852935753923 7.82299441903290748712
O  10.14077630788084505298 39.09414231581792620318 8.40993138468100909222
O  12.80580347765811488614 39.36087061224734640064 8.40997276404359439539
O  11.70355447005421645201 36.91998300604770832933 8.41295668177948385846
O  14.36902551916223025330 41.53471115566059523871 8.41299609737708919965
O  11.54974664974646003657 38.46099771389169319491 6.16695359032016199308
O  14.21390301427775071375 39.99372599976468478644 6.16699440300218171274
Si 16.87746539758880359727 26.15045546446286195419 7.82304011502134244438
O  15.46839169461502905278 25.51559922221117915342 8.41001837172871802295
O  18.13336401790385110644 25.24832717904186907276 8.41005977534325666056
O  16.87749085139655846888 26.14845510349902113489 6.16704011558132769721
Si 16.87777919761877853944 29.22845541231900767798 7.82303948885916611289
Si 16.87840651608151176788 35.38045524790897644607 7.82303766165425606971
Si 19.54224959659001115142 33.84318370507259032820 7.82307943858409515769
Si 19.54193573051344756664 30.76518362348556578922 7.82308037224557839551
O  15.46883482811956334046 29.86359910848801035854 8.41001741635709088030
O  15.46933267789526311731 34.74559920900567533408 8.41001602779205903460
O  18.13430534144521999451 34.47832741077377249894 8.41005747451365692768
O  18.13386196423707730219 30.13032742136107344777 8.41005878681533047825
O  17.03161313679756716510 27.68943984162084603895 8.41304222068088058961
O  19.69708353901621222803 32.30416803886583210215 8.41308232731802618787
O  16.87780510588648041903 29.23045500127658158362 6.16703947977220412469
O  16.87843199509262959168 35.37845465890233498385 6.16703765304752504761
O  19.54227536157505795700 33.84518324415037682229 6.16707943969251815020
O  19.54196108800501363589 30.76318307870478463428 6.16708037310647405604
Si 16.87872042231591507289 38.45845523022740763963 7.82303646032009325495
O  15.46977615133414651893 39.09359903650849332735 8.41001439892433033663
O  18.13480302761378126775 39.36032777589115738692 8.41005555167308038733
O  17.03255433083204195555 36.91943976744215660801 8.41303947578516186923
O  16.87874623714362698479 38.46045460880425537198 6.16703645959514279440
O  20.79783428650278054306 29.86305523034099351776 8.41010005873239663288
O  20.79833211855224561759 34.74505628604823925798 8.41009857314394970729
H  4.07465742974082090200 24.98677204077590019438 8.03659115499698017970
H  1.41040896902140211466 29.60201496866541859276 8.03674925629663938764
H  1.41040900869536578455 35.00798498523135293681 8.03674926195066952062
H  4.07465743669917390690 39.62322797213502667546 8.03659115984931027299
H  8.94818084631884325120 22.17325470618171578963 8.03830168976628378630
H  8.94818087888215529802 42.43674530356732077507 8.03830168056367533325
H  14.27776169694255514742 22.17320385371520785611 8.03828218857090881500
H  14.27776172854586889116 42.43679616428532597183 8.03828219218743100782
H  18.96055658481141037441 24.87622777414012276154 8.03640577892196894538
H  18.96055653613808189561 39.73377222599516045420 8.03640577840467784654
H  21.62471723008815871481 29.49141993154260532606 8.03658340882137345318
H  21.62471723530256895174 35.11858007377099966106 8.03658341046280000342
H  13.43954239734478761648 34.27033905374103994745 5.76911863227516619190
H  10.79702477283237449512 34.91824969278465573552 5.76839602758628622325
H  8.90770700833273210151 32.96594596109456887234 5.76499475491008261940
H  9.65945434135388758534 30.34299410935164331704 5.76888005109103918500
H  12.30259137832712035276 29.68912266704225189073 5.76803922243055566810
H  14.18560351538438268904 31.64418153876031425398 5.76552258290199759472
H  13.46208429045889509723 39.53603768180099109486 5.76468154415775835275
H  10.78553467778786512099 38.90473306494530447708 5.77122839006757359925
H  8.14831461440032533972 39.50994490551779136922 5.76699955043300072077
H  6.23317386291617747673 37.58286575781620086900 5.76180503595031368036
H  5.45415701991659584991 34.93908511553478035694 5.77152547630179846294
H  3.60566386886142442592 32.96814933231254940438 5.76410508776441066203
H  4.32812544136624577362 30.34544671593880593718 5.76331957712579345809
H  6.21212642233259071389 28.34933201807649538750 5.76816829202728520443
H  7.00946743372297831343 25.75759722000105256257 5.76754704166598841653
H  9.64012207178988234091 25.06582757780367387568 5.76488469566693062518
H  12.31500792758164841700 25.70853944910165012061 5.77192568410648743082
H  14.95343799066333900782 25.09203406445913486777 5.76610003225046963138
H  16.85241664024757568541 27.02653749539008387615 5.76116217495070959131
H  17.64630213870124464393 29.66655897627852311871 5.77122747458034446311
H  19.48194552480136110262 31.64158903474665862632 5.76482831409717189075
H  18.77355784114875802970 34.27390176064712079551 5.76498788543609919088
H  16.88031298320677109359 36.26100720066069271752 5.76894103329538054936
H  16.09309773705358992402 38.86024083819143726259 5.76722976412603038909
N  9.99117841714528154284 34.36296049658066209531 12.20814947846423415001
C  8.85739940316765839157 33.92903699185784915926 11.56387493355072138002
N  7.91173632490283651464 34.88430697459139651073 11.34286064150398765094
C  8.01995345968996886654 36.25763625639486065211 11.60164429548891895649
C  9.29067234148872600485 36.62506921610595611583 12.14966149171250364702
C  10.24443504262487358858 35.69029306460105743781 12.37126144858011755900
O  8.66647656459849180521 32.75159162567134529809 11.29728705392946785935
O  7.05416319361570121060 36.97770677761353397273 11.41355800629312078343
C  11.02602638966851067437 33.34766840350151539951 12.41155167924792301903
C  11.59844872323768072420 32.85263556864680367653 11.06210531049449485863
C  13.12413295728640072468 32.91764323423186056061 11.25705191890526357668
C  13.33647552029739458135 33.66131955158092381453 12.58265844651257658882
O  13.69882506141560796209 31.63568116971022092798 11.34884089063226397798
O  12.06383595875702674505 33.82332588365952830145 13.20634474167921013077
C  14.09850717413076992557 35.00672643880381684767 12.46360284850251787248
O  13.29302762979622976047 36.11989539872136134591 12.27636684453590731891
P  12.81459540387030315856 36.46507797729773869833 10.70398209295872504754
O  11.64950366488117694530 35.56325976559111268216 10.44617360019793039783
O  12.28521487468436923507 37.96168199088729977575 11.06078473655695049160
O  14.00947155129686017005 36.54046713884887509494 9.83849027139922860385
H  7.10401585482420117046 34.59025958826060076490 10.80648061541986848511
H  9.50326838519690397789 37.66732918391672058078 12.30244969339715410683
H  11.20213273614989013538 35.93284839965202337453 12.79844383246516237307
H  10.52774059663897432415 32.50697122045503562049 12.92713325186505457509
H  13.57549818632373117566 33.48115650348034932904 10.43684154417710630014
H  13.92972134619167334790 33.00154336521302411711 13.23418585798724755875
H  13.17274885961670882750 31.06390618016249760558 10.77222944849827435121
H  14.63563529635588089661 35.18251924470736469175 13.40659659373938339400
H  14.82071828747747765931 34.92208410014701769342 11.64267508006334317372
H  12.70079425846426346425 38.52918608250224963285 10.41681498895702873142
O  11.18875611894390509349 31.54422631596843018542 10.75208910014914920339
H  11.30841043596112172054 33.55834996278152715377 10.28279324338040723319
H  10.23343758894338861865 31.58577259564562922378 10.59512294496837370161
