195
-32.2246844347
Si 3.55625018693007310944 33.84481352705933687730 7.82283052299160353016
Si 3.55593639362415370186 30.76681373800727570256 7.82283151505343443688
O  2.14730563678707531139 34.47995711857433320802 8.40980825088234063003
O  2.14686231767518398428 30.13195802354083596697 8.40980966007197672241
O  3.71008410741051575243 32.30579811870609319158 8.41283350724443224067
O  3.55527630413684203603 33.84681297883910389146 6.16683050318114656108
O  3.55496185543601939116 30.76481341314946149623 6.16683126485426580388
Si 6.21946585678567132049 26.15154206632759326112 7.82287394014336623371
Si 8.88330922051638438575 24.61427032318852070603 7.82291554209020478794
O  4.81039182041565815950 25.51668623230132837421 8.40985212936811699080
O  7.47536479411311916010 25.24941401103973959152 8.40989357451820573885
O  9.03814384194848052800 23.07525465909190387492 8.41291805684119431419
O  6.21949137420078823624 26.14954191336096300802 6.16687394218466522489
O  8.88333532778674950237 24.61627018246925047151 6.16691554191398427776
Si 6.21977982698687892338 29.22954201725357847863 7.82287342273807517756
Si 6.22040692911639414575 35.38154180250575819855 7.82287165218431379543
Si 8.88425017741829492479 33.84427028141763571512 7.82291377091437833968
Si 8.88393632911842878741 30.76626998847240912482 7.82291461093508111446
O  4.81083519216592847556 29.86468583335225446262 8.40985130481503340150
O  4.81133299649417267574 34.74668570885351925881 8.40984984884143393913
O  7.47630572553530647895 34.47941391092557239517 8.40989159208371717114
O  7.47586234192773080309 30.13141411111632450570 8.40989277504650090123
O  6.37361353406915576159 27.69052642713775824745 8.41287612099101522745
O  9.03908396196299790404 32.30525465695799880450 8.41291666745402721972
O  6.21980517381099318186 29.23154158311938033421 6.16687332296902557260
O  6.22043262286663622973 35.37954119864337343415 6.16687163920566394637
O  8.88427612367556740480 33.84626966545699389144 6.16691371098747609381
O  8.88396187831890316033 30.76427041274226681367 6.16691457534195652812
Si 6.22072073949514248170 38.45954159935909189016 7.82287044481994087164
Si 8.88487749647559432731 39.99627009791041132303 7.82291135283194360994
O  4.81177611170782792982 39.09468498683624204659 8.40984815141063357657
O  7.47680357254116234600 39.36141385115009683204 8.40988966579170060811
O  6.37455463328620997032 36.92052622785310234121 8.41287352360347462366
O  9.04002569330078564747 41.53525449257070079057 8.41291308175988739038
O  6.22074675902676332839 38.46154080626786253561 6.16687042386679262762
O  8.88490322560224399240 39.99426934289728308158 6.16691135364188713908
Si 11.54846575562936372705 26.15099867992826787599 7.82295698218135893143
Si 14.21330911518654005476 24.61372707270599846652 7.82299879681379106700
O  10.13939192927028543068 25.51614235681582698589 8.40993508453432880856
O  12.80436466479849499933 25.24887074055739688561 8.40997670761918669768
O  14.36714371844999504901 23.07471152269430803017 8.41300136402819198622
O  11.54849138188206936206 26.14899848632618528654 6.16695698270687397979
O  14.21233531245963987999 24.61572701470442936511 6.16699878115238586673
Si 11.54877945751551493458 29.22899860874165867131 7.82295649958486372100
Si 11.54940674508369014006 35.38099852655978594385 7.82295479946906979762
Si 14.21424991801207760034 33.84372686786295503225 7.82299680149272003149
Si 14.21393602371177955490 30.76572695757778319603 7.82299768501580050639
O  10.13983509149021955409 29.86414243371159571439 8.40993442116546141563
O  10.14033288623187623045 34.74614236822544199867 8.40993306697458820054
O  12.80530558705007315723 34.47887069211208199704 8.40997468680525095408
O  12.80486220309630773784 30.13087071882316081428 8.40997591377726294581
O  11.70261341584262027027 27.68998304405470634038 8.41295918043805635023
O  14.36808380338191604153 32.30471137948711657373 8.41299968135706244254
O  11.54880547904500609491 29.23099829098152468987 6.16695650399734951463
O  11.54943233961963677814 35.37899793494550948481 6.16695480132187778821
O  14.21327587089143662524 33.84572642430836708627 6.16699678565375197792
O  14.21296159022008964712 30.76372664703404780084 6.16699767067686455135
Si 11.54972065863779207007 38.45899842402342017067 7.82295359238435761284
Si 14.21487735081999126407 39.99572666486720606827 7.82299441708082543556
O  10.14077630385539485758 39.09414231191659183651 8.40993138144422403002
O  12.80580347657812190221 39.36087061419602406431 8.40997276609985711104
O  11.70355452235245330428 36.91998300266443067130 8.41295663548231331674
O  14.36902553390196679572 41.53471118101642645115 8.41299609773481193997
O  11.54974665241277520522 38.46099771202754169508 6.16695359149442801083
O  14.21390301510472475854 39.99372600064395300024 6.16699440327177761390
Si 16.87746539923067956579 26.15045546536794063286 7.82304011488750106196
O  15.46839169467708074990 25.51559922193811758007 8.41001837201046420489
O  18.13336401816056664416 25.24832717950208049729 8.41005977551400363268
O  16.87749085155643058442 26.14845510350075485917 6.16704011562476317465
Si 16.87777917975705577192 29.22845538063792858452 7.82303947920739783939
Si 16.87840650223765237570 35.38045526707407617550 7.82303765222310154570
Si 19.54224959695355323674 33.84318370363237704623 7.82307943965196717073
Si 19.54193572480961904603 30.76518362623378877174 7.82308037244961429479
O  15.46883485833259719300 29.86359915418330857051 8.41001744480384161307
O  15.46933269772117647278 34.74559912808553718833 8.41001601463845460671
O  18.13430534091001433694 34.47832742206880141111 8.41005747937106562517
O  18.13386196744770018086 30.13032741855152352173 8.41005879083363261373
O  17.03161313517240316173 27.68943984310491046585 8.41304221879499536385
O  19.69708354307122988303 32.30416803792554958363 8.41308232626805185816
O  16.87780511034904762369 29.23045500211253866496 6.16703948004311719444
O  16.87843199471747723805 35.37845465741905570667 6.16703765308408602408
O  19.54227536117527819215 33.84518324279415679712 6.16707943893199672658
O  19.54196108852768887232 30.76318307782927874428 6.16708037318395341231
Si 16.87872042523139981540 38.45845522860685861133 7.82303645988209161999
O  15.46977615268039940588 39.09359903690292270539 8.41001439988738042075
O  18.13480302868096671887 39.36032777473764099341 8.41005555194283083154
O  17.03255432126293911210 36.91943977492373107907 8.41303947233636506553
O  16.87874623700108500657 38.46045460911121693925 6.16703645973367375888
O  20.79783428780193332841 29.86305523056695321316 8.41010005916363567735
O  20.79833211858965924534 34.74505628381691479944 8.41009857307426500483
H  4.07465742939336461603 24.98677204123088912979 8.03659115469849716362
H  1.41040896893740130835 29.60201496884275940147 8.03674925632311776269
H  1.41040900918235645456 35.00798498650532764032 8.03674926202905304251
H  4.07465743495075916059 39.62322796882195774515 8.03659115950932445571
H  8.94818084740995445259 22.17325470512798446521 8.03830168943276568427
H  8.94818087860287114665 42.43674530330576288861 8.03830168066087757950
H  14.27776169753314228217 22.17320385292906692598 8.03828218835034746803
H  14.27776172589064707097 42.43679616139489496618 8.03828219346638661591
H  18.96055658448753789003 24.87622777378731697695 8.03640577884521789542
H  18.96055653557861120362 39.73377222680375808750 8.03640577819788326508
H  21.62471722959833542177 29.49141993090830382584 8.03658340868655685085
H  21.62471723478751783887 35.11858007480653043331 8.03658341033272982656
H  13.43954240696655588749 34.27033906237298310771 5.76911863128922686172
H  10.79702478442205482168 34.91824967708454607873 5.76839602463476097682
H  8.90770700873702381273 32.96594581366215237495 5.76499481774726607597
H  9.65945435615833325471 30.34299396739253396049 5.76888007786012746436
H  12.30259136181376611319 29.68912269796748404360 5.76803922552971126692
H  14.18560353559140452262 31.64418152025914565684 5.76552258414542073695
H  13.46208428997598183230 39.53603768040807864281 5.76468154390856746261
H  10.78553467863248371827 38.90473306686578780500 5.77122838975345420209
H  8.14831461956678282377 39.50994490843740436503 5.76699954970324935033
H  6.23317389016837353211 37.58286574599651430617 5.76180504739976129258
H  5.45415701864574220536 34.93908511490958801460 5.77152547669504301098
H  3.60566385683912127291 32.96814932629275318732 5.76410508803443111248
H  4.32812575154583534243 30.34544683445777835118 5.76331984828419674471
H  6.21212654454993984388 28.34933199822683036473 5.76816831112379446722
H  7.00946743384437720437 25.75759721981343020047 5.76754704180434263350
H  9.64012207142025090434 25.06582757776993730658 5.76488469563417371688
H  12.31500792559007706473 25.70853944701539717244 5.77192568456049048820
H  14.95343799047056343454 25.09203406453628204531 5.76610003219153632870
H  16.85241664021720353617 27.02653749611021183341 5.76116217504234295887
H  17.64630213761279264872 29.66655897900957938873 5.77122747414333758798
H  19.48194552478702235021 31.64158903524223376280 5.76482831424459973846
H  18.77355784193715848573 34.27390176113381414780 5.76498788542458129314
H  16.88031298496957433031 36.26100719845223352422 5.76894103315722617253
H  16.09309773695219547562 38.86024083814137952686 5.76722976412324772610
O  8.37918529238817022531 34.61349461367656488164 -3.92567231685154149901
P  8.11774339943444722678 34.88563544641618108244 -2.45553840706079729017
C  10.32989452910756966730 33.75705420628232644731 -2.37338069264691098326
H  10.75039831367210574342 34.31699559943249511207 -3.22439583739631130399
H  9.71624807668092316248 32.92907647193222686610 -2.77061587531964947928
O  9.48748526971557382126 34.61707364851559987073 -1.66125220397018558138
C  11.42758237986475933212 33.23202706089206515117 -1.44664812892926342158
H  11.98074306535399813356 32.40044431368125543713 -1.90857255091491540000
O  12.40208394379877709923 34.24435999865990964963 -1.14689231549794357079
C  10.81091736179583406852 32.74731205678209988719 -0.10194903731656093648
H  9.79441377703263427179 33.16704438258931730843 0.01235456353262009109
O  10.73585664194357924828 31.34390092507668157396 -0.03992421322921069909
C  11.76630218884685241676 33.32022829663851126725 0.97112433547179233262
H  11.24121572416365744118 33.61076965243222502977 1.89545261002128229144
O  12.75353731846527338689 32.36383730107454681502 1.29343642308064343815
H  12.42047395019107902669 31.46655468494387619671 1.06968226509666175517
C  12.37895022681494694439 34.54560683731499892701 0.25611152058751196492
H  13.41753028559351434978 34.69494014084273914023 0.57962966285318751058
N  10.53787142779107455226 38.15191896008295913134 3.61526874919771490369
C  11.27308432668296944712 37.05273070360115639232 3.80540904539183921784
H  11.54069649094022587121 36.89224590125686376041 4.84328657692065256413
N  11.70482596974631483988 36.13999246558878297719 2.97138383724505539263
C  11.35463010302799702345 36.40503929547289629909 1.70586973670742270137
C  10.57051763149621237403 37.50679721771341235126 1.35863984793246261873
C  10.13951625772826758975 38.38109103441828295900 2.37567685086434954300
N  9.22307050188398669377 39.36737010114857326926 2.06432845071232451417
H  8.74968497762036534482 39.81488371794239355950 2.83285953959677661018
H  8.56569993084613301448 39.12784657770872343008 1.31077131857600170939
N  10.35006277957022824410 37.54178782245829637532 0.01595847597213824118
C  10.97704572571828407490 36.51233208130463481211 -0.47904620726729213454
H  10.96243701210717169658 36.24240648626397387488 -1.52571425273141758616
N  11.60843270442335750658 35.77149518388909399391 0.50160251492551422015
O  7.08991931322798762949 33.78837143943108145550 -1.90623165742096056796
H  7.56456962334324600761 32.93791710899554914249 -1.80357900065975651493
O  7.66625263322606809169 36.31426811416803701604 -2.25670047841167376035
P  9.23393508532004325673 30.87264722136461614355 -0.36468576393558005400
C  8.82585762068781676248 30.80224017647876522119 2.04581587129246766921
H  9.92424245375385361001 30.87133456166732159431 2.12513496065900175935
H  8.54533589969510387618 29.74103778576040824078 1.91115883772116434969
O  8.42855157926388187661 31.47657823928285836246 0.89089435196942912132
C  8.16292129408405564561 31.39579279259888977549 3.28433904701573542440
H  8.41051000020029349002 30.78978138493148719590 4.16530958202270884527
O  8.63195064326692218515 32.73209634051293903667 3.57060143606175772746
C  6.62401982432210267859 31.46312692824189127805 3.15991356830075398321
H  6.35389492207140627045 31.63676512945621155382 2.10720900896890483978
O  5.95899487539618810672 30.28616911481891804669 3.55101412770504776262
H  6.13822151895181811199 30.05509199682589738245 4.48986402519938465616
C  6.28865589632773058781 32.69163699190626459767 4.03234989359637374662
H  5.34238454933256878832 33.17290570012951178569 3.74553718878062857911
O  6.20277786937558328617 32.30720770845034195418 5.38803511867562168192
H  7.02391107119154067817 31.84048173259023073456 5.67579603291528833608
C  7.51008102530503052208 33.61189651381717169443 3.78143105715183702742
H  7.73892002926383426598 34.23581053294927301067 4.65839179192878383162
N  6.49647092742381815356 38.46522365365208173671 2.07813141177617177746
C  6.38122070949960651376 37.89596289458503974856 3.27744405635661362197
H  6.08961732288541846003 38.58387478851342677899 4.05914535116119168379
N  6.59755943473301709190 36.66761643339339826753 3.67508656572243230798
C  6.98412636884885706934 35.86029889471139142643 2.67937830900938145362
C  7.15652716544881695171 36.31562453912825816360 1.37141762360611352278
C  6.90612653672837151220 37.67858595708619873221 1.09603728253869570075
N  7.20416613630555602299 38.19425724791665999192 -0.14869264563382797451
H  6.75701412342317642157 39.03522480617335332909 -0.47905671378562858509
H  7.39188722859594093961 37.53751670272223606162 -0.90310300943073718027
N  7.58192232289861500760 35.29976448693538060297 0.56916990035260373038
C  7.66180545733000251118 34.24298369363541638677 1.32831895132754951305
H  7.96108418843433707224 33.27113636552485331777 0.97032573066211991186
N  7.31166208368657244421 34.51535803380661349138 2.63646544742542232598
O  9.11883894220557422727 29.36168842634090481170 -0.33407768816847999149
O  8.74044076201614394961 31.50186988542694166426 -1.64845782330175794073
