195
Coordinates from ORCA-job amp_dimer_docking.docker.struc1.preopt107 E -32.157502473280
  Si          8.07404899513061     -1.03340618469201     -0.16308985314181
  Si          7.11308479353960     -3.95755230055686     -0.16309063711785
  O           9.61086355262362     -0.87004025905046     -0.75010570552699
  O           8.25340036458362     -5.00070486769371     -0.75010684792328
  O           7.44725821312454     -2.44739756238389     -0.75308858235500
  O           8.07564118045728     -1.03182476929079      1.49291013601011
  O           7.11342830426932     -3.95977068042749      1.49290935104371
  Si          3.14142270365151     -7.51016009428568     -0.16306079316013
  Si          0.13072476806682     -8.13862157883353     -0.16303029117559
  O           4.28173820502717     -8.55331274270731     -0.75007702372737
  O           1.66658924250845     -7.97494322697858     -0.75004642337728
  O          -0.49701677526514     -9.55230069505431     -0.75302852814273
  O           3.14081636342289     -7.51206611442234      1.49293920667041
  O           0.13136707919235     -8.13672747106573      1.49296970876166
  Si          4.10238700328902     -4.58601385115240     -0.16306044474083
  Si          6.02306655224579      1.25847859218738     -0.16305906695964
  Si          3.01236883133391      0.63001722913074     -0.16302907880074
  Si          2.05140464274832     -2.29412903346226     -0.16302973623365
  O           5.63920147501118     -4.42264761382949     -0.75007646649448
  O           7.16338188224236      0.21532574859936     -0.75007530805185
  O           4.54823327367869      0.79369562335603     -0.75004500610166
  O           3.19076986955852     -3.33696975723992     -0.75004594262546
  O           3.47559612204982     -6.00000536187120     -0.75305890525137
  O           2.38462802545530     -0.78366203775911     -0.75302768370862
  O           4.10302933041077     -4.58411998522217      1.49293955546682
  O           6.02245992406499      1.25657222576783      1.49294093236683
  O           3.01301108651034      0.63191094623565      1.49297092160499
  O           2.05079812627833     -2.29603523953667      1.49297026331833
  Si          6.98403074953624      4.18262476024313     -0.16305804501084
  Si          4.93304835623334      6.47450976155555     -0.16302704382208
  O           8.52084531368994      4.34599044344689     -0.75007388104010
  O           6.07241365026193      5.43166905974993     -0.75004337435354
  O           6.35723998847455      2.76863340324515     -0.75305687373687
  O           5.26627133110630      7.98497698121503     -0.75302467748041
  O           6.98467292132988      4.18451821977725      1.49294195572175
  O           4.93244163457989      6.47260323891612      1.49297295529030
  Si         -1.92120744750778     -5.84642447065379     -0.16299979107772
  Si         -4.93285531629481     -6.47457352845886     -0.16296947691509
  O          -0.78089229527350     -6.88957752033067     -0.75001593950784
  O          -3.39604084225713     -6.31120750315983     -0.74998551163068
  O          -5.55964681558250     -7.88856482545823     -0.75296778731630
  O          -1.92181389844160     -5.84833049559755      1.49300020870677
  O          -4.93126308046164     -6.47299161516285      1.49303051171275
  Si         -0.96024310163570     -2.92227822799518     -0.16299950255165
  Si          0.96043651905608      2.92221431120247     -0.16299817420363
  Si         -2.05121118760163      2.29406514739584     -0.16296804670819
  Si         -3.01217534707707     -0.63008112796035     -0.16296874219914
  O           0.57657132720722     -2.75891207817265     -0.75001553741467
  O           2.10075175192484      1.87906141680931     -0.75001448813649
  O          -0.51439677839356      2.45743135740626     -0.74998405549292
  O          -1.87186017152701     -1.67323409324491     -0.74998501177103
  O          -1.58703399294078     -4.33626974862667     -0.75299792453217
  O          -2.67800198608489      0.88007368435825     -0.75296666968009
  O          -0.95960076946104     -2.92038432728721      1.49300049761426
  O           0.95982997490222      2.92030789940713      1.49300182510140
  O          -2.04961884016864      2.29564661750105      1.49303194223564
  O          -3.01183179417695     -0.63229958342141      1.49303124585243
  Si          1.92140065705818      5.84636058127500     -0.16299715439940
  Si         -0.13053174498904      8.13855763485756     -0.16296603916860
  O           3.45821510856579      6.00972684506022     -0.75001306746298
  O           1.00978353781558      7.09540481974541     -0.74998243508769
  O           1.29460989988542      4.43236917472249     -0.75299594108845
  O           0.20364126831608      9.64871263617047     -0.75296365106197
  O           1.92204289817163      5.84825410988446      1.49300284622733
  O          -0.13018839434283      8.13633886505244      1.49303394850377
  Si         -6.98383729775107     -4.18268876466576     -0.16293888152377
  O          -5.84352223687145     -5.22584170184085     -0.74995518481350
  O          -8.45867052524573     -4.64747221772829     -0.74992453733605
  O          -6.98444363631772     -4.18459500450023      1.49306111805450
  Si         -6.02287303049822     -1.25854252231920     -0.16293843507999
  Si         -4.10219345229857      4.58595001064631     -0.16293698370140
  Si         -7.11289107435602      3.95748861041742     -0.16290666914781
  Si         -8.07385531078637      1.03334218524293     -0.16290741339532
  O          -4.48605864487729     -1.09517635556772     -0.74995452379195
  O          -2.96187826390349      3.54279714148284     -0.74995339245390
  O          -5.57702675078784      4.12116704520868     -0.74992280641993
  O          -6.93449016361973     -0.00949843306141     -0.74992385089036
  O          -6.64966390947000     -2.67253400868797     -0.75293691654942
  O          -7.74063196496014      2.54380929847591     -0.75290527271787
  O          -6.02223062328025     -1.25664869466538      1.49306156514035
  O          -4.10279990641128      4.58404354803636      1.49306301557811
  O          -7.11224853432317      3.95938230653056      1.49309333117143
  O          -8.07446161608137      1.03143573960714      1.49309258595822
  Si         -3.14122930502195      7.51009634277391     -0.16293598016629
  O          -1.60441495561433      7.67346255538127     -0.74995204344332
  O          -4.05284610736567      8.75914085465944     -0.74992117733616
  O          -3.76802010239491      6.09610491621435     -0.75293473563287
  O          -3.14058686137955      7.51198990278043      1.49306402034599
  O          -9.54868851248577      0.56855860947283     -0.74989309554175
  O          -8.02450778693196      5.20653312895697     -0.74989190859200
  H           4.81519040045547     -9.28649602044807     -0.37683590536338
  H           8.78752654481536     -5.73414008757736     -0.37706631625309
  H          10.47581617882912     -0.59855930978660     -0.37706666781597
  H           9.38616975653961      4.61789141482224     -0.37683684661196
  H          -0.69323926519609    -10.43728416127857     -0.37841452936154
  H           5.63506844373642      8.81269175364980     -0.37841581665581
  H          -5.75626748506975     -8.77289921025477     -0.37825097009344
  H           0.57207198947374     10.47717333063214     -0.37825227011810
  H          -9.36068697957936     -4.74263049869795     -0.37624815809157
  H          -4.72066141077080      9.37178730344236     -0.37624910788570
  H         -10.45026589257277      0.47374452655122     -0.37635407119883
  H          -8.69289833443763      5.81945220191593     -0.37635443279034
  H          -1.18196787551486      2.45738045131414      1.89088915556772
  H           1.53072263780772      2.24762383833599      1.89154029313523
  H           2.71583655547156     -0.19706771418313      1.89489061883125
  H           1.18253871171592     -2.45405651376218      1.89102581260249
  H          -1.53260174932344     -2.24976911208396      1.89193812238059
  H          -2.71086487479330      0.19557045432649      1.89450553642256
  H           0.44110060629982      7.46674555977040      1.89532651501600
  H           2.78662059450861      6.03112779219152      1.88870736288414
  H           5.48094373554495      5.78246246350912      1.89286487981748
  H           6.69846674917268      3.35366926861738      1.89800775147693
  H           6.61286416640128      0.59883440610529      1.88826642364488
  H           7.75337666640755     -1.85080776499473      1.89563697351011
  H           6.24797775355990     -4.11670578162972      1.89644217996571
  H           3.83481976903686     -5.42460586351367      1.89164451786700
  H           2.26795792361943     -7.63770005020160      1.89228748523251
  H          -0.44716008136855     -7.47331362908002      1.89502098189108
  H          -2.78753738041944     -6.02737864069587      1.88805225370245
  H          -5.48653672824519     -5.78906418934376      1.89394926197463
  H          -6.68638714461965     -3.35826557389872      1.89893832455584
  H          -6.61608403291776     -0.60235818903013      1.88889431517515
  H          -7.74311047144411      1.84716036332949      1.89534296597886
  H          -6.24808025471163      4.12658310641176      1.89516407881581
  H          -3.82895457200793      5.42303774541334      1.89115962976132
  H          -2.26937007456753      7.64641797134187      1.89284945418124
  O          -1.95942110394432      1.47485806299291      4.16104762595750
  P          -1.45885537263170      0.83638918934935      5.43482327958380
  C           0.74413200050077      1.39635897130262      4.36801202285124
  H           0.36469062145611      2.34132801618436      3.94031938769100
  H           0.49504586492358      0.56485430777566      3.68509027501932
  O           0.09495797461829      1.18541372714156      5.57998210292385
  C           2.24638376392551      1.46759629613765      4.65848577568615
  H           2.84650561877800      1.50080745662694      3.73200148492486
  O           2.56383741649156      2.66430845626830      5.38675863370063
  C           2.69379701658960      0.25351959194896      5.53284628103848
  H           1.81692748437721     -0.17723025376485      6.05260444255400
  O           3.32489196271940     -0.74275164054515      4.76372281748986
  C           3.69938108205259      0.87713998643140      6.53742412049598
  H           3.64649589442308      0.39363364940829      7.52561348476545
  O           5.02073015161200      0.76066434777966      6.05029065898683
  H           5.05245546522010      0.05836233194445      5.36340980546470
  C           3.25125404299482      2.35630121366874      6.61182057573254
  H           4.13241981942633      3.01116477630659      6.65513270645682
  N           2.74661829884975      3.13215030597079     11.80872482837774
  C           3.82631829949540      3.13328670531785     11.01681213736694
  H           4.76247161830095      3.23466719176604     11.54920006939218
  N           3.95515910924988      2.99356116889928      9.71786670565324
  C           2.77644598329592      2.89859220501347      9.08757574380975
  C           1.56879782635066      2.96005817927548      9.78513255237135
  C           1.58121802670632      3.02941690676254     11.18990810535531
  N           0.36854937191059      2.83675832478382     11.81792667128638
  H           0.33010479721424      2.51711004513638     12.77352785632170
  H          -0.38907302718435      2.45185388006474     11.23303246930941
  N           0.51158820538989      2.73897119540924      8.96390666331254
  C           1.01454224519214      2.54841353289697      7.78082933437494
  H           0.39971423558662      2.23508362385355      6.95347349868084
  N           2.39719935432193      2.62591479128049      7.78015240822514
  O          -1.49032059373672     -0.76422932211371      5.27448672752784
  H          -0.69855025878548     -1.08368942355616      4.79201506034390
  O          -2.15850126601894      1.33111591687516      6.68322248966867
  P           2.33541697337474     -1.98570933289901      4.51978854219918
  C           3.33053295456119     -3.23681982152428      6.34393331549429
  H           4.14730232176915     -2.49420472350616      6.32191349601089
  H           3.53019185240218     -3.99616676791905      5.56052413487368
  O           2.14772831331396     -2.56819310867071      6.00835135511660
  C           3.21757821709192     -3.87201722281372      7.72429600893970
  H           4.11803457087424     -4.46049113874595      7.95141546224974
  O           3.12706402835245     -2.86062826210515      8.74622839215133
  C           1.97836820159143     -4.79738403900768      7.84460392971918
  H           1.23561142736084     -4.51761545388859      7.08044214257282
  O           2.30173404873088     -6.15904969883997      7.64830459314421
  H           2.50006840906587     -6.57788743082616      8.51608260230268
  C           1.46963099607192     -4.51726031300860      9.28268716661793
  H           0.37473160444197     -4.59381521248777      9.35896021017169
  O           2.03863931433134     -5.43092583095076     10.19331204306603
  H           2.99205121004523     -5.22762770926557     10.29903740715610
  C           1.96391701565864     -3.07590192167736      9.56136031506846
  H           2.28430792714498     -2.98817378721155     10.60729352079960
  N          -1.33090047751684      0.36340985695590     11.66492406838706
  C          -0.61512818691729     -0.63427146388514     12.19159869008013
  H          -0.69830178792121     -0.72358162451789     13.26607656139970
  N           0.17942588422066     -1.51101099937684     11.63250608107339
  C           0.23250716575716     -1.37581263722182     10.30229840228246
  C          -0.48163268964168     -0.40049896393333      9.60323985119498
  C          -1.27819021147548      0.49740742375831     10.34836462204234
  N          -1.92037402961650      1.53208829620869      9.70157952218885
  H          -2.72056125196605      1.97872009669313     10.12320617007766
  H          -1.99715009576565      1.49006451484110      8.68371717506055
  N          -0.22107076319125     -0.48199259102641      8.26506688439017
  C           0.60924825450797     -1.47485487529858      8.11871771388441
  H           1.00780319927169     -1.78432122129808      7.16751666965765
  N           0.93002492258684     -2.06130914413180      9.32683190516877
  O           3.04369207950949     -3.09898675145812      3.77586904303308
  O           1.02040206602387     -1.51402781071082      3.93884078222344
