159
Coordinates from ORCA-job ump_frame16 E -13412.059381134179
  Si          3.50084381073272     33.90042377296030      7.78550407559803
  Si          3.45971826235885     30.79398654545593      7.80847170852973
  O           2.28857879658014     34.79785326116217      8.39807848025789
  O           2.17039889866151     30.04033840643200      8.45816191347640
  O           3.46811896664010     32.35248722569663      8.32295909165667
  O           3.49940336702564     33.88855936570724      6.14740045845839
  O           3.42663616202544     30.84345602837751      6.17264162904736
  Si          6.14633537780842     26.13557786633735      7.79415509807970
  Si          8.82822467493691     24.54743309973597      7.78999756481172
  O           4.80262025447752     25.48647799676863      8.44384597225099
  O           7.48946731628657     25.34708612508756      8.30375793799655
  O           8.78118504745858     23.04989600902110      8.43057319547735
  O           6.11550737829411     26.13927297885690      6.15677251243196
  O           8.78657817721067     24.54008245091717      6.15445754084125
  Si          6.11970225645955     29.22549771129892      7.68728547872352
  Si          6.16606127426976     35.45569791774994      7.67314673233502
  Si          8.89376844811663     33.85967993775657      7.59458967563643
  Si          8.86873282719487     30.77900909759398      7.60527100408015
  O           4.84344849468004     30.04916302350687      8.29448937437634
  O           4.89350654283647     34.62678789552055      8.27175845689573
  O           7.55472962986460     34.67578396492536      8.03802390921219
  O           7.49000782190809     30.03720442188208      8.05049857219213
  O           6.20826252814259     27.70675532554359      8.28042731318122
  O           8.83703459297054     32.32150889319681      8.14772835996206
  O           5.89042308046860     29.16541465537413      6.06822852726544
  O           5.99913400250450     35.61107369222424      6.05295888255427
  O           9.04140459388119     33.82916042933287      5.96467142107410
  O           8.98889012093012     30.85675168240381      5.97608802446956
  Si          6.19527102989612     38.54891615590336      7.79467771842614
  Si          8.91297673849239     40.06515379574424      7.80916736487897
  O           4.91626433859333     39.33175385390550      8.43259042394003
  O           7.55246297528801     39.30810576330882      8.32142257407283
  O           6.23172321892376     36.97548606990598      8.27291355556595
  O           9.04101654855939     41.55804776106513      8.44532399469326
  O           6.22687464882408     38.60167174476603      6.15892243246210
  O           8.92517328713982     40.08039895539802      6.17020457594957
  Si         11.51734100110594     26.07872448136071      7.69357883295585
  Si         14.19362966923447     24.53577821253445      7.78715460716366
  O          10.16655228293628     25.36979300915422      8.28284428011963
  O          12.87241589492356     25.38333076485756      8.27977345182727
  O          14.01913443745801     23.03810963921804      8.39970385753882
  O          11.46042126481444     25.88627289307994      6.07017111598674
  O          14.20034662461253     24.53946855241401      6.14952869817277
  Si         11.52332328186664     29.23533116857284      7.65098421056139
  Si         11.58519552399356     35.36598966544000      7.65842806113720
  Si         14.23792365660745     33.81746290715785      7.66776264119956
  Si         14.19517042756092     30.75268063748189      7.68557719221858
  O          10.16066874276783     29.96166712389376      8.19721190136239
  O          10.20222155115412     34.65405478359889      8.16765147632121
  O          12.93840619937493     34.63502062527844      8.22183053952435
  O          12.84819129675337     29.99765234003916      8.26369403328200
  O          11.50505376306118     27.66759768969947      8.08684417925481
  O          14.27782186480878     32.28401292879260      8.24928290806911
  O          11.53018381220753     29.38511604333867      6.02457049332438
  O          11.65481839915389     35.19899156301197      6.02575242675527
  O          14.12566000572937     33.68958738315897      6.03872258724417
  O          14.03934624272315     30.78994078588709      6.05708587419439
  Si         11.58619306548664     38.53194283522313      7.67888454386997
  Si         14.28539420499378     40.06594742798566      7.78565631735699
  O          10.23686078939900     39.21917868119142      8.29782252817822
  O          12.94637098125633     39.23861247998977      8.24531574028711
  O          11.60947854176889     36.94456824848185      8.05354713751518
  O          14.26315615217597     41.55408923331014      8.44762940297947
  O          11.60135007420403     38.74895140466926      6.05753270273985
  O          14.37578428437472     40.08301635649400      6.15034017511981
  Si         16.90408851367398     26.05650612162248      7.81345840616875
  O          15.55254665764675     25.27758651498850      8.32263995285031
  O          18.20311006939181     25.31707333929791      8.45928379101550
  O          16.87914224749020     26.01606626957374      6.17748157425107
  Si         16.91087564841563     29.14691000871976      7.72519523566828
  Si         16.97741982477452     35.38717300608122      7.70667655031495
  Si         19.63955787056592     33.81342303919440      7.79871396590097
  Si         19.57936780609529     30.69836248609702      7.80913578615483
  O          15.51620621319531     29.90786750695906      8.11557096010896
  O          15.61507368273933     34.57349047865457      8.09733311821226
  O          18.27063635368514     34.57840833829126      8.29881502463190
  O          18.18518117642737     29.98209562933345      8.31408289178646
  O          16.85220996124376     27.62239921224839      8.31287293959885
  O          19.61219481846706     32.25575415525640      8.31817424677782
  O          17.06116964861921     29.00992362348974      6.10212470302399
  O          17.17851776457598     35.43539840839268      6.08342134453197
  O          19.64961222983658     33.77393123134434      6.16301220133836
  O          19.56676470015008     30.67253631974294      6.17106171473764
  Si         16.95596164156927     38.47516159208198      7.78830878020685
  O          15.62662873446521     39.27806925383398      8.31089334352556
  O          18.33326401491615     39.08732653160961      8.40280179082895
  O          16.89325726280547     36.90971062315118      8.29056597723862
  O          16.95289011992619     38.46438251321126      6.15048598693654
  O          20.80777938341253     29.83526334915785      8.43787590378556
  O          20.97583142839024     34.50399145745682      8.42494161781367
  H           4.07465754099158     24.98677213789178      8.03659118552290
  H           1.41040897016976     29.60201495580926      8.03674925973575
  H           1.41040894094573     35.00798500666225      8.03674924797986
  H           4.07465743849419     39.62322796389236      8.03659115812561
  H           8.94818084530678     22.17325470412661      8.03830168944325
  H           8.94818087096447     42.43674535441696      8.03830166855996
  H          14.27776172050729     22.17320375083243      8.03828216632432
  H          14.27776173085968     42.43679616709207      8.03828219053988
  H          18.96055657980018     24.87622777654034      8.03640577901466
  H          18.96055647414986     39.73377216232243      8.03640579616911
  H          21.62471723440641     29.49141992998078      8.03658340760100
  H          21.62471723811406     35.11858007645525      8.03658341038751
  H          13.35907393801096     34.15799557410714      5.66885975620386
  H          10.86325612490503     34.79886158478435      5.63502686796772
  H           9.01344782463154     32.94121961003116      5.57807137948538
  H           9.76025604394923     30.39856708788380      5.60874801316331
  H          12.31476552753885     29.83519441524061      5.67041085931116
  H          14.05701593814319     31.68679195144411      5.68451785553159
  H          13.56658789405591     39.81423209922205      5.69499938432531
  H          10.78101731996242     39.11004679248284      5.69231013181908
  H           8.15834150965311     39.65909050444676      5.75800570287336
  H           6.09748996101414     37.74588912446772      5.72576654435992
  H           5.29781223356259     35.07201719233995      5.66154743278015
  H           3.49445365294537     33.00491815536032      5.75320370928764
  H           4.09495005948378     30.29111968018292      5.74177173023388
  H           6.00670484425619     28.29166764767849      5.67027528217167
  H           6.85454708928227     25.68065230217236      5.73524182675810
  H           9.58767073977832     24.87960357888809      5.73053438173912
  H          12.27248665063269     25.54938563312859      5.66772204191128
  H          14.96256701795613     24.98319467212177      5.75218013587658
  H          17.01479991416929     26.87458876825071      5.75158422907360
  H          17.77031976213437     29.54289212709104      5.71507582806765
  H          19.59483856082933     31.54291139774643      5.75102003665221
  H          18.95453591601095     34.30337021404270      5.74581729443717
  H          17.05809486256853     36.30640243731121      5.68064460675741
  H          16.19976642568351     38.92038865387328      5.74906139898891
  N           9.15280376870166     35.35906956834312     11.21223103734393
  C           7.95966345636866     36.02224802877834     11.33585553218164
  N           6.85341403183111     35.22911424288273     11.37875739618202
  C           6.81206506158394     33.83776641151586     11.37040555573868
  C           8.10752269752102     33.22811551421585     11.27322736288037
  C           9.20851759472641     33.99846057320187     11.19052968046881
  O           7.89174359162569     37.24481705851137     11.40821741152449
  O           5.73758922171897     33.26028594071155     11.44206188814555
  C          10.35675413337863     36.19868750198667     11.06683043458968
  C          10.76596939041683     36.91149810701162     12.36086024372984
  C          12.27931280581392     37.00331533570549     12.19638139408658
  C          12.60575592486257     35.71878405561787     11.45471832212121
  O          12.61232651364828     38.10869647365788     11.39015220175859
  O          11.42696804849266     35.39684339003144     10.69504322700704
  C          12.98806417973175     34.57697328327730     12.36760866475388
  O          13.38443779908262     33.44849876448566     11.61245737301939
  P          12.70143333349309     31.98661169504020     11.79102153886111
  O          11.84034264023279     31.99768203076260     13.00638758770568
  O          11.71465339441800     31.90476612249651     10.50488824557371
  O          13.78673793863697     30.98224125414216     11.60978350370005
  H           5.97075238551431     35.71500201614247     11.47409288706598
  H           8.18267394090962     32.15175952859948     11.24074934297633
  H          10.19816703942708     33.58088051316800     11.07796186076734
  H          10.12504717648968     36.93192593034603     10.28739775022476
  H          12.78979415940208     37.05675327864829     13.16392680803031
  H          13.40815171692921     35.89571391184023     10.73508521242971
  H          11.93419539184561     38.77932163535228     11.55695089671420
  H          13.83753599740092     34.90046835592280     12.97809734963186
  H          12.16269274463601     34.31368607085793     13.03393211910659
  H          12.08742075323095     31.32174164388300      9.83176774844668
  O          10.21479035616520     38.19073840039412     12.50438593235254
  H          10.52593974444245     36.26754008298563     13.21574213150068
  H           9.30457723444494     38.13665962968745     12.15954735829790
