159
Coordinates from ORCA-job ump_frame16_dry E -13411.858280223489
  Si          3.53753176436474     33.96609773525144      7.83617979765841
  Si          3.40759179772396     30.87930032503572      7.85673209248022
  O           2.31870856928444     34.92037352121338      8.35288854586458
  O           2.01326640668440     30.24949053698241      8.42415701084449
  O           3.44103989605003     32.42765816230582      8.37066969670468
  O           3.59368852072602     33.90261233433936      6.18948030025645
  O           3.44336642159901     30.92815289457753      6.21045884592501
  Si          6.11140024109395     26.19946808404209      7.83392792003464
  Si          8.73430458485653     24.55289641698835      7.85319607353628
  O           4.67802494518152     25.65243047047442      8.38766794162116
  O           7.38767700825669     25.33122262622719      8.36975954175025
  O           8.58805494520700     23.00940231462208      8.37001401244572
  O           6.17056347509394     26.19268430277930      6.18828812081738
  O           8.72979487194637     24.65876530909731      6.21032514791301
  Si          6.02776638067606     29.27052318515973      7.73556210554869
  Si          6.18552624253170     35.52379875102350      7.76747474223206
  Si          8.89191328042525     33.87161878984328      7.66110065051803
  Si          8.81708800713178     30.80482915002612      7.69819718133098
  O           4.72895285164598     30.05045350997126      8.34930612194489
  O           4.90917014611804     34.69134677461722      8.33783041503876
  O           7.57110590989640     34.73745100077888      8.07910752267317
  O           7.36828576529276     30.13262079134675      8.01721838951775
  O           6.19267049474083     27.75750622363529      8.32261967990763
  O           8.79697307480023     32.34812110721501      8.24415567024326
  O           5.71732477124171     29.15888182016791      6.12186938505186
  O           5.97102759288108     35.73414109186974      6.14801190099314
  O           8.99313104905008     33.76510049379212      6.02458393023719
  O           9.07648538026735     30.89193629024624      6.07901941203976
  Si          6.22873121073887     38.59851743621542      7.86980356589690
  Si          8.95345964004047     40.06497417686974      7.85120987991733
  O           4.93812028938997     39.42868836977513      8.42958272958600
  O           7.56303634299027     39.38756966827403      8.38164646963520
  O           6.24813893020672     37.04024694770919      8.37863485365776
  O           9.17608556942567     41.57808736778760      8.41623644793489
  O           6.28897017242807     38.58522459462250      6.22512286811282
  O           8.90868064772532     40.03540305103076      6.20388851007047
  Si         11.42348694426222     26.05412884711131      7.82034233298980
  Si         14.11772726485599     24.55483339834164      7.85224365149132
  O          10.08569934730638     25.29644910349739      8.39278152403551
  O          12.79325424955654     25.35960087701633      8.37277100172408
  O          13.91237768035563     23.01188866903419      8.35203138476039
  O          11.35822562038769     25.80838915228436      6.19194477205454
  O          14.14524499147454     24.65776951927347      6.20865178203248
  Si         11.42406040605971     29.23277530567465      7.85519957685275
  Si         11.58375580898333     35.36468733880752      7.58071142541434
  Si         14.27682375324601     33.84312487772362      7.45802218548799
  Si         14.20262762159701     30.67641792092113      8.26510766664595
  O          10.00324393751418     29.90726598707380      8.35634865599030
  O          10.21694576649579     34.66821932783012      8.17313094954522
  O          12.95626088253237     34.64288598436502      8.02793884028896
  O          12.64879958140571     29.98404800447295      8.59465748373131
  O          11.37334039799962     27.62779944753980      8.19291620348748
  O          14.27018909478598     32.29759804761211      7.85684145275406
  O          11.49618991972821     29.48376554111739      6.23884535497840
  O          11.49414767125886     35.24466745982310      5.94307023201164
  O          14.25898463931527     34.04420037829301      5.83315871932490
  O          13.99231632592006     30.13316484796859      6.61750128505172
  Si         11.62105924136833     38.54212896972006      7.71766225178039
  Si         14.29158213209201     40.06739808509322      7.86686639417356
  O          10.25205581457664     39.19820392469739      8.32655831350272
  O          12.96691908601603     39.23191159182967      8.32517624234690
  O          11.61769096574894     36.94743494553323      7.99602259355557
  O          14.24842348795809     41.57975992819773      8.48322448523138
  O          11.67348726586427     38.89025739679814      6.10903818898294
  O          14.34302610325156     40.06949773709654      6.21887984630753
  Si         16.85516009966612     25.99613678428165      7.89201746451525
  O          15.48770352001599     25.25102683720960      8.40326194738570
  O          18.06631536635690     25.00926715721980      8.37697616460771
  O          16.75490772536607     26.08767813023379      6.24913909015438
  Si         16.99233251326319     29.08616916790304      7.94534707309910
  Si         17.00176944161706     35.40682827797648      7.71091664196517
  Si         19.62890576435546     33.82393753890066      7.87144455069025
  Si         19.61589593279754     30.73879893361644      7.91315547498702
  O          15.68221428584006     29.86179460452563      8.39866002077517
  O          15.64728518015346     34.57965543069842      7.99632952560986
  O          18.30239603680082     34.64791190820644      8.34927558728837
  O          18.36698497777271     29.83678602200351      8.44158899511347
  O          16.98675639874883     27.51818389409068      8.45549226039148
  O          19.55567928773579     32.28749383913870      8.41862181021302
  O          17.10038169776534     28.97536409216944      6.29022208442774
  O          17.36399984053131     35.49942154086894      6.10567904978917
  O          19.62072567076687     33.74623645924587      6.22662477943210
  O          19.50272469971804     30.73017044859982      6.26645938469552
  Si         16.94968793756328     38.48674529368842      7.81517137669369
  O          15.66427588660426     39.33711847213299      8.36167326067875
  O          18.37098864745007     39.05442468951045      8.38615686424713
  O          16.86194535406057     36.93089524194867      8.28669860809181
  O          16.89965709511954     38.53707265101578      6.17104829349886
  O          21.03570033650568     30.13315450784994      8.44720493565259
  O          21.01895772459708     34.47624904237330      8.43388119947282
  H           4.07465754136373     24.98677213577395      8.03659118565592
  H           1.41040897201678     29.60201495643378      8.03674925969907
  H           1.41040894223018     35.00798500562630      8.03674924805033
  H           4.07465744640015     39.62322796164963      8.03659115813899
  H           8.94818084289127     22.17325471519148      8.03830168939074
  H           8.94818087035152     42.43674534599643      8.03830166846619
  H          14.27776172019277     22.17320375840920      8.03828216621798
  H          14.27776173159854     42.43679616776102      8.03828219044461
  H          18.96055658179339     24.87622777469571      8.03640577898395
  H          18.96055646510922     39.73377215672494      8.03640579623201
  H          21.62471723175236     29.49141993209864      8.03658340763032
  H          21.62471723901009     35.11858007566142      8.03658341049369
  H          13.40943964596696     34.36151550942450      5.50429017953401
  H          10.68437717393851     34.81090043045496      5.63675953841214
  H           9.01116355351824     32.84301977793200      5.71766688399839
  H           9.90757651288321     30.44220991866653      5.82860810769725
  H          12.42928658629960     29.77482201128201      6.05940847895823
  H          14.79032028798829     30.20313028135443      6.09084965971668
  H          13.50950113638567     39.76673991700877      5.82629592731652
  H          10.82280943866324     39.15997435096741      5.73913002199801
  H           8.11275749650101     39.60242274919274      5.86194461383929
  H           6.15327471378643     37.69762192868097      5.85562129879906
  H           5.31042674558290     35.14129181967735      5.76484435673683
  H           3.55964659638914     32.99533759082442      5.85167522472946
  H           4.12290086566918     30.34496845706007      5.83610433905580
  H           5.91856959285981     28.29327831214826      5.74217129303923
  H           6.95057994021830     25.72894042225223      5.84778592008467
  H           9.57014287409878     25.00168420953554      5.86329470726925
  H          12.20599599394588     25.55620573516401      5.80246212079755
  H          14.93336814698189     25.11934661526245      5.88322081814464
  H          16.86808701753655     26.99968371825525      5.93296536200700
  H          17.81788801552572     29.51745970899840      5.93189365118409
  H          19.57208982901439     31.61795087188906      5.88659807213253
  H          18.93160501970377     34.30874604672383      5.83739334718991
  H          17.08552208017511     36.31386837753016      5.67276183909704
  H          16.11885544203612     39.00507058128132      5.84070830087408
  N           9.69041572754070     35.45749627001481     11.30759432901254
  C           8.58201918261684     36.23542769892831     11.52906982043421
  N           7.39917730481126     35.56226633662644     11.54430374910920
  C           7.19814969352373     34.17738587954414     11.44977325362169
  C           8.42739975692107     33.44579921604652     11.27746156969009
  C           9.60220346883912     34.09586758660055     11.19785285523937
  O           8.65238224278564     37.44504579657398     11.70915641789547
  O           6.07460935841614     33.72790942036889     11.51853998137408
  C          10.95459080174350     36.17942009441385     11.13253570710726
  C          11.58764085628882     36.68478290590944     12.42680064669889
  C          13.05668290255129     36.78704259318091     12.00926481118759
  C          13.20612341393741     35.64378594863364     11.01105495915115
  O          13.28764651082750     38.01351707027624     11.36994829957530
  O          11.87755610279061     35.31254545627328     10.57214346059404
  C          13.86818883860873     34.42071790904560     11.59963130143902
  O          13.94163295899864     33.40266496068955     10.62502886399234
  P          13.57171851255826     31.88903238751440     11.01352933978891
  O          13.81520206525697     31.62703500902552     12.43244684973867
  O          12.02440734160438     31.77406462898650     10.61925690789215
  O          14.33046599704234     31.04175176571643      9.98102120771988
  H           6.57586526982460     36.12909164050175     11.68583803975188
  H           8.38314647142197     32.37262075285677     11.18116157052150
  H          10.53964348713629     33.58229406250239     11.02373380034250
  H          10.73656643579363     37.02891739408219     10.47451051087436
  H          13.72956223359831     36.65998489665046     12.86712411870931
  H          13.76751291576170     35.99077515191441     10.14148255127802
  H          12.67778482761475     38.64146955181623     11.78296603632842
  H          14.88354296036130     34.69198234350036     11.90870457357312
  H          13.33196220144643     34.06861861585250     12.48626491411153
  H          11.93000719671971     31.12082931473032      9.90413692610048
  O          11.10853491633105     37.92575598713120     12.85812161564384
  H          11.47185643085480     35.91513964075098     13.20221229364138
  H          10.19091208478491     38.00330018229476     12.53533924155503
