161
Coordinates from ORCA-job cmp_prot_al_frame02_dry E -13345.545158242268
  Si          3.47699102157659     33.85428177769418      7.87158602724685
  Si          3.48381075523661     30.76143868849615      7.89148655806516
  O           2.24778219570377     34.75790897208695      8.44454458438656
  O           2.23105731760342     29.88522840711396      8.46102227500146
  O           3.38937048914215     32.30648287384236      8.40569094618464
  O           3.48237180245410     33.80048603624680      6.22630459258984
  O           3.50708989036846     30.83779982946509      6.24708328168026
  Si          6.13993532761345     26.14370140664486      7.88703407227850
  Si          8.79203197378517     24.55248846583295      7.88026351359829
  O           4.74874154012893     25.52775608724750      8.46369281635563
  O           7.44151892461276     25.30506829692201      8.40540495893507
  O           8.74587705983407     23.02572928866769      8.44872114550453
  O           6.17962076143358     26.15605796334404      6.24024376089102
  O           8.75809292735581     24.61160620953302      6.23638306918850
  Si          6.13121383624625     29.21300246446194      7.79833555258784
  Si          6.12585374261903     35.42236202342708      7.77979876140712
  Si          8.89045422304681     33.87259736081275      7.72045475467689
  Si          8.88162265123194     30.78836060258220      7.72817933247300
  O           4.87418125864153     30.06093926415882      8.39697102258471
  O           4.85720256868059     34.56379970882706      8.36055306707432
  O           7.50202878135123     34.64422089829576      8.12427144317110
  O           7.52384574895845     29.98341373602721      8.11784818822109
  O           6.21428253873602     27.69535598062238      8.38846623417374
  O           8.80328304654836     32.30675605990934      8.28700601127034
  O           5.84495356855741     29.11518893931050      6.18137553785546
  O           5.90475311749202     35.59807655509253      6.15765421112597
  O           8.96725807462194     33.77252719606896      6.08496291340778
  O           9.06321679218444     30.83825274917740      6.10233181151973
  Si          6.17402175880278     38.50321942576560      7.85525901575881
  Si          8.84773056596591     40.07133632640234      7.82002264582795
  O           4.90655062388592     39.34791010256046      8.44872688084224
  O           7.55265167703135     39.21720640616354      8.34529316977924
  O           6.15056362169333     36.94358975357611      8.36314739263992
  O           8.60536422941862     41.59464794708445      8.35942356273802
  O           6.17322739210376     38.49978672810732      6.20992419216626
  O           8.86878162842986     39.98513680373139      6.17205660943073
  Si         11.46669111489615     26.07583214434856      7.78876468738337
  Si         14.12532329385806     24.54023969979694      7.82920408848491
  O          10.12007268897091     25.36988668549246      8.38184216111109
  O          12.82392650746882     25.37950558539199      8.35672628991311
  O          13.89285659814114     23.00808147475217      8.33610018816902
  O          11.39865349663601     25.82916330531570      6.16492911685733
  O          14.13735883579802     24.64611182473868      6.18610538066986
  Si         11.53477542626267     29.25089317457444      7.77033354410357
  Al         11.66146924000993     35.42142712659836      7.72440450144150
  Si         14.29402422073998     33.77791445558408      7.78762124220629
  Si         14.21102658348499     30.72714263519422      7.76131742446299
  O          10.20086152520509     30.01102349866044      8.35589139948976
  O          10.18175137123006     34.59794996042691      8.32960215904197
  O          13.08875782398355     34.61598764447281      8.40454335704078
  O          12.88284351471743     29.94960776200148      8.39519028263074
  O          11.46092710120149     27.66796020158269      8.14156547186119
  O          14.37955872007420     32.21416911816974      8.38655754859350
  O          11.54809631619583     29.46267026174291      6.14863018591316
  O          11.83607270251331     35.01690141731353      6.01547471659911
  O          14.05193234831379     33.56788082680293      6.17065801554106
  O          13.92238368736490     30.86609330490252      6.15469709750936
  Si         11.62893158291199     38.70087673883907      7.75650456541682
  Si         14.38928165810514     40.06541322386627      7.82889413410746
  O          10.26952613086752     39.46004585812695      8.31572208433439
  O          12.98238079509768     39.43186591859214      8.35291429884098
  O          11.60252204407942     37.13720454849842      8.04282088779298
  O          14.65257624315607     41.59649434138392      8.33080413595552
  O          11.71023180385186     39.05976611654199      6.13885912828785
  O          14.40511832348665     39.94300781408451      6.18444204574958
  Si         16.85534394473235     25.97714040823547      7.85302424926778
  O          15.50551863643703     25.21297894579950      8.37404571529167
  O          18.10356143621869     25.09839356477014      8.42244275120899
  O          16.78322436153039     25.98503030202926      6.20848325782960
  Si         16.91725173819397     29.05139074322409      7.74236073430406
  Si         17.07712679048180     35.32218418505386      7.76021416960675
  Si         19.69913423157069     33.72277796467890      7.82176202167700
  Si         19.55131201944254     30.63480942235062      7.82772432786940
  O          15.50678022328349     29.79459240121591      8.05495893327308
  O          15.76529366589630     34.43173942629748      8.08782969750355
  O          18.39251871647093     34.54065894800083      8.36024222515832
  O          18.15850436500378     29.92436856530038      8.30985531142312
  O          16.87426908894928     27.53265593407508      8.35266498896459
  O          19.68243628854601     32.17255671978946      8.35538393454130
  O          17.12704006958623     28.84324974959884      6.12217611617656
  O          17.35268589198070     35.40782075602982      6.13803419786544
  O          19.59810001904786     33.64417894372263      6.18066064986687
  O          19.50411248908689     30.68826267630906      6.18104234133508
  Si         16.99261898229380     38.38934136567173      7.81750245003970
  O          15.69479091358717     39.22188061262464      8.35644773672418
  O          18.45011888181310     38.94989415911514      8.27766389118913
  O          16.95095100186670     36.83494514442334      8.33231532419989
  O          16.87378049470941     38.34109234427852      6.17187264854534
  O          20.72933035194389     29.64201498344090      8.36307478477867
  O          21.11790298721274     34.34736600060748      8.33064770212841
  H           4.07465743317647     24.98677204357125      8.03659115535884
  H           1.41040894834874     29.60201496116966      8.03674925689982
  H           1.41040899470977     35.00798500501467      8.03674926099027
  H           4.07465743920000     39.62322796727341      8.03659115979573
  H           8.94818084669919     22.17325466906901      8.03830168892101
  H           8.94818088837209     42.43674530113164      8.03830168095986
  H          14.27776169033284     22.17320387163982      8.03828218871296
  H          14.27776166409702     42.43679617840890      8.03828216866319
  H          18.96055659619947     24.87622777660419      8.03640577902420
  H          18.96055650660344     39.73377224783646      8.03640576382904
  H          21.62471722027132     29.49141992482075      8.03658340813169
  H          21.62471726997158     35.11858009807660      8.03658341131951
  H          13.23333894283671     34.07867683964369      5.90557504075287
  H          11.02922888318086     34.76968846326438      5.55884922583313
  H           8.98074694718651     32.86683897871275      5.74983860898585
  H           9.86430425156655     30.38725424615089      5.78937468909001
  H          12.34477440392544     29.94690538233636      5.85067954572008
  H          13.95476172599290     31.81916672437391      5.89340101157433
  H          13.53793535361183     39.67397379055434      5.83558233104591
  H          10.85413068814919     39.26857345780680      5.74586068309265
  H           8.06114976961572     39.60637392532839      5.80209849061008
  H           6.06598352471463     37.61060528238515      5.83975117634033
  H           5.24438626360890     35.00340487298823      5.78119817180434
  H           3.48248158331263     32.89442837933061      5.88420558301931
  H           4.18489006121275     30.26456783831025      5.85715760619446
  H           6.01489482590864     28.24007008821268      5.80743122434412
  H           6.93675871126343     25.67207318170244      5.87977893127010
  H           9.58349591055496     24.95163022780772      5.85704723966214
  H          12.23914861795035     25.54484203293944      5.77929747736556
  H          14.94439242599269     25.06208335575458      5.84606918132621
  H          16.93915076062857     26.86853267644819      5.83587928325347
  H          17.79481224945631     29.43337688067208      5.74501035165738
  H          19.52807383977632     31.59633659974012      5.84090737119834
  H          18.90581368089077     34.22743582206237      5.82573648967381
  H          17.16093718352274     36.28214101456648      5.76782740639956
  H          16.08071060978602     38.79747720936881      5.84880077794982
  P          15.71530272977130     37.50672589355994     12.54594615527851
  O          16.61892928974926     33.84127668474147     13.12996333653155
  O          19.34784686919039     32.58624571887806     12.68143139280316
  O          17.79180126152359     31.22570762231720     11.08184861739640
  O          17.10060738745358     36.68318044995755     12.83815277962657
  O          15.09970708298438     30.48090452770083     11.44834485556322
  O          15.43842024113885     38.28608331720579     13.75983296580809
  O          14.72459174830787     36.54943730116911     11.94477384352253
  O          16.20919118620747     38.46379264548137     11.32069339486976
  N          14.94907036018094     32.70540063717375     11.95295619056654
  N          13.15490632052966     31.55574317309148     11.04161254019570
  N          11.27940376094740     32.60621680742577     10.21578570571643
  C          18.53760758945996     33.37183724601706     11.84081356192551
  C          17.37161249249252     32.53973148525134     11.31512686613249
  C          17.84429655200942     34.44624667112207     12.65766921090331
  C          16.35132327863376     32.67635527747508     12.45655594292745
  C          17.56262758308672     35.73793146562856     11.92117350076112
  C          14.23949302438994     33.85383746966633     11.86716705533396
  C          14.45749065494573     31.51499626655631     11.48889589014882
  C          12.99084884774861     33.88107782286502     11.32831578156662
  C          12.43918715005195     32.69273484351736     10.84397398775767
  H          19.12361798263723     33.80185265235185     11.02140097065820
  H          16.96549486751714     33.00002191894133     10.40572821817893
  H          18.43505482096069     34.67434311178813     13.54672566378902
  H          16.40439089148071     31.80309816765562     13.11716279062371
  H          16.83553642657839     35.57408582411869     11.11606474702696
  H          18.49696035470706     36.08787006514125     11.46190642325289
  H          19.31478132996477     31.69316317529096     12.31315024212070
  H          17.00367606389239     30.66301250696342     11.09923852279369
  H          14.69535664731789     34.80823697927851     12.18504690161568
  H          12.49037185669295     34.83059737034207     11.21880793027422
  H          10.85525975233758     33.44525933008723      9.82459141898480
  H          10.97373455485531     31.73792778738829      9.80414498769993
  H          15.57671456042597     38.38010630475569     10.60193115518046
  H          12.86753261037350     30.70097812117660     10.58081487130393
