161
Coordinates from ORCA-job cmp_prot_al_frame02_dry E -13345.506654161009
  Si      3.454976     33.844526      7.831490
  Si      3.475330     30.742627      7.823846
  O       2.199451     34.654425      8.475525
  O       2.212226     29.941756      8.467735
  O       3.466961     32.292802      8.353983
  O       3.446678     33.855982      6.192579
  O       3.434368     30.814136      6.188993
  Si      6.161888     26.079944      7.803891
  Si      8.861929     24.535038      7.798608
  O       4.878451     25.326697      8.461534
  O       7.527997     25.338050      8.309107
  O       8.821945     23.044091      8.453623
  O       6.120604     26.110398      6.166795
  O       8.824691     24.506318      6.164021
  Si      6.122881     29.164645      7.701646
  Si      6.107351     35.402367      7.698914
  Si      8.853192     33.825490      7.679044
  Si      8.858536     30.743775      7.658928
  O       4.863207     30.011171      8.307089
  O       4.820343     34.607706      8.321424
  O       7.463827     34.604030      8.091126
  O       7.507320     29.937735      8.078661
  O       6.168191     27.646461      8.298769
  O       8.757368     32.265043      8.231714
  O       5.899242     29.109298      6.082022
  O       5.921806     35.518461      6.073529
  O       8.948774     33.748480      6.040258
  O       8.999452     30.826770      6.030847
  Si      6.134343     38.492908      7.699721
  Si      8.864226     40.107383      7.702382
  O       4.938967     39.359004      8.402011
  O       7.552646     39.214040      8.093780
  O       6.181088     36.941563      8.254077
  O       8.607769     41.582962      8.351400
  O       5.952719     38.454776      6.079490
  O       9.103975     40.145991      6.081433
  Si     11.533700     26.083888      7.701746
  Si     14.198460     24.531172      7.794120
  O      10.191585     25.364203      8.293003
  O      12.887112     25.388396      8.288841
  O      14.012086     23.033752      8.403391
  O      11.479975     25.897480      6.077286
  O      14.208467     24.535285      6.156429
  Si     11.540587     29.243886      7.696816
  Al     11.604723     35.376209      7.737547
  Si     14.256072     33.800391      7.762307
  Si     14.208891     30.749664      7.743002
  O      10.173173     29.957269      8.257443
  O      10.112481     34.601730      8.283389
  O      13.066142     34.640119      8.422662
  O      12.879447     29.960782      8.311287
  O      11.508870     27.667089      8.102233
  O      14.338779     32.252742      8.356378
  O      11.539354     29.427375      6.071423
  O      11.777896     35.062355      6.001750
  O      14.022304     33.648261      6.141761
  O      14.030646     30.853754      6.117823
  Si     11.595587     38.645461      7.718816
  Si     14.332713     40.082143      7.811412
  O      10.240591     39.417124      8.257479
  O      12.951766     39.367701      8.358778
  O      11.577098     37.099232      8.089243
  O      14.520305     41.579488      8.425015
  O      11.714852     38.924284      6.097873
  O      14.324095     40.054024      6.176779
  Si     16.909124     26.040142      7.827333
  O      15.556963     25.265146      8.335684
  O      18.196648     25.284565      8.475708
  O      16.888279     26.003769      6.191237
  Si     16.917426     29.124740      7.739223
  Si     17.034476     35.357315      7.666325
  Si     19.686584     33.777496      7.783411
  Si     19.578826     30.673230      7.815972
  O      15.523697     29.871495      8.129907
  O      15.717509     34.493987      8.052063
  O      18.347890     34.589200      8.271013
  O      18.185110     29.968204      8.329498
  O      16.868444     27.602066      8.331749
  O      19.630520     32.228874      8.322863
  O      17.073309     28.984303      6.116063
  O      17.243086     35.418110      6.043044
  O      19.692659     33.715547      6.146968
  O      19.562214     30.648545      6.177567
  Si     16.975173     38.447939      7.778253
  O      15.636754     39.222519      8.316459
  O      18.350646     39.065809      8.394297
  O      16.927084     36.877236      8.257522
  O      16.973400     38.468228      6.140141
  O      20.793818     29.789919      8.441377
  O      21.049851     34.422512      8.398165
  H       4.074657     24.986772      8.036591
  H       1.410409     29.602015      8.036749
  H       1.410409     35.007985      8.036749
  H       4.074657     39.623228      8.036591
  H       8.948181     22.173255      8.038302
  H       8.948181     42.436745      8.038302
  H      14.277762     22.173204      8.038282
  H      14.277762     42.436796      8.038282
  H      18.960557     24.876228      8.036406
  H      18.960557     39.733772      8.036406
  H      21.624717     29.491420      8.036583
  H      21.624717     35.118580      8.036583
  H      13.179182     34.122856      5.894508
  H      10.992226     34.668452      5.608140
  H       8.949033     32.845630      5.690500
  H       9.796730     30.398628      5.680013
  H      12.323739     29.892978      5.733924
  H      14.001944     31.785197      5.819345
  H      13.485647     39.727277      5.806990
  H      10.925717     39.334312      5.713222
  H       8.376661     40.401592      5.507321
  H       5.909255     37.558759      5.713841
  H       5.205039     34.977051      5.712417
  H       3.424180     32.978201      5.785888
  H       4.089027     30.257046      5.744557
  H       6.013897     28.233858      5.686492
  H       6.828648     25.622254      5.727098
  H       9.616605     24.863411      5.737554
  H      12.289519     25.551619      5.677207
  H      14.971285     24.979407      5.760548
  H      17.024055     26.864619      5.769371
  H      17.783441     29.517994      5.731197
  H      19.595922     31.521127      5.761162
  H      19.007413     34.253476      5.724276
  H      17.139087     36.294101      5.647671
  H      16.199276     38.890335      5.742996
  P      13.302344     38.110268     12.266026
  O      15.284890     34.830007     13.065564
  O      18.251395     34.453781     12.649150
  O      17.181674     32.630012     11.046422
  O      14.798643     37.618253     12.647292
  O      14.902314     31.088773     11.560053
  O      12.777235     38.728208     13.511352
  O      12.566265     37.003085     11.584463
  O      13.586913     39.287197     11.193576
  N      14.054364     33.162676     11.980834
  N      12.681294     31.426783     11.297910
  N      10.425144     31.682990     10.949693
  C      17.253133     34.919523     11.770102
  C      16.391865     33.760334     11.284738
  C      16.258140     35.760300     12.546707
  C      15.395725     33.599978     12.439228
  C      15.580329     36.852162     11.750737
  C      12.993202     33.999433     11.932134
  C      13.949290     31.845745     11.611083
  C      11.756559     33.573888     11.583598
  C      11.581932     32.213984     11.266410
  H      17.694166     35.475634     10.936663
  H      15.848462     34.068577     10.386691
  H      16.751548     36.212398     13.410008
  H      15.732685     32.828155     13.138391
  H      14.962102     36.428969     10.952509
  H      16.346044     37.488910     11.295645
  H      18.515731     33.581868     12.323219
  H      16.602191     31.854250     11.119696
  H      13.177033     35.042309     12.165947
  H      10.923588     34.258496     11.538876
  H       9.611996     32.270930     10.859506
  H      10.340706     30.717951     10.669501
  H      13.260506     39.070784     10.307786
  H      12.612317     30.450587     11.036665
161
Coordinates from ORCA-job cmp_prot_al_frame02_dry E -13345.518404434986
  Si      3.454435     33.846383      7.837012
  Si      3.474694     30.744353      7.831216
  O       2.194734     34.656758      8.475430
  O       2.207889     29.939777      8.467689
  O       3.464496     32.293669      8.357451
  O       3.435804     33.850176      6.196192
  O       3.434564     30.811698      6.194384
  Si      6.162270     26.079335      7.818438
  Si      8.862412     24.536057      7.820223
  O       4.872349     25.325287      8.464979
  O       7.525782     25.335892      8.325184
  O       8.820633     23.036954      8.459101
  O       6.126652     26.101642      6.179039
  O       8.832243     24.514912      6.183689
  Si      6.120948     29.164485      7.706515
  Si      6.104868     35.408700      7.697924
  Si      8.853127     33.832559      7.661720
  Si      8.856318     30.748367      7.638911
  O       4.862143     30.011980      8.310515
  O       4.818514     34.609208      8.319998
  O       7.462849     34.608147      8.076359
  O       7.506687     29.942069      8.068557
  O       6.167971     27.646626      8.306021
  O       8.755323     32.267430      8.209183
  O       5.886397     29.095813      6.087430
  O       5.901006     35.531777      6.073557
  O       8.947091     33.745843      6.022829
  O       9.006905     30.812422      6.010764
  Si      6.134975     38.497933      7.713467
  Si      8.863549     40.105810      7.721031
  O       4.931003     39.361489      8.407513
  O       7.550512     39.216503      8.110140
  O       6.177833     36.944223      8.257787
  O       8.606617     41.589753      8.355180
  O       5.959302     38.466818      6.091291
  O       9.085478     40.143586      6.093888
  Si     11.533712     26.086402      7.735146
  Si     14.198110     24.531801      7.817851
  O      10.190052     25.363662      8.319415
  O      12.887949     25.387689      8.316028
  O      14.012869     23.026313      8.410813
  O      11.482588     25.896367      6.109636
  O      14.209092     24.541948      6.178530
  Si     11.542998     29.246555      7.707260
  Al     11.607160     35.377969      7.732837
  Si     14.259078     33.805331      7.758455
  Si     14.214214     30.754046      7.751766
  O      10.173326     29.972690      8.249002
  O      10.111070     34.600981      8.270711
  O      13.069234     34.639877      8.417696
  O      12.878995     29.968169      8.320939
  O      11.508204     27.672251      8.127920
  O      14.343760     32.256586      8.358672
  O      11.553461     29.414337      6.080197
  O      11.782297     35.055447      5.998358
  O      14.022960     33.641590      6.139145
  O      14.033431     30.853042      6.126506
  Si     11.595746     38.644889      7.729019
  Si     14.329605     40.081269      7.834522
  O      10.239521     39.417375      8.267155
  O      12.950500     39.363336      8.374023
  O      11.578221     37.098362      8.082232
  O      14.520545     41.586813      8.431657
  O      11.710658     38.945603      6.108688
  O      14.319355     40.054466      6.197512
  Si     16.908857     26.039669      7.847909
  O      15.558844     25.260888      8.355646
  O      18.202377     25.278948      8.480973
  O      16.882422     26.007339      6.210102
  Si     16.920098     29.123497      7.760284
  Si     17.040502     35.362944      7.662277
  Si     19.687946     33.776936      7.792833
  Si     19.580106     30.674076      7.832194
  O      15.526494     29.873094      8.142091
  O      15.722653     34.501278      8.041314
  O      18.351634     34.592223      8.271242
  O      18.188495     29.967039      8.345147
  O      16.870617     27.599231      8.351243
  O      19.634943     32.228975      8.332668
  O      17.083138     28.977585      6.136632
  O      17.261512     35.433093      6.039360
  O      19.692519     33.712285      6.154518
  O      19.563139     30.650513      6.191698
  Si     16.974132     38.452911      7.787255
  O      15.639875     39.224752      8.328865
  O      18.357384     39.067642      8.393357
  O      16.931889     36.879935      8.256388
  O      16.968104     38.480489      6.147032
  O      20.800357     29.786685      8.445519
  O      21.055244     34.425077      8.398781
  H       4.074657     24.986772      8.036591
  H       1.410409     29.602015      8.036749
  H       1.410409     35.007985      8.036749
  H       4.074657     39.623228      8.036591
  H       8.948181     22.173255      8.038302
  H       8.948181     42.436745      8.038302
  H      14.277762     22.173204      8.038282
  H      14.277762     42.436796      8.038282
  H      18.960557     24.876228      8.036406
  H      18.960556     39.733772      8.036406
  H      21.624717     29.491420      8.036583
  H      21.624717     35.118580      8.036583
  H      13.181912     34.124168      5.890702
  H      10.994671     34.667961      5.606648
  H       8.940749     32.842159      5.681353
  H       9.805269     30.377618      5.674074
  H      12.345338     29.871316      5.748234
  H      14.014812     31.787199      5.829138
  H      13.481615     39.721902      5.834653
  H      10.917519     39.350008      5.735681
  H       8.347415     40.385398      5.533062
  H       5.925882     37.572361      5.725237
  H       5.183830     34.990579      5.722060
  H       3.407919     32.971407      5.798020
  H       4.091963     30.256603      5.755507
  H       6.002604     28.219538      5.701277
  H       6.833321     25.607777      5.748446
  H       9.624913     24.875087      5.765454
  H      12.292858     25.553588      5.714624
  H      14.974924     24.982401      5.788954
  H      17.015959     26.869978      5.794512
  H      17.792055     29.513036      5.757517
  H      19.601210     31.524207      5.781865
  H      19.004742     34.249512      5.737306
  H      17.154370     36.311215      5.654221
  H      16.192821     38.907561      5.761065
  P      13.333425     38.009019     12.281899
  O      15.327769     34.898650     13.015534
  O      18.295103     34.451344     12.613276
  O      17.182169     32.640355     11.023819
  O      14.865055     37.604039     12.644725
  O      14.851278     31.176747     11.555329
  O      12.777151     38.561796     13.538796
  O      12.702944     36.846264     11.579786
  O      13.562451     39.216342     11.225495
  N      14.067117     33.292368     11.893276
  N      12.657347     31.588617     11.215101
  N      10.419218     31.883495     10.808367
  C      17.308502     34.938334     11.733488
  C      16.422312     33.794040     11.251615
  C      16.327763     35.802737     12.505444
  C      15.411698     33.676622     12.393222
  C      15.650416     36.898056     11.723287
  C      13.041377     34.171273     11.780231
  C      13.931956     31.972987     11.551249
  C      11.799221     33.773206     11.395296
  C      11.587603     32.411750     11.126813
  H      17.763248     35.479823     10.897429
  H      15.880824     34.100274     10.354371
  H      16.820247     36.242277     13.374796
  H      15.704220     32.889681     13.097313
  H      15.028757     36.478604     10.922135
  H      16.402925     37.559294     11.276287
  H      18.538286     33.576367     12.283970
  H      16.582085     31.882426     11.096906
  H      13.250208     35.225672     11.985152
  H      10.997185     34.489589     11.296057
  H       9.621783     32.479844     10.664641
  H      10.321583     30.903272     10.585294
  H      13.249472     39.009099     10.337734
  H      12.567867     30.609862     10.979381
161
Coordinates from ORCA-job cmp_prot_al_frame02_dry E -13345.525171277623
  Si      3.456523     33.847613      7.865396
  Si      3.476113     30.746272      7.857139
  O       2.185585     34.657738      8.484951
  O       2.201372     29.935745      8.474674
  O       3.459806     32.292999      8.380743
  O       3.437376     33.842982      6.221793
  O       3.444235     30.811055      6.217368
  Si      6.163824     26.079349      7.844145
  Si      8.862486     24.537343      7.846971
  O       4.866081     25.320959      8.472154
  O       7.523942     25.332168      8.348483
  O       8.819403     23.029028      8.466120
  O       6.136108     26.099030      6.201565
  O       8.838077     24.525839      6.207764
  Si      6.120286     29.164573      7.736380
  Si      6.105166     35.414385      7.739552
  Si      8.853964     33.840647      7.699303
  Si      8.855425     30.752586      7.660086
  O       4.859933     30.010732      8.335768
  O       4.814040     34.609786      8.350578
  O       7.461232     34.611362      8.112257
  O       7.506278     29.943164      8.090485
  O       6.167182     27.644131      8.330227
  O       8.753767     32.266233      8.235730
  O       5.879951     29.087067      6.116260
  O       5.893278     35.540794      6.114161
  O       8.947699     33.748342      6.060150
  O       9.014209     30.807715      6.032648
  Si      6.139609     38.500892      7.757224
  Si      8.864912     40.099900      7.772410
  O       4.920121     39.365973      8.425518
  O       7.548722     39.219058      8.160960
  O       6.172398     36.947563      8.298210
  O       8.601855     41.600709      8.368285
  O       5.981368     38.470773      6.131364
  O       9.068438     40.119755      6.137582
  Si     11.534042     26.085785      7.770058
  Si     14.198637     24.532605      7.846119
  O      10.189189     25.360950      8.348007
  O      12.888682     25.384644      8.344738
  O      14.012136     23.018106      8.418840
  O      11.486375     25.889969      6.142855
  O      14.214899     24.550813      6.204369
  Si     11.547472     29.247408      7.735759
  Al     11.609669     35.381667      7.791961
  Si     14.257984     33.808695      7.807447
  Si     14.218912     30.758407      7.797975
  O      10.175825     29.976915      8.269257
  O      10.108602     34.598539      8.318028
  O      13.071757     34.635981      8.471020
  O      12.877795     29.967918      8.359991
  O      11.508630     27.672334      8.158311
  O      14.346373     32.255681      8.407566
  O      11.569620     29.417951      6.108834
  O      11.786483     35.049996      6.058839
  O      14.017061     33.635593      6.189582
  O      14.032936     30.862104      6.173374
  Si     11.599828     38.644423      7.793983
  Si     14.329813     40.080695      7.880027
  O      10.240088     39.424012      8.318342
  O      12.955260     39.371704      8.427309
  O      11.581592     37.099791      8.136812
  O      14.529006     41.600175      8.442022
  O      11.708337     38.952793      6.170692
  O      14.310452     40.036537      6.239858
  Si     16.907499     26.040496      7.880246
  O      15.560520     25.254641      8.382710
  O      18.207562     25.269717      8.490299
  O      16.874318     26.020132      6.239733
  Si     16.921799     29.122519      7.806412
  Si     17.041183     35.364985      7.706417
  Si     19.684800     33.775376      7.828944
  Si     19.579161     30.675480      7.869174
  O      15.529122     29.872176      8.183531
  O      15.723743     34.505330      8.081780
  O      18.355988     34.593767      8.309759
  O      18.192805     29.963746      8.383274
  O      16.872996     27.594024      8.388782
  O      19.641548     32.227399      8.365453
  O      17.089760     28.974203      6.180836
  O      17.268773     35.439444      6.082291
  O      19.673040     33.708546      6.187640
  O      19.555247     30.658180      6.225505
  Si     16.971505     38.453942      7.823971
  O      15.647077     39.231179      8.366019
  O      18.367823     39.069529      8.403643
  O      16.936309     36.882536      8.294087
  O      16.953992     38.477708      6.180554
  O      20.808403     29.780349      8.457422
  O      21.064561     34.426142      8.407595
  H       4.074657     24.986772      8.036591
  H       1.410409     29.602015      8.036749
  H       1.410409     35.007985      8.036749
  H       4.074657     39.623228      8.036591
  H       8.948181     22.173255      8.038302
  H       8.948181     42.436745      8.038302
  H      14.277762     22.173204      8.038282
  H      14.277762     42.436796      8.038282
  H      18.960557     24.876228      8.036406
  H      18.960556     39.733772      8.036406
  H      21.624717     29.491420      8.036583
  H      21.624717     35.118580      8.036583
  H      13.180152     34.129824      5.941796
  H      10.994981     34.674601      5.666298
  H       8.933666     32.845388      5.722653
  H       9.812972     30.367031      5.707451
  H      12.368880     29.871378      5.789434
  H      14.023691     31.800928      5.884824
  H      13.469732     39.695211      5.892901
  H      10.906471     39.340691      5.804382
  H       8.313319     40.328330      5.589302
  H       5.962674     37.575715      5.768348
  H       5.178962     34.995892      5.768025
  H       3.406728     32.961549      5.833130
  H       4.108661     30.258869      5.787546
  H       6.002229     28.210049      5.737342
  H       6.843632     25.599707      5.780955
  H       9.632672     24.891591      5.799324
  H      12.300402     25.551224      5.754668
  H      14.987966     24.986465      5.825479
  H      17.005662     26.888542      5.836582
  H      17.795574     29.516194      5.808112
  H      19.598404     31.535863      5.826770
  H      18.978985     34.246555      5.783685
  H      17.151560     36.318409      5.705411
  H      16.175553     38.910220      5.808790
  P      13.360376     38.123034     12.397585
  O      15.326825     34.933784     13.046359
  O      18.296846     34.492724     12.637296
  O      17.188603     32.680748     11.057024
  O      14.903546     37.685984     12.717781
  O      14.839367     31.211410     11.540821
  O      12.843947     38.703508     13.650363
  O      12.711997     36.952194     11.718263
  O      13.590400     39.289060     11.295083
  N      14.065224     33.334958     11.903874
  N      12.654087     31.649798     11.186647
  N      10.418210     31.961044     10.751958
  C      17.305988     34.982563     11.763914
  C      16.425882     33.833771     11.281063
  C      16.327933     35.847265     12.542182
  C      15.410893     33.719229     12.420284
  C      15.647815     36.965237     11.781922
  C      13.048057     34.220694     11.785942
  C      13.931616     32.020130     11.544886
  C      11.808125     33.832217     11.371881
  C      11.592048     32.486072     11.091415
  H      17.758860     35.526158     10.927592
  H      15.884684     34.129151     10.381024
  H      16.825507     36.271591     13.415481
  H      15.694815     32.923993     13.119864
  H      15.004946     36.561105     10.987848
  H      16.403265     37.610855     11.313507
  H      18.540052     33.622695     12.298379
  H      16.589957     31.922998     11.125905
  H      13.239729     35.290316     11.998677
  H      11.021894     34.565092     11.262362
  H       9.632496     32.563227     10.581557
  H      10.313123     30.983340     10.540941
  H      13.262279     39.053004     10.421114
  H      12.570425     30.679159     10.924039
161
Coordinates from ORCA-job cmp_prot_al_frame02_dry E -13345.529765801752
  Si      3.459766     33.846519      7.877311
  Si      3.479986     30.747006      7.874545
  O       2.183981     34.656467      8.489384
  O       2.200664     29.932418      8.479881
  O       3.458861     32.291556      8.390912
  O       3.426188     33.829009      6.230954
  O       3.451357     30.804038      6.231338
  Si      6.167927     26.080263      7.865426
  Si      8.864127     24.541688      7.869433
  O       4.864061     25.319308      8.478616
  O       7.524299     25.330565      8.367576
  O       8.819589     23.026603      8.472563
  O       6.149244     26.093752      6.219235
  O       8.843800     24.537902      6.227240
  Si      6.120322     29.163644      7.753217
  Si      6.104732     35.419232      7.739208
  Si      8.855000     33.848011      7.687216
  Si      8.855255     30.754749      7.661770
  O       4.860826     30.009229      8.349896
  O       4.814915     34.607735      8.349420
  O       7.460370     34.613527      8.097928
  O       7.507223     29.942581      8.093971
  O       6.169422     27.642711      8.345168
  O       8.748138     32.268422      8.226251
  O       5.866897     29.072509      6.133183
  O       5.873894     35.551709      6.114551
  O       8.950572     33.744458      6.048591
  O       9.022128     30.792259      6.035201
  Si      6.143314     38.502987      7.772115
  Si      8.866054     40.092547      7.791487
  O       4.917276     39.364842      8.434833
  O       7.548638     39.216783      8.178392
  O       6.168718     36.947454      8.300530
  O       8.591249     41.602201      8.364206
  O       5.984217     38.485636      6.143573
  O       9.049224     40.105679      6.148878
  Si     11.533666     26.087910      7.792711
  Si     14.196896     24.536448      7.867953
  O      10.189321     25.362775      8.368526
  O      12.888302     25.386283      8.363308
  O      14.005797     23.015120      8.423352
  O      11.487907     25.877372      6.164566
  O      14.220413     24.563771      6.223428
  Si     11.552369     29.251283      7.750649
  Al     11.614793     35.383442      7.802320
  Si     14.259200     33.808994      7.815580
  Si     14.222326     30.761931      7.819815
  O      10.180303     29.985065      8.276722
  O      10.107461     34.593501      8.315985
  O      13.074889     34.630240      8.480017
  O      12.877521     29.969912      8.384230
  O      11.508381     27.675132      8.172995
  O      14.352194     32.256042      8.425256
  O      11.583808     29.426579      6.124175
  O      11.797880     35.031847      6.073290
  O      14.013130     33.612399      6.201282
  O      14.020134     30.863212      6.196551
  Si     11.605855     38.644368      7.813096
  Si     14.331487     40.077182      7.903971
  O      10.242661     39.428770      8.327533
  O      12.958636     39.373894      8.445647
  O      11.586002     37.099506      8.137689
  O      14.539371     41.603751      8.445350
  O      11.716413     38.972937      6.189670
  O      14.312397     40.028613      6.259551
  Si     16.903077     26.041554      7.906325
  O      15.559844     25.249495      8.403746
  O      18.206683     25.261284      8.498180
  O      16.863929     26.028770      6.262704
  Si     16.921990     29.119251      7.833469
  Si     17.044755     35.365289      7.720173
  Si     19.681585     33.770416      7.848817
  Si     19.574601     30.675110      7.893441
  O      15.529619     29.869360      8.198832
  O      15.726377     34.506430      8.082331
  O      18.359068     34.592908      8.324472
  O      18.192697     29.959897      8.404410
  O      16.871378     27.589985      8.414343
  O      19.645060     32.223845      8.383193
  O      17.103893     28.957888      6.207441
  O      17.293186     35.449924      6.096984
  O      19.660997     33.698422      6.204045
  O      19.547150     30.662994      6.245997
  Si     16.968193     38.451210      7.842684
  O      15.652543     39.231909      8.382811
  O      18.375968     39.060617      8.405081
  O      16.939325     36.880273      8.306516
  O      16.942416     38.477384      6.195644
  O      20.807717     29.771763      8.464273
  O      21.071566     34.419100      8.408433
  H       4.074657     24.986772      8.036591
  H       1.410409     29.602015      8.036749
  H       1.410409     35.007985      8.036749
  H       4.074657     39.623228      8.036591
  H       8.948181     22.173255      8.038302
  H       8.948181     42.436745      8.038302
  H      14.277762     22.173204      8.038282
  H      14.277762     42.436796      8.038282
  H      18.960557     24.876228      8.036406
  H      18.960556     39.733772      8.036406
  H      21.624717     29.491420      8.036583
  H      21.624717     35.118580      8.036583
  H      13.180114     34.115344      5.950225
  H      10.997895     34.680461      5.672940
  H       8.927330     32.839926      5.713735
  H       9.826349     30.351299      5.722440
  H      12.387433     29.883498      5.817555
  H      14.012971     31.805664      5.914178
  H      13.465599     39.685333      5.921747
  H      10.897274     39.328820      5.821535
  H       8.264514     40.240780      5.616268
  H       5.974036     37.590309      5.776835
  H       5.161385     34.996567      5.774650
  H       3.392796     32.940079      5.854757
  H       4.126583     30.254319      5.811311
  H       6.000705     28.191478      5.762087
  H       6.862609     25.588256      5.811642
  H       9.642149     24.911876      5.829070
  H      12.310939     25.545804      5.783846
  H      15.005680     24.993772      5.858094
  H      16.991344     26.905856      5.871995
  H      17.805256     29.513246      5.840324
  H      19.596629     31.548273      5.859583
  H      18.961925     34.241458      5.810730
  H      17.156788     36.332290      5.729056
  H      16.158568     38.919422      5.840609
  P      13.429889     38.081516     12.447277
  O      15.435702     34.911413     13.055699
  O      18.390646     34.463490     12.563810
  O      17.239869     32.681019     10.997880
  O      14.996243     37.677492     12.752900
  O      14.860277     31.228827     11.456261
  O      12.890420     38.619542     13.700265
  O      12.827714     36.906690     11.724632
  O      13.622889     39.261343     11.352292
  N      14.123204     33.354229     11.903914
  N      12.683385     31.720340     11.127173
  N      10.461100     32.092330     10.683022
  C      17.380345     34.972308     11.723713
  C      16.484906     33.833963     11.245761
  C      16.430016     35.832337     12.537523
  C      15.488522     33.711839     12.405888
  C      15.743417     36.973840     11.810882
  C      13.124821     34.259582     11.821739
  C      13.969063     32.054547     11.500017
  C      11.877765     33.905839     11.391268
  C      11.640568     32.583810     11.056637
  H      17.814799     35.526056     10.883911
  H      15.927832     34.133112     10.353680
  H      16.951756     36.237455     13.405848
  H      15.768966     32.892066     13.078324
  H      15.108673     36.586348     11.002961
  H      16.500706     37.626389     11.353742
  H      18.620361     33.598290     12.201214
  H      16.638316     31.924442     11.056855
  H      13.304440     35.330056     12.076089
  H      11.115032     34.666270     11.309069
  H       9.699727     32.718543     10.490977
  H      10.332777     31.120132     10.464573
  H      13.287414     39.017791     10.482716
  H      12.596515     30.770299     10.795522
161
Coordinates from ORCA-job cmp_prot_al_frame02_dry E -13345.532659405382
  Si      3.460782     33.843160      7.881131
  Si      3.483318     30.745284      7.883582
  O       2.183038     34.651947      8.491279
  O       2.202809     29.928234      8.482853
  O       3.457177     32.288537      8.395140
  O       3.421325     33.816277      6.233309
  O       3.458175     30.797547      6.238247
  Si      6.171692     26.080684      7.877045
  Si      8.865782     24.545135      7.882740
  O       4.864693     25.318387      8.481660
  O       7.524656     25.328600      8.379610
  O       8.819172     23.026657      8.476264
  O       6.164113     26.093349      6.228669
  O       8.848710     24.549763      6.238662
  Si      6.121118     29.162076      7.762368
  Si      6.103266     35.420520      7.733092
  Si      8.855954     33.851909      7.679532
  Si      8.857186     30.754508      7.669589
  O       4.862463     30.006886      8.358185
  O       4.815325     34.603998      8.343461
  O       7.458122     34.612565      8.084099
  O       7.509197     29.938750      8.096169
  O       6.171794     27.641177      8.353452
  O       8.741515     32.270072      8.222562
  O       5.856956     29.063568      6.142973
  O       5.863191     35.557202      6.109221
  O       8.959522     33.745150      6.042178
  O       9.032734     30.783636      6.044072
  Si      6.144603     38.503330      7.776704
  Si      8.867478     40.086427      7.797859
  O       4.916612     39.362120      8.439917
  O       7.548187     39.214263      8.185585
  O       6.164335     36.945784      8.296228
  O       8.578162     41.600980      8.352108
  O       5.982661     38.495379      6.146371
  O       9.045932     40.084631      6.151881
  Si     11.532736     26.089772      7.806939
  Si     14.194237     24.539949      7.879280
  O      10.189508     25.364433      8.382423
  O      12.887629     25.388067      8.374540
  O      13.997594     23.014837      8.423089
  O      11.485793     25.868614      6.178630
  O      14.220825     24.581823      6.233235
  Si     11.556006     29.254821      7.770108
  Al     11.618966     35.385348      7.817286
  Si     14.259451     33.806039      7.822714
  Si     14.223021     30.762380      7.836775
  O      10.183302     29.988476      8.293292
  O      10.107073     34.587978      8.319561
  O      13.076411     34.623035      8.491723
  O      12.878819     29.970634      8.410939
  O      11.507832     27.676298      8.184361
  O      14.359548     32.254704      8.439664
  O      11.593711     29.438768      6.144881
  O      11.807926     35.020034      6.091412
  O      14.004309     33.590293      6.212560
  O      14.000347     30.864224      6.215726
  Si     11.613071     38.647388      7.830433
  Si     14.337744     40.074736      7.912774
  O      10.246895     39.436827      8.333373
  O      12.964604     39.381214      8.457459
  O      11.590011     37.101044      8.144987
  O      14.556500     41.604307      8.440010
  O      11.730037     38.983835      6.206980
  O      14.318262     40.014968      6.266006
  Si     16.898959     26.040403      7.920796
  O      15.559221     25.243898      8.416096
  O      18.202569     25.252435      8.502171
  O      16.853093     26.034606      6.275225
  Si     16.921527     29.114038      7.846392
  Si     17.047594     35.361948      7.730235
  Si     19.680095     33.764696      7.856956
  Si     19.569959     30.672704      7.903266
  O      15.528813     29.863406      8.203593
  O      15.727661     34.502933      8.082205
  O      18.362229     34.589649      8.333542
  O      18.191382     29.955667      8.413714
  O      16.869503     27.585895      8.429384
  O      19.649170     32.219232      8.390341
  O      17.114546     28.938755      6.221075
  O      17.312513     35.452035      6.108415
  O      19.648241     33.687047      6.210165
  O      19.533355     30.666764      6.253572
  Si     16.968342     38.445089      7.851274
  O      15.660001     39.232612      8.390538
  O      18.385160     39.047126      8.400647
  O      16.942286     36.875726      8.315331
  O      16.929962     38.466185      6.202036
  O      20.802537     29.762075      8.464638
  O      21.078317     34.408312      8.403113
  H       4.074657     24.986772      8.036591
  H       1.410409     29.602015      8.036749
  H       1.410409     35.007985      8.036749
  H       4.074657     39.623228      8.036591
  H       8.948181     22.173255      8.038302
  H       8.948181     42.436745      8.038302
  H      14.277762     22.173204      8.038282
  H      14.277762     42.436796      8.038282
  H      18.960557     24.876228      8.036406
  H      18.960556     39.733772      8.036406
  H      21.624717     29.491420      8.036583
  H      21.624717     35.118580      8.036583
  H      13.174872     34.100441      5.960632
  H      11.000285     34.700124      5.678414
  H       8.930355     32.840885      5.704599
  H       9.844014     30.348408      5.738637
  H      12.400346     29.900959      5.848567
  H      14.000905     31.809956      5.937625
  H      13.464097     39.677169      5.936081
  H      10.897589     39.300188      5.828364
  H       8.242249     40.113629      5.628601
  H       5.975134     37.600518      5.776153
  H       5.156957     34.990900      5.770414
  H       3.393147     32.921259      5.867041
  H       4.143436     30.250946      5.826881
  H       6.003196     28.180935      5.776038
  H       6.886417     25.587863      5.833250
  H       9.651766     24.927930      5.850388
  H      12.316802     25.547580      5.802220
  H      15.014699     25.010353      5.880335
  H      16.979207     26.918974      5.895783
  H      17.808104     29.508066      5.855760
  H      19.583988     31.558892      5.878326
  H      18.948257     34.238858      5.826236
  H      17.154019     36.334032      5.743576
  H      16.141059     38.914538      5.861165
  P      13.517280     38.182316     12.541326
  O      15.486054     34.894818     13.075772
  O      18.436751     34.475265     12.519888
  O      17.274387     32.696142     10.979001
  O      15.083052     37.725145     12.796364
  O      14.876925     31.230883     11.450278
  O      13.049846     38.771788     13.796924
  O      12.833101     37.023208     11.864735
  O      13.702112     39.320869     11.403178
  N      14.158818     33.357524     11.909703
  N      12.710453     31.752789     11.085057
  N      10.506843     32.178323     10.594096
  C      17.403874     34.983620     11.707557
  C      16.512337     33.842174     11.234896
  C      16.467254     35.827337     12.550732
  C      15.528914     33.704482     12.406380
  C      15.780807     36.982387     11.845858
  C      13.179033     34.275180     11.825404
  C      13.993820     32.065917     11.484019
  C      11.933938     33.947577     11.370890
  C      11.683967     32.635338     11.003909
  H      17.814475     35.551568     10.865566
  H      15.948374     34.137873     10.344642
  H      17.004886     36.218920     13.415986
  H      15.810871     32.870318     13.059728
  H      15.120404     36.609549     11.052358
  H      16.548963     37.604196     11.365268
  H      18.666108     33.616042     12.140982
  H      16.674490     31.936002     11.018172
  H      13.359245     35.342959     12.077767
  H      11.192425     34.728242     11.285451
  H       9.773589     32.829428     10.374265
  H      10.352970     31.210877     10.366176
  H      13.334046     39.044224     10.557092
  H      12.628406     30.819735     10.703191
161
Coordinates from ORCA-job cmp_prot_al_frame02_dry E -13345.535073202142
  Si      3.458947     33.838833      7.880155
  Si      3.485147     30.741908      7.890365
  O       2.181100     34.646906      8.490744
  O       2.203803     29.923788      8.485072
  O       3.453480     32.285394      8.397722
  O       3.419911     33.803841      6.231762
  O       3.467154     30.790811      6.243829
  Si      6.173956     26.080632      7.885057
  Si      8.866354     24.546708      7.890447
  O       4.865101     25.316479      8.482589
  O       7.523673     25.324708      8.388880
  O       8.818845     23.026194      8.477576
  O       6.178964     26.099903      6.235666
  O       8.850805     24.561149      6.245382
  Si      6.122379     29.160638      7.776146
  Si      6.099474     35.420749      7.723297
  Si      8.854520     33.852912      7.671320
  Si      8.859182     30.753732      7.690396
  O       4.862800     30.004369      8.369752
  O       4.814393     34.600463      8.335220
  O       7.454615     34.611543      8.068919
  O       7.511443     29.934091      8.109110
  O       6.173057     27.638879      8.364324
  O       8.734297     32.274127      8.227217
  O       5.853482     29.061959      6.156919
  O       5.855464     35.560145      6.100420
  O       8.964125     33.739851      6.036111
  O       9.041567     30.775700      6.065696
  Si      6.142797     38.504264      7.772653
  Si      8.866824     40.083450      7.785454
  O       4.916293     39.360981      8.440062
  O       7.547343     39.212924      8.180522
  O       6.158933     36.945035      8.286807
  O       8.567641     41.598358      8.333076
  O       5.977961     38.501268      6.141138
  O       9.037819     40.067075      6.137693
  Si     11.530208     26.092751      7.817042
  Si     14.189841     24.542253      7.881119
  O      10.188520     25.365837      8.392735
  O      12.886083     25.389996      8.380447
  O      13.987990     23.014862      8.417301
  O      11.479298     25.867363      6.188707
  O      14.215133     24.601605      6.234595
  Si     11.556887     29.259873      7.794583
  Al     11.621791     35.386292      7.812303
  Si     14.261587     33.801890      7.814213
  Si     14.222899     30.760173      7.842792
  O      10.186575     29.993716      8.323795
  O      10.107880     34.585003      8.314137
  O      13.077899     34.618609      8.484916
  O      12.882567     29.972193      8.435839
  O      11.506229     27.678143      8.196135
  O      14.369127     32.253817      8.439966
  O      11.592925     29.453662      6.170848
  O      11.812352     35.002448      6.090411
  O      13.998617     33.570125      6.207937
  O      13.977236     30.860052      6.224581
  Si     11.619123     38.653082      7.818871
  Si     14.345567     40.074331      7.904631
  O      10.252256     39.445083      8.317521
  O      12.969252     39.385307      8.446145
  O      11.592445     37.103795      8.127319
  O      14.570871     41.603386      8.429010
  O      11.743534     38.996503      6.196947
  O      14.331662     40.007794      6.256788
  Si     16.895704     26.035834      7.923481
  O      15.558417     25.237043      8.419271
  O      18.196998     25.242152      8.501269
  O      16.844185     26.034921      6.276857
  Si     16.921689     29.106768      7.844963
  Si     17.052300     35.358491      7.724991
  Si     19.682255     33.758862      7.849614
  Si     19.566964     30.668389      7.897988
  O      15.528235     29.856022      8.195761
  O      15.730426     34.497967      8.068303
  O      18.366639     34.585991      8.327636
  O      18.190035     29.951258      8.410007
  O      16.868046     27.580815      8.432567
  O      19.654352     32.214239      8.383846
  O      17.122307     28.918649      6.220997
  O      17.329574     35.451987      6.104735
  O      19.641822     33.675323      6.201989
  O      19.519288     30.667294      6.247347
  Si     16.971227     38.439637      7.845596
  O      15.667439     39.233887      8.385158
  O      18.394737     39.032490      8.388171
  O      16.945526     36.871100      8.311201
  O      16.919950     38.453604      6.195407
  O      20.795497     29.751484      8.457533
  O      21.085387     34.396187      8.390336
  H       4.074657     24.986772      8.036591
  H       1.410409     29.602015      8.036749
  H       1.410409     35.007985      8.036749
  H       4.074657     39.623228      8.036591
  H       8.948181     22.173255      8.038302
  H       8.948181     42.436745      8.038302
  H      14.277762     22.173204      8.038282
  H      14.277762     42.436796      8.038282
  H      18.960557     24.876228      8.036406
  H      18.960556     39.733772      8.036406
  H      21.624717     29.491420      8.036583
  H      21.624717     35.118580      8.036583
  H      13.171174     34.084426      5.955033
  H      11.000177     34.710157      5.666906
  H       8.932004     32.835973      5.698826
  H       9.858230     30.346612      5.764892
  H      12.399282     29.923271      5.879849
  H      13.979578     31.808084      5.947716
  H      13.472402     39.680474      5.928362
  H      10.905189     39.283391      5.809153
  H       8.228184     39.979675      5.629247
  H       5.962441     37.607435      5.769680
  H       5.157234     34.985043      5.761011
  H       3.399634     32.904792      5.874400
  H       4.157329     30.242930      5.841608
  H       6.012140     28.181072      5.790599
  H       6.911369     25.600267      5.850428
  H       9.658948     24.938578      5.865684
  H      12.315478     25.557864      5.813385
  H      15.013796     25.030897      5.891811
  H      16.976617     26.922996      5.906066
  H      17.807648     29.497954      5.855095
  H      19.567710     31.563870      5.880921
  H      18.948036     34.239865      5.824029
  H      17.153629     36.331230      5.740441
  H      16.127517     38.905341      5.865549
  P      13.598173     38.145470     12.557189
  O      15.592873     34.858359     13.118820
  O      18.527703     34.450430     12.484541
  O      17.335043     32.678246     10.968983
  O      15.166649     37.698706     12.808574
  O      14.927967     31.229123     11.437256
  O      13.136174     38.726730     13.819606
  O      12.909861     36.990252     11.877719
  O      13.765605     39.292312     11.424039
  N      14.229098     33.340556     11.973608
  N      12.760089     31.773662     11.106662
  N      10.570085     32.254106     10.601595
  C      17.473170     34.959535     11.701294
  C      16.571988     33.820126     11.242544
  C      16.554101     35.794940     12.569008
  C      15.613906     33.672797     12.436111
  C      15.858830     36.942356     11.865149
  C      13.254844     34.265894     11.933042
  C      14.046000     32.063135     11.511039
  C      12.003121     33.965460     11.482309
  C      11.743418     32.669621     11.051536
  H      17.859420     35.534547     10.853016
  H      15.994112     34.120729     10.361823
  H      17.108983     36.190922     13.421421
  H      15.907917     32.831385     13.073267
  H      15.195686     36.565479     11.075445
  H      16.629586     37.556622     11.379156
  H      18.746618     33.591772     12.098279
  H      16.738412     31.916486     10.996190
  H      13.438981     35.318548     12.220414
  H      11.269173     34.756638     11.436463
  H       9.861760     32.932270     10.380205
  H      10.395364     31.299047     10.334839
  H      13.377768     39.009247     10.590363
  H      12.679294     30.870822     10.656208
161
Coordinates from ORCA-job cmp_prot_al_frame02_dry E -13345.537165997881
  Si      3.455194     33.833784      7.868845
  Si      3.485091     30.737457      7.882047
  O       2.179697     34.639005      8.486354
  O       2.208334     29.917436      8.481389
  O       3.449269     32.281344      8.389187
  O       3.420543     33.796508      6.220593
  O       3.467733     30.787118      6.235338
  Si      6.175031     26.080354      7.875605
  Si      8.865588     24.546910      7.882692
  O       4.867620     25.317694      8.476588
  O       7.521980     25.321507      8.383601
  O       8.818373     23.028289      8.473026
  O       6.189682     26.102919      6.226066
  O       8.848414     24.566587      6.237322
  Si      6.122869     29.159515      7.765034
  Si      6.094505     35.419915      7.707349
  Si      8.853173     33.853178      7.652887
  Si      8.861695     30.753426      7.684080
  O       4.864999     30.003248      8.362201
  O       4.813510     34.595652      8.320164
  O       7.450768     34.608420      8.045170
  O       7.514958     29.928850      8.093866
  O       6.175154     27.638725      8.354954
  O       8.728976     32.276937      8.213356
  O       5.844074     29.062103      6.147405
  O       5.849946     35.567278      6.086323
  O       8.969731     33.745422      6.020060
  O       9.051236     30.776078      6.060191
  Si      6.140305     38.505046      7.767574
  Si      8.864438     40.081598      7.765255
  O       4.915544     39.358364      8.439718
  O       7.546441     39.212024      8.176246
  O       6.153851     36.943127      8.274926
  O       8.560540     41.594475      8.311988
  O       5.981651     38.506420      6.134244
  O       9.018943     40.045661      6.116601
  Si     11.526100     26.095833      7.806458
  Si     14.183291     24.543265      7.865637
  O      10.186248     25.369053      8.386023
  O      12.882990     25.393690      8.368587
  O      13.973870     23.016893      8.401486
  O      11.469147     25.864700      6.179100
  O      14.206823     24.618950      6.219483
  Si     11.555970     29.265202      7.795053
  Al     11.624501     35.388577      7.796206
  Si     14.264152     33.796965      7.789316
  Si     14.221519     30.756854      7.823689
  O      10.187583     29.999084      8.330698
  O      10.110127     34.582108      8.299522
  O      13.079351     34.614075      8.464765
  O      12.884961     29.976497      8.437452
  O      11.503425     27.681078      8.184588
  O      14.381065     32.251424      8.419052
  O      11.591940     29.465360      6.172734
  O      11.816431     34.991078      6.077334
  O      13.989393     33.555321      6.186862
  O      13.956004     30.859117      6.208411
  Si     11.625397     38.662493      7.793215
  Si     14.357224     40.075064      7.880234
  O      10.260025     39.455255      8.293213
  O      12.975900     39.389600      8.419255
  O      11.594003     37.108879      8.098205
  O      14.588833     41.600709      8.409187
  O      11.753800     39.009413      6.173313
  O      14.350302     40.000628      6.232665
  Si     16.892161     26.027228      7.909272
  O      15.556151     25.228557      8.407179
  O      18.187145     25.229838      8.493771
  O      16.838279     26.027183      6.262271
  Si     16.921051     29.096428      7.820860
  Si     17.058778     35.353520      7.700722
  Si     19.687513     33.751215      7.824516
  Si     19.563693     30.661052      7.873869
  O      15.525244     29.846078      8.161589
  O      15.733761     34.491157      8.035199
  O      18.371549     34.579922      8.303772
  O      18.185379     29.946491      8.387237
  O      16.864525     27.574479      8.417143
  O      19.660391     32.207121      8.360793
  O      17.130532     28.895082      6.199400
  O      17.345702     35.449483      6.082187
  O      19.640969     33.660969      6.177151
  O      19.505523     30.664645      6.223396
  Si     16.977482     38.432638      7.823578
  O      15.677418     39.235127      8.366334
  O      18.406430     39.012252      8.364666
  O      16.949020     36.864187      8.291790
  O      16.911765     38.438812      6.173644
  O      20.782630     29.736906      8.440152
  O      21.092318     34.380758      8.368179
  H       4.074657     24.986772      8.036591
  H       1.410409     29.602015      8.036749
  H       1.410409     35.007985      8.036749
  H       4.074657     39.623228      8.036591
  H       8.948181     22.173255      8.038302
  H       8.948181     42.436745      8.038302
  H      14.277762     22.173204      8.038282
  H      14.277762     42.436796      8.038282
  H      18.960557     24.876228      8.036406
  H      18.960556     39.733772      8.036406
  H      21.624717     29.491420      8.036583
  H      21.624717     35.118580      8.036583
  H      13.155267     34.061798      5.938885
  H      11.004746     34.720775      5.640360
  H       8.941556     32.843284      5.678002
  H       9.873292     30.354352      5.761143
  H      12.397392     29.944173      5.886345
  H      13.957560     31.809856      5.934415
  H      13.486934     39.687019      5.902246
  H      10.913427     39.278913      5.779075
  H       8.214080     39.836291      5.634260
  H       5.947039     37.613890      5.761477
  H       5.160229     34.985548      5.741905
  H       3.409045     32.894961      5.868557
  H       4.157104     30.234006      5.837758
  H       6.012262     28.183307      5.779900
  H       6.931699     25.609084      5.850481
  H       9.662695     24.937092      5.862660
  H      12.309202     25.565997      5.803087
  H      15.009330     25.048916      5.885117
  H      16.983104     26.916196      5.896544
  H      17.808094     29.482199      5.831286
  H      19.550445     31.564697      5.863988
  H      18.956757     34.238984      5.801524
  H      17.156995     36.325356      5.716052
  H      16.117578     38.894767      5.852550
  P      13.709162     38.116953     12.549131
  O      15.692902     34.827043     13.107468
  O      18.617179     34.405831     12.422433
  O      17.387959     32.643111     10.929905
  O      15.275408     37.673973     12.784275
  O      14.957252     31.224587     11.413196
  O      13.275838     38.709977     13.820875
  O      12.997362     36.961634     11.897932
  O      13.856978     39.261693     11.409262
  N      14.295698     33.341571     11.956106
  N      12.803632     31.813346     11.052928
  N      10.644889     32.364065     10.482842
  C      17.551151     34.922241     11.660677
  C      16.634363     33.789652     11.211292
  C      16.648060     35.757545     12.545932
  C      15.686635     33.644456     12.411713
  C      15.957681     36.904601     11.841223
  C      13.339351     34.287868     11.908293
  C      14.087763     32.072879     11.476659
  C      12.090382     34.022710     11.435305
  C      11.811358     32.734289     10.976061
  H      17.923873     35.499874     10.808488
  H      16.050115     34.098743     10.338866
  H      17.214720     36.151625     13.391420
  H      15.975938     32.795915     13.040089
  H      15.286816     36.533588     11.055074
  H      16.736233     37.508411     11.354300
  H      18.820324     33.543494     12.035987
  H      16.783740     31.887683     10.938517
  H      13.547191     35.324634     12.201564
  H      11.374299     34.829970     11.387520
  H       9.973999     33.072481     10.235433
  H      10.443975     31.419905     10.195183
  H      13.436399     38.967429     10.596106
  H      12.714863     30.928482     10.566658
161
Coordinates from ORCA-job cmp_prot_al_frame02_dry E -13345.538588944628
  Si      3.451405     33.829552      7.865359
  Si      3.485199     30.733973      7.880010
  O       2.176202     34.632373      8.484710
  O       2.211621     29.909826      8.479370
  O       3.443595     32.278288      8.388804
  O       3.424689     33.791250      6.217449
  O       3.473109     30.787581      6.233587
  Si      6.174973     26.081027      7.871683
  Si      8.862979     24.546974      7.879048
  O       4.867772     25.319433      8.472751
  O       7.518354     25.317568      8.384389
  O       8.818451     23.028865      8.469977
  O       6.198368     26.108143      6.222461
  O       8.842500     24.574211      6.233799
  Si      6.123805     29.159714      7.764190
  Si      6.089048     35.420015      7.708160
  Si      8.850426     33.853463      7.649379
  Si      8.864065     30.754175      7.686470
  O       4.867099     30.004155      8.363853
  O       4.811284     34.592123      8.318904
  O       7.446567     34.606142      8.038135
  O       7.519195     29.924950      8.089478
  O       6.176384     27.639378      8.354553
  O       8.726834     32.279853      8.212796
  O       5.839028     29.065475      6.147508
  O       5.845415     35.577367      6.088758
  O       8.971200     33.750117      6.018486
  O       9.058714     30.777657      6.063231
  Si      6.140452     38.505793      7.778257
  Si      8.861027     40.079425      7.761074
  O       4.911862     39.356887      8.444039
  O       7.545663     39.212541      8.193297
  O       6.149046     36.942065      8.281075
  O       8.560022     41.592957      8.302629
  O       6.005301     38.506943      6.141934
  O       8.986824     40.021356      6.111327
  Si     11.521179     26.098247      7.800008
  Si     14.176255     24.543748      7.853128
  O      10.182507     25.372227      8.383698
  O      12.879147     25.397057      8.361371
  O      13.959255     23.017363      8.385593
  O      11.458984     25.862970      6.173594
  O      14.198313     24.634282      6.207813
  Si     11.554324     29.270209      7.794863
  Al     11.625077     35.392302      7.788277
  Si     14.266036     33.794087      7.775718
  Si     14.221099     30.754113      7.807860
  O      10.189868     30.005282      8.342234
  O      10.110832     34.582336      8.296951
  O      13.079063     34.611677      8.453175
  O      12.886840     29.981175      8.438062
  O      11.500472     27.684506      8.174848
  O      14.389992     32.248669      8.404582
  O      11.588607     29.475110      6.173705
  O      11.814831     34.984383      6.071275
  O      13.984761     33.555105      6.174195
  O      13.944521     30.862635      6.194846
  Si     11.630298     38.672675      7.779754
  Si     14.369255     40.075072      7.866660
  O      10.267304     39.464313      8.284919
  O      12.982744     39.393621      8.404183
  O      11.593712     37.114946      8.080803
  O      14.604947     41.600600      8.392853
  O      11.755352     39.022044      6.161179
  O      14.367035     39.986413      6.220348
  Si     16.888521     26.017939      7.898691
  O      15.553770     25.218818      8.399152
  O      18.178537     25.216644      8.487198
  O      16.830863     26.020275      6.251914
  Si     16.921116     29.086448      7.804645
  Si     17.064824     35.348404      7.690961
  Si     19.692697     33.743246      7.809494
  Si     19.561118     30.653549      7.856978
  O      15.522404     29.837208      8.133766
  O      15.736311     34.484989      8.017701
  O      18.376539     34.572757      8.293108
  O      18.180648     29.942440      8.373627
  O      16.861368     27.567411      8.407502
  O      19.669409     32.199137      8.347642
  O      17.138339     28.877351      6.185332
  O      17.355115     35.446140      6.073239
  O      19.634663     33.646603      6.163249
  O      19.492265     30.663937      6.207372
  Si     16.983706     38.425241      7.810885
  O      15.689086     39.237598      8.359059
  O      18.419658     38.994087      8.343278
  O      16.952496     36.857497      8.286257
  O      16.900997     38.421021      6.162103
  O      20.771206     29.719538      8.423734
  O      21.099747     34.368819      8.350162
  H       4.074657     24.986772      8.036591
  H       1.410409     29.602015      8.036749
  H       1.410409     35.007985      8.036749
  H       4.074657     39.623228      8.036591
  H       8.948181     22.173255      8.038302
  H       8.948181     42.436745      8.038302
  H      14.277762     22.173204      8.038282
  H      14.277762     42.436796      8.038282
  H      18.960557     24.876228      8.036406
  H      18.960556     39.733772      8.036406
  H      21.624717     29.491420      8.036583
  H      21.624717     35.118580      8.036583
  H      13.156097     34.074351      5.928314
  H      11.004144     34.731894      5.623237
  H       8.948045     32.849016      5.674286
  H       9.880190     30.353584      5.765607
  H      12.395828     29.955190      5.889595
  H      13.952485     31.816287      5.925343
  H      13.502991     39.678438      5.888827
  H      10.913876     39.285198      5.767049
  H       8.187107     39.728601      5.663535
  H       5.950508     37.615025      5.770300
  H       5.162593     34.992231      5.738185
  H       3.412553     32.888619      5.868918
  H       4.159597     30.228233      5.839884
  H       6.014574     28.189763      5.777361
  H       6.944224     25.614840      5.853763
  H       9.660650     24.938884      5.861824
  H      12.300796     25.572649      5.795815
  H      15.004726     25.060827      5.878870
  H      16.983565     26.909265      5.889260
  H      17.809921     29.469475      5.815542
  H      19.538493     31.565896      5.853425
  H      18.954504     34.230529      5.790198
  H      17.157723     36.318623      5.704777
  H      16.107395     38.882383      5.847468
  P      13.789684     38.113265     12.559813
  O      15.767478     34.794276     13.130915
  O      18.684839     34.376273     12.420445
  O      17.443005     32.611697     10.937931
  O      15.346245     37.650988     12.785231
  O      15.000903     31.210286     11.396653
  O      13.383202     38.729813     13.832920
  O      13.050194     36.964145     11.933852
  O      13.944083     39.243776     11.403557
  N      14.357797     33.318985     11.989771
  N      12.851290     31.824614     11.051568
  N      10.714937     32.431325     10.438907
  C      17.612262     34.890743     11.667903
  C      16.690657     33.757550     11.225474
  C      16.710272     35.726087     12.557341
  C      15.751572     33.611371     12.431730
  C      16.015601     36.866669     11.844711
  C      13.404224     34.271976     11.967996
  C      14.137671     32.062958     11.480972
  C      12.156437     34.031613     11.485088
  C      11.872801     32.760617     10.978384
  H      17.977263     35.467583     10.812039
  H      16.101178     34.072294     10.358910
  H      17.280521     36.129163     13.395797
  H      16.046831     32.764780     13.059341
  H      15.333312     36.493289     11.069181
  H      16.793329     37.462359     11.346093
  H      18.880480     33.509795     12.040394
  H      16.837220     31.858157     10.931420
  H      13.625273     35.291826     12.301236
  H      11.444527     34.843474     11.459296
  H      10.075483     33.168179     10.188290
  H      10.498616     31.505451     10.104398
  H      13.487814     38.941336     10.612514
  H      12.756052     30.960607     10.529508
161
Coordinates from ORCA-job cmp_prot_al_frame02_dry E -13345.539782602951
  Si      3.449056     33.825853      7.870782
  Si      3.486559     30.731502      7.884498
  O       2.171419     34.626199      8.486587
  O       2.215181     29.900209      8.478981
  O       3.437631     32.275722      8.396683
  O       3.433081     33.788458      6.223246
  O       3.482834     30.791861      6.238654
  Si      6.175021     26.082644      7.875930
  Si      8.859677     24.548059      7.884672
  O       4.866022     25.322043      8.472456
  O       7.513506     25.313446      8.394910
  O       8.819063     23.028091      8.470525
  O       6.207133     26.114047      6.227272
  O       8.836756     24.586351      6.239759
  Si      6.125620     29.160715      7.773042
  Si      6.084399     35.420308      7.725678
  Si      8.848004     33.853939      7.664071
  Si      8.867322     30.755589      7.698769
  O       4.869981     30.006929      8.373844
  O       4.808532     34.589418      8.331561
  O       7.442856     34.604338      8.048769
  O       7.524388     29.921853      8.095155
  O       6.177107     27.640819      8.363699
  O       8.727868     32.281851      8.226460
  O       5.838449     29.069581      6.156454
  O       5.843252     35.588573      6.107134
  O       8.973383     33.755473      6.034362
  O       9.069111     30.780724      6.076604
  Si      6.144976     38.505486      7.804656
  Si      8.857333     40.075102      7.778270
  O       4.906386     39.354606      8.453034
  O       7.545243     39.213146      8.234942
  O       6.144951     36.940875      8.304485
  O       8.564658     41.593126      8.306011
  O       6.050965     38.504416      6.164554
  O       8.948894     39.990836      6.128141
  Si     11.516124     26.100574      7.807644
  Si     14.168770     24.544915      7.850533
  O      10.177864     25.374941      8.393313
  O      12.874954     25.399692      8.367386
  O      13.943988     23.016242      8.372477
  O      11.450436     25.865603      6.181364
  O      14.188762     24.651401      6.206476
  Si     11.553113     29.274513      7.807189
  Al     11.624717     35.396946      7.801837
  Si     14.266290     33.791749      7.786673
  Si     14.220661     30.752206      7.812735
  O      10.193138     30.013265      8.364730
  O      10.109647     34.584051      8.314368
  O      13.077173     34.609627      8.464206
  O      12.886927     29.986257      8.454112
  O      11.497521     27.687967      8.179410
  O      14.396500     32.245702      8.413176
  O      11.587287     29.482521      6.186817
  O      11.814475     34.986298      6.085330
  O      13.977418     33.553761      6.186372
  O      13.935745     30.867299      6.201827
  Si     11.632743     38.681149      7.789434
  Si     14.379532     40.072849      7.866565
  O      10.272888     39.471980      8.300780
  O      12.989480     39.396875      8.407433
  O      11.591214     37.120822      8.088227
  O      14.619974     41.601848      8.380144
  O      11.747490     39.026828      6.170009
  O      14.375382     39.965602      6.221766
  Si     16.884042     26.009340      7.898595
  O      15.551315     25.208104      8.401730
  O      18.171057     25.201837      8.484166
  O      16.820105     26.018069      6.252476
  Si     16.920486     29.077468      7.806666
  Si     17.068851     35.342891      7.696691
  Si     19.695978     33.734578      7.806420
  Si     19.557195     30.646148      7.852362
  O      15.519160     29.829044      8.125941
  O      15.737747     34.479963      8.020560
  O      18.380701     34.565090      8.296394
  O      18.175600     29.939240      8.376841
  O      16.859084     27.559588      8.412301
  O      19.679953     32.190535      8.347080
  O      17.140790     28.866527      6.188212
  O      17.355193     35.439909      6.078385
  O      19.622585     33.631938      6.161777
  O      19.474892     30.663746      6.204205
  Si     16.988172     38.416882      7.807748
  O      15.701437     39.240375      8.363328
  O      18.433279     38.976798      8.323579
  O      16.955330     36.850952      8.294567
  O      16.886257     38.400397      6.160898
  O      20.760600     29.699422      8.410300
  O      21.106489     34.359353      8.337115
  H       4.074657     24.986772      8.036591
  H       1.410409     29.602015      8.036749
  H       1.410409     35.007985      8.036749
  H       4.074657     39.623228      8.036591
  H       8.948181     22.173255      8.038302
  H       8.948181     42.436745      8.038302
  H      14.277762     22.173204      8.038282
  H      14.277762     42.436796      8.038282
  H      18.960557     24.876228      8.036406
  H      18.960556     39.733772      8.036406
  H      21.624717     29.491420      8.036583
  H      21.624717     35.118580      8.036583
  H      13.133470     34.054853      5.949104
  H      11.007984     34.742421      5.626169
  H       8.959140     32.854772      5.689169
  H       9.890980     30.355400      5.782149
  H      12.390417     29.971011      5.904644
  H      13.926095     31.823476      5.939776
  H      13.507440     39.670775      5.890638
  H      10.902451     39.279773      5.777551
  H       8.148028     39.646651      5.718642
  H       5.970323     37.613188      5.794974
  H       5.168953     34.998931      5.748361
  H       3.419683     32.885598      5.875432
  H       4.166784     30.227533      5.847427
  H       6.021535     28.197332      5.782558
  H       6.954383     25.618998      5.863385
  H       9.657431     24.947160      5.869501
  H      12.293332     25.583401      5.800272
  H      14.998402     25.073757      5.880240
  H      16.977976     26.907028      5.892039
  H      17.806487     29.463242      5.815751
  H      19.520704     31.567085      5.853620
  H      18.945101     34.219972      5.790740
  H      17.151896     36.309491      5.706814
  H      16.092488     38.865448      5.851371
  P      13.892710     38.115677     12.587669
  O      15.854459     34.768408     13.153475
  O      18.760327     34.331044     12.428141
  O      17.497492     32.570700     10.951918
  O      15.441130     37.629148     12.794796
  O      15.038118     31.192656     11.406472
  O      13.517273     38.764989     13.855256
  O      13.125950     36.969394     11.994181
  O      14.051499     39.219097     11.401998
  N      14.425771     33.306697     12.019334
  N      12.900073     31.846301     11.058977
  N      10.797224     32.517598     10.384778
  C      17.688862     34.850109     11.678568
  C      16.756592     33.721939     11.243714
  C      16.792033     35.695603     12.566580
  C      15.822533     33.584949     12.454659
  C      16.092187     36.834144     11.850623
  C      13.483174     34.273106     12.006405
  C      14.189366     32.058528     11.498539
  C      12.240098     34.061317     11.503037
  C      11.945615     32.805849     10.969493
  H      18.054794     35.419676     10.818236
  H      16.162997     34.044832     10.382634
  H      17.368008     36.107122     13.396826
  H      16.116478     32.739230     13.084473
  H      15.393974     36.459246     11.090152
  H      16.862978     37.423233     11.334094
  H      18.943935     33.458513     12.056583
  H      16.882687     31.824281     10.935679
  H      13.725255     35.279938     12.363810
  H      11.541997     34.884950     11.475484
  H      10.198233     33.284004     10.118806
  H      10.564501     31.611132     10.011221
  H      13.550186     38.910909     10.640390
  H      12.790178     30.989800     10.527629
161
Coordinates from ORCA-job cmp_prot_al_frame02_dry E -13345.540611223554
  Si      3.447463     33.822335      7.877135
  Si      3.489028     30.729701      7.887232
  O       2.167054     34.620219      8.488991
  O       2.221326     29.888101      8.476551
  O       3.432997     32.273257      8.404667
  O       3.439322     33.788227      6.230163
  O       3.490684     30.798964      6.242363
  Si      6.175216     26.084386      7.879622
  Si      8.856274     24.549818      7.888970
  O       4.863959     25.326392      8.472713
  O       7.509316     25.310718      8.405121
  O       8.822540     23.028404      8.471257
  O       6.211786     26.116039      6.231760
  O       8.827970     24.594778      6.244588
  Si      6.127383     29.161484      7.775993
  Si      6.079269     35.420698      7.742737
  Si      8.844196     33.853979      7.672157
  Si      8.870099     30.756940      7.696224
  O       4.874949     30.011429      8.379629
  O       4.805901     34.587328      8.345370
  O       7.439211     34.602860      8.056353
  O       7.530243     29.919184      8.090493
  O       6.178288     27.643253      8.369788
  O       8.733171     32.282386      8.230192
  O       5.836184     29.070675      6.159825
  O       5.837052     35.602004      6.125184
  O       8.969812     33.760451      6.042167
  O       9.074824     30.785248      6.074813
  Si      6.153333     38.504076      7.832511
  Si      8.852668     40.070129      7.801115
  O       4.901850     39.349855      8.460288
  O       7.545921     39.212641      8.284681
  O       6.142367     36.938898      8.329069
  O       8.574108     41.593014      8.316719
  O       6.109446     38.502762      6.189333
  O       8.908150     39.965179      6.151545
  Si     11.511969     26.101532      7.807459
  Si     14.162175     24.546128      7.846548
  O      10.173890     25.379050      8.397721
  O      12.870935     25.403009      8.369277
  O      13.928140     23.015588      8.357756
  O      11.444098     25.863238      6.181753
  O      14.182559     24.661964      6.203816
  Si     11.552654     29.277272      7.799530
  Al     11.621866     35.402169      7.801961
  Si     14.265342     33.792200      7.787263
  Si     14.221426     30.752205      7.802518
  O      10.198224     30.021616      8.367040
  O      10.106581     34.588127      8.322626
  O      13.073153     34.609190      8.462311
  O      12.885747     29.993038      8.448483
  O      11.495727     27.691574      8.170249
  O      14.398638     32.244004      8.408303
  O      11.587228     29.482946      6.179028
  O      11.807030     34.991484      6.085003
  O      13.973776     33.567766      6.185038
  O      13.940823     30.876484      6.191979
  Si     11.631674     38.688294      7.796383
  Si     14.387229     40.068227      7.867922
  O      10.275937     39.476178      8.320258
  O      12.994076     39.396161      8.409883
  O      11.585530     37.125728      8.088586
  O      14.630908     41.601394      8.368379
  O      11.732814     39.033810      6.176377
  O      14.380231     39.946171      6.224362
  Si     16.879521     26.002204      7.897847
  O      15.548233     25.199336      8.403612
  O      18.163778     25.188802      8.480951
  O      16.812294     26.014583      6.252717
  Si     16.920401     29.070095      7.804876
  Si     17.072064     35.337985      7.701125
  Si     19.697782     33.725856      7.806396
  Si     19.552930     30.639493      7.849151
  O      15.515465     29.822893      8.109140
  O      15.737895     34.476167      8.019185
  O      18.382434     34.556483      8.300895
  O      18.168800     29.938297      8.379753
  O      16.856626     27.553609      8.414098
  O      19.690148     32.181783      8.349131
  O      17.146708     28.858309      6.187725
  O      17.355187     35.435727      6.082745
  O      19.612687     33.619826      6.163408
  O      19.463077     30.664283      6.202660
  Si     16.990933     38.408193      7.804984
  O      15.712023     39.241440      8.367736
  O      18.444904     38.960892      8.303164
  O      16.956685     36.844149      8.303329
  O      16.873957     38.381797      6.160524
  O      20.748881     29.677229      8.395178
  O      21.110341     34.352657      8.327268
  H       4.074657     24.986772      8.036591
  H       1.410409     29.602015      8.036749
  H       1.410409     35.007985      8.036749
  H       4.074657     39.623228      8.036591
  H       8.948181     22.173255      8.038302
  H       8.948181     42.436745      8.038302
  H      14.277762     22.173204      8.038282
  H      14.277762     42.436796      8.038282
  H      18.960557     24.876228      8.036406
  H      18.960556     39.733772      8.036406
  H      21.624717     29.491420      8.036583
  H      21.624717     35.118580      8.036583
  H      13.148287     34.100866      5.946518
  H      11.002073     34.756515      5.618337
  H       8.965897     32.859381      5.697123
  H       9.895457     30.355808      5.781654
  H      12.392058     29.967715      5.895419
  H      13.957592     31.833961      5.932353
  H      13.510317     39.661625      5.890717
  H      10.882347     39.271908      5.785778
  H       8.097726     39.600033      5.777095
  H       5.998917     37.614048      5.819352
  H       5.170537     35.008295      5.758131
  H       3.425138     32.886172      5.879538
  H       4.171494     30.231638      5.849287
  H       6.023008     28.200756      5.782226
  H       6.958745     25.618876      5.869139
  H       9.648744     24.952487      5.871033
  H      12.286705     25.584625      5.797077
  H      14.994040     25.080373      5.876752
  H      16.973150     26.902199      5.890034
  H      17.810115     29.456639      5.813367
  H      19.507041     31.568399      5.852913
  H      18.937116     34.209512      5.791281
  H      17.150388     36.304003      5.708470
  H      16.077620     38.844576      5.852688
  P      14.001938     38.101386     12.617473
  O      15.934759     34.718145     13.165519
  O      18.825399     34.249151     12.439050
  O      17.541212     32.505833     10.952411
  O      15.541209     37.581870     12.807281
  O      15.062386     31.153642     11.405982
  O      13.659367     38.792021     13.871228
  O      13.204464     36.958620     12.061005
  O      14.168980     39.166595     11.393914
  N      14.483873     33.276866     12.028241
  N      12.939261     31.850966     11.049076
  N      10.876662     32.588363     10.310554
  C      17.763357     34.780950     11.685838
  C      16.817715     33.664867     11.250610
  C      16.873729     35.638923     12.569504
  C      15.884081     33.537572     12.464049
  C      16.170495     36.779602     11.855316
  C      13.555830     34.258896     12.020743
  C      14.231928     32.036577     11.498360
  C      12.319853     34.076730     11.492491
  C      12.013093     32.835913     10.938299
  H      18.139284     35.343050     10.824825
  H      16.224125     34.002028     10.393900
  H      17.455068     36.055476     13.393563
  H      16.170440     32.688117     13.093038
  H      15.454441     36.404643     11.111884
  H      16.930818     37.362578     11.317848
  H      18.996821     33.372214     12.072032
  H      16.913985     31.769194     10.929603
  H      13.818746     35.252138     12.400150
  H      11.639685     34.914891     11.456200
  H      10.324078     33.384666     10.022915
  H      10.631261     31.703546      9.897393
  H      13.615844     38.862097     10.667046
  H      12.809728     30.992839     10.525581
161
Coordinates from ORCA-job cmp_prot_al_frame02_dry E -13345.541139615161
  Si      3.447331     33.820792      7.880051
  Si      3.491205     30.729204      7.889608
  O       2.165885     34.618813      8.489913
  O       2.225200     29.880914      8.474534
  O       3.431909     32.272416      8.408789
  O       3.437768     33.787245      6.233352
  O       3.495079     30.801456      6.245153
  Si      6.175401     26.085044      7.886073
  Si      8.854683     24.550791      7.895394
  O       4.861473     25.328966      8.475307
  O       7.507702     25.309974      8.414405
  O       8.825423     23.027727      8.473661
  O       6.212770     26.115038      6.238681
  O       8.824091     24.597635      6.251244
  Si      6.128205     29.161291      7.780340
  Si      6.076926     35.420916      7.744976
  Si      8.841988     33.853095      7.668791
  Si      8.871003     30.756238      7.695982
  O       4.877643     30.014112      8.383721
  O       4.805077     34.586997      8.348850
  O       7.437966     34.602953      8.053216
  O       7.532170     29.918316      8.091141
  O       6.178399     27.644142      8.376349
  O       8.738822     32.282603      8.229249
  O       5.837172     29.068690      6.164018
  O       5.829746     35.608454      6.128027
  O       8.965221     33.755621      6.037800
  O       9.076198     30.782425      6.074795
  Si      6.160268     38.502945      7.841393
  Si      8.851546     40.067691      7.814142
  O       4.901043     39.345301      8.459740
  O       7.547757     39.211190      8.308454
  O       6.142687     36.937446      8.335303
  O       8.581049     41.593044      8.325752
  O       6.140117     38.505650      6.197130
  O       8.897169     39.959520      6.164913
  Si     11.510931     26.099941      7.812077
  Si     14.160687     24.546774      7.850198
  O      10.172636     25.379458      8.403662
  O      12.869733     25.402956      8.375542
  O      13.922261     23.014623      8.353768
  O      11.443469     25.861590      6.186294
  O      14.181628     24.663564      6.208024
  Si     11.552599     29.275781      7.799044
  Al     11.619899     35.405217      7.791151
  Si     14.263797     33.792674      7.786379
  Si     14.220159     30.751983      7.801945
  O      10.200185     30.023749      8.367191
  O      10.103374     34.593258      8.316202
  O      13.068721     34.609953      8.454565
  O      12.884575     29.993261      8.447400
  O      11.495095     27.691038      8.171096
  O      14.394337     32.244322      8.407459
  O      11.586102     29.479347      6.177913
  O      11.805878     35.000081      6.073686
  O      13.976306     33.568125      6.183003
  O      13.938812     30.874229      6.191580
  Si     11.629676     38.689846      7.800168
  Si     14.388692     40.064499      7.872512
  O      10.275385     39.475068      8.332342
  O      12.995178     39.392992      8.413688
  O      11.581483     37.126739      8.085183
  O      14.632503     41.600586      8.365416
  O      11.726403     39.039914      6.180626
  O      14.380122     39.939284      6.228776
  Si     16.877939     26.001693      7.902052
  O      15.547038     25.198050      8.409169
  O      18.162134     25.184907      8.481299
  O      16.810297     26.014891      6.257500
  Si     16.920306     29.069663      7.808433
  Si     17.071666     35.336424      7.706934
  Si     19.696586     33.722877      7.811779
  Si     19.550916     30.637962      7.852583
  O      15.513532     29.821871      8.106929
  O      15.736630     34.475514      8.021730
  O      18.380784     34.552226      8.307681
  O      18.165521     29.940452      8.385889
  O      16.856927     27.553207      8.418380
  O      19.694590     32.178758      8.354881
  O      17.148313     28.858953      6.191561
  O      17.354454     35.435211      6.088916
  O      19.608465     33.617755      6.169217
  O      19.461081     30.665564      6.206725
  Si     16.990816     38.404381      7.807289
  O      15.715553     39.241024      8.371941
  O      18.448981     38.955591      8.295544
  O      16.956359     36.841674      8.310842
  O      16.870709     38.375264      6.163756
  O      20.743825     29.666068      8.388995
  O      21.109530     34.352999      8.327251
  H       4.074657     24.986772      8.036591
  H       1.410409     29.602015      8.036749
  H       1.410409     35.007985      8.036749
  H       4.074657     39.623228      8.036591
  H       8.948181     22.173255      8.038302
  H       8.948181     42.436745      8.038302
  H      14.277762     22.173204      8.038282
  H      14.277762     42.436796      8.038282
  H      18.960557     24.876228      8.036406
  H      18.960556     39.733772      8.036406
  H      21.624717     29.491420      8.036583
  H      21.624717     35.118580      8.036583
  H      13.136752     34.078414      5.945439
  H      11.003298     34.759805      5.605865
  H       8.968374     32.852707      5.697047
  H       9.896260     30.350509      5.783082
  H      12.385839     29.968741      5.891497
  H      13.925089     31.831336      5.933799
  H      13.510848     39.657115      5.892320
  H      10.873213     39.265363      5.788581
  H       8.080106     39.600471      5.796907
  H       6.016800     37.619438      5.824471
  H       5.165404     35.013312      5.759127
  H       3.422641     32.885925      5.880605
  H       4.173914     30.233332      5.849843
  H       6.022891     28.198886      5.785611
  H       6.958934     25.617492      5.874622
  H       9.644184     24.953309      5.874353
  H      12.284814     25.581788      5.799770
  H      14.991966     25.081917      5.878211
  H      16.971353     26.901026      5.891559
  H      17.813133     29.455715      5.816858
  H      19.502691     31.569526      5.855867
  H      18.932857     34.206531      5.795566
  H      17.152890     36.304499      5.714702
  H      16.072701     38.834574      5.854704
  P      14.049473     38.077719     12.648245
  O      15.959399     34.664408     13.181146
  O      18.841119     34.180896     12.461831
  O      17.552367     32.457285     10.952695
  O      15.583234     37.533780     12.835817
  O      15.065917     31.116594     11.395180
  O      13.723532     38.794424     13.889038
  O      13.232389     36.938374     12.111611
  O      14.229270     39.116261     11.402020
  N      14.498421     33.238523     12.034333
  N      12.946373     31.828285     11.046930
  N      10.896541     32.590645     10.297165
  C      17.788132     34.724765     11.703899
  C      16.837124     33.618810     11.258626
  C      16.902129     35.584706     12.586736
  C      15.901504     33.490081     12.472382
  C      16.199071     36.729281     11.878285
  C      13.576056     34.225675     12.038362
  C      14.241662     32.004315     11.495691
  C      12.341159     34.054931     11.504256
  C      12.029235     32.821564     10.937092
  H      18.173841     35.287664     10.847741
  H      16.247247     33.967155     10.403012
  H      17.484352     35.998644     13.411573
  H      16.181760     32.633516     13.094560
  H      15.473791     36.355555     11.143032
  H      16.953827     37.308444     11.329353
  H      19.010560     33.306142     12.088657
  H      16.921179     31.724158     10.929458
  H      13.842853     35.212347     12.432322
  H      11.667777     34.898807     11.472156
  H      10.363234     33.398944      9.999089
  H      10.649666     31.716969      9.862408
  H      13.648150     38.823670     10.692744
  H      12.808585     30.967973     10.530122
161
Coordinates from ORCA-job cmp_prot_al_frame02_dry E -13345.541551819739
  Si      3.447721     33.819456      7.881332
  Si      3.493481     30.728509      7.889348
  O       2.165532     34.617836      8.490293
  O       2.229806     29.873887      8.471041
  O       3.432384     32.271096      8.409866
  O       3.434601     33.786456      6.234766
  O       3.496514     30.802037      6.245046
  Si      6.175923     26.084353      7.889836
  Si      8.854680     24.551327      7.898478
  O       4.859704     25.330877      8.477502
  O       7.508176     25.310061      8.419159
  O       8.829532     23.027711      8.475324
  O       6.211827     26.111060      6.242732
  O       8.822091     24.596002      6.254332
  Si      6.128666     29.159673      7.780255
  Si      6.075844     35.420727      7.743123
  Si      8.840452     33.851885      7.664599
  Si      8.870818     30.754869      7.693566
  O       4.880093     30.015106      8.383119
  O       4.804442     34.586806      8.348907
  O       7.437537     34.603478      8.049060
  O       7.532536     29.917051      8.088962
  O       6.178756     27.643536      8.378378
  O       8.743868     32.281523      8.226643
  O       5.838219     29.064388      6.163897
  O       5.824421     35.610773      6.126395
  O       8.960093     33.750105      6.032242
  O       9.074770     30.781168      6.072293
  Si      6.166691     38.501926      7.842056
  Si      8.852532     40.065897      7.821304
  O       4.901885     39.340524      8.455366
  O       7.550508     39.209237      8.321248
  O       6.143738     36.936442      8.334545
  O       8.586424     41.592617      8.332560
  O       6.157132     38.510612      6.197053
  O       8.901260     39.959279      6.172417
  Si     11.511560     26.097868      7.812137
  Si     14.161184     24.547257      7.852663
  O      10.173093     25.379405      8.404452
  O      12.869831     25.402411      8.377951
  O      13.918894     23.014341      8.351523
  O      11.445400     25.859184      6.186353
  O      14.183872     24.661061      6.210658
  Si     11.553184     29.273175      7.796104
  Al     11.618478     35.406040      7.779784
  Si     14.262136     33.793051      7.785497
  Si     14.219665     30.752217      7.801874
  O      10.201206     30.023124      8.361686
  O      10.100865     34.596837      8.308861
  O      13.064688     34.610073      8.447310
  O      12.883626     29.991424      8.442675
  O      11.495224     27.689288      8.169433
  O      14.389295     32.244893      8.406933
  O      11.586079     29.475715      6.174433
  O      11.805345     35.005141      6.062641
  O      13.978739     33.566923      6.181017
  O      13.941578     30.873215      6.190837
  Si     11.627735     38.688185      7.801964
  Si     14.387678     40.061250      7.874045
  O      10.274012     39.471808      8.340165
  O      12.995546     39.388884      8.414986
  O      11.578124     37.125217      8.081813
  O      14.631028     41.598881      8.363609
  O      11.725416     39.043495      6.183387
  O      14.378514     39.938654      6.229303
  Si     16.877646     26.003336      7.905194
  O      15.546007     25.200217      8.412461
  O      18.161388     25.183265      8.481674
  O      16.812020     26.016285      6.260924
  Si     16.920612     29.071206      7.810847
  Si     17.069782     35.335924      7.711875
  Si     19.694294     33.722144      7.816445
  Si     19.549544     30.638164      7.856080
  O      15.512397     29.821472      8.106986
  O      15.735061     34.475541      8.025423
  O      18.377985     34.549378      8.313342
  O      18.163543     29.943593      8.390618
  O      16.858837     27.554392      8.420522
  O      19.696570     32.177960      8.359210
  O      17.149579     28.861445      6.194104
  O      17.353611     35.435391      6.094419
  O      19.606904     33.619715      6.173687
  O      19.462451     30.666543      6.210321
  Si     16.989766     38.402218      7.809284
  O      15.715870     39.240008      8.372088
  O      18.450104     38.953525      8.291734
  O      16.955522     36.840943      8.315954
  O      16.872118     38.372513      6.165831
  O      20.740137     29.658103      8.384622
  O      21.106883     34.355260      8.329474
  H       4.074657     24.986772      8.036591
  H       1.410409     29.602015      8.036749
  H       1.410409     35.007985      8.036749
  H       4.074657     39.623228      8.036591
  H       8.948181     22.173255      8.038302
  H       8.948181     42.436745      8.038302
  H      14.277762     22.173204      8.038282
  H      14.277762     42.436796      8.038282
  H      18.960557     24.876228      8.036406
  H      18.960556     39.733772      8.036406
  H      21.624717     29.491420      8.036583
  H      21.624717     35.118580      8.036583
  H      13.139268     34.071311      5.939696
  H      11.003359     34.759065      5.596809
  H       8.968809     32.845642      5.695289
  H       9.894922     30.349439      5.780335
  H      12.385235     29.963346      5.885452
  H      13.938767     31.828076      5.928374
  H      13.508822     39.662978      5.889391
  H      10.871284     39.257186      5.787049
  H       8.085839     39.600582      5.799258
  H       6.025885     37.627207      5.820875
  H       5.161573     35.013941      5.757379
  H       3.423029     32.885926      5.879787
  H       4.173266     30.233712      5.846717
  H       6.021027     28.193605      5.786084
  H       6.958524     25.615797      5.876520
  H       9.641336     24.949280      5.873671
  H      12.285683     25.576823      5.799237
  H      14.991844     25.081919      5.878382
  H      16.973500     26.901015      5.892191
  H      17.816057     29.456864      5.819781
  H      19.498444     31.570278      5.858113
  H      18.931888     34.208430      5.798801
  H      17.155471     36.306323      5.721375
  H      16.073644     38.829445      5.854388
  P      14.089672     38.035298     12.669865
  O      15.978452     34.598527     13.190327
  O      18.850062     34.098953     12.473361
  O      17.553565     32.402836     10.937581
  O      15.620001     37.474037     12.862709
  O      15.058218     31.077125     11.373721
  O      13.773953     38.771415     13.899468
  O      13.255945     36.899627     12.147632
  O      14.282994     39.053056     11.408574
  N      14.504274     33.196910     12.028175
  N      12.942879     31.803947     11.032299
  N      10.899404     32.584012     10.287879
  C      17.806076     34.659556     11.713783
  C      16.847653     33.566989     11.255123
  C      16.926667     35.518625     12.600786
  C      15.911141     33.433374     12.469213
  C      16.227126     36.668846     11.900330
  C      13.591139     34.191808     12.038076
  C      14.238607     31.968486     11.483499
  C      12.355335     34.033242     11.501478
  C      12.033509     32.804218     10.926220
  H      18.201190     35.226736     10.864806
  H      16.262932     33.928665     10.401458
  H      17.510274     35.924202     13.428841
  H      16.182137     32.565259     13.079067
  H      15.497191     36.298308     11.167779
  H      16.980603     37.244638     11.346115
  H      19.018550     33.229433     12.087425
  H      16.918886     31.672850     10.916391
  H      13.860907     35.174933     12.437356
  H      11.690240     34.883886     11.474655
  H      10.378059     33.396574      9.977827
  H      10.653666     31.715147      9.841648
  H      13.678717     38.777732     10.712469
  H      12.800041     30.943001     10.517830
161
Coordinates from ORCA-job cmp_prot_al_frame02_dry E -13345.541845905464
  Si      3.447688     33.817646      7.880863
  Si      3.495839     30.727093      7.885995
  O       2.164933     34.616032      8.489969
  O       2.236342     29.864172      8.464755
  O       3.432456     32.268814      8.408461
  O       3.431345     33.785365      6.234479
  O       3.497225     30.802674      6.241866
  Si      6.176335     26.082754      7.890499
  Si      8.854852     24.551216      7.898078
  O       4.857887     25.333461      8.478869
  O       7.509067     25.309777      8.420574
  O       8.834891     23.028099      8.475847
  O       6.210230     26.104991      6.243696
  O       8.819175     24.592390      6.253906
  Si      6.129103     29.157082      7.775959
  Si      6.074646     35.420766      7.740283
  Si      8.838581     33.850582      7.658672
  Si      8.870399     30.753343      7.688580
  O       4.883019     30.015449      8.378676
  O       4.803486     34.585991      8.347375
  O       7.437100     34.604285      8.043649
  O       7.532682     29.915227      8.082701
  O       6.179872     27.642106      8.376527
  O       8.748544     32.280127      8.221697
  O       5.838332     29.058590      6.160027
  O       5.819367     35.613809      6.124189
  O       8.953231     33.745683      6.024988
  O       9.072522     30.781708      6.066954
  Si      6.173705     38.501462      7.842097
  Si      8.854338     40.064051      7.826887
  O       4.902676     39.335115      8.449375
  O       7.553709     39.208179      8.334992
  O       6.144715     36.935798      8.332855
  O       8.592591     41.591935      8.339208
  O       6.174050     38.516502      6.196372
  O       8.905184     39.958011      6.178678
  Si     11.512113     26.095384      7.806964
  Si     14.161761     24.547637      7.850386
  O      10.173647     25.379341      8.400477
  O      12.870133     25.402027      8.375311
  O      13.914935     23.014668      8.346749
  O      11.446867     25.855449      6.181582
  O      14.186152     24.657263      6.208450
  Si     11.553301     29.269924      7.789930
  Al     11.617444     35.405553      7.764735
  Si     14.261583     33.793183      7.782153
  Si     14.218760     30.751361      7.794676
  O      10.202155     30.022174      8.352983
  O      10.099130     34.599005      8.299516
  O      13.060281     34.608670      8.436938
  O      12.883879     29.987141      8.432329
  O      11.494712     27.686853      8.163232
  O      14.384302     32.243980      8.400559
  O      11.583402     29.472746      6.167841
  O      11.804210     35.007306      6.048853
  O      13.987725     33.570408      6.174884
  O      13.938681     30.872119      6.183904
  Si     11.626698     38.685759      7.800075
  Si     14.387158     40.058210      7.870521
  O      10.273812     39.467482      8.345765
  O      12.997219     39.384038      8.411304
  O      11.574869     37.122436      8.075117
  O      14.629009     41.596529      8.359523
  O      11.725932     39.049224      6.183522
  O      14.379913     39.938093      6.224884
  Si     16.877780     26.004817      7.902185
  O      15.544485     25.204093      8.410123
  O      18.159193     25.181045      8.479314
  O      16.815459     26.015220      6.258106
  Si     16.921808     29.072810      7.803590
  Si     17.068010     35.335269      7.718501
  Si     19.692354     33.721954      7.818200
  Si     19.548802     30.638542      7.853398
  O      15.511664     29.820080      8.097347
  O      15.733938     34.474588      8.030969
  O      18.375536     34.545447      8.319210
  O      18.161367     29.947595      8.387410
  O      16.861676     27.556091      8.414208
  O      19.699611     32.177050      8.358724
  O      17.154041     28.862674      6.187562
  O      17.353074     35.435528      6.101650
  O      19.604432     33.623847      6.175230
  O      19.466185     30.669168      6.207516
  Si     16.989355     38.399648      7.810607
  O      15.716151     39.239692      8.368443
  O      18.451630     38.951182      8.287134
  O      16.955360     36.840543      8.322108
  O      16.874715     38.366331      6.166976
  O      20.734501     29.647809      8.375289
  O      21.104385     34.357297      8.330050
  H       4.074657     24.986772      8.036591
  H       1.410409     29.602015      8.036749
  H       1.410409     35.007985      8.036749
  H       4.074657     39.623228      8.036591
  H       8.948181     22.173255      8.038302
  H       8.948181     42.436745      8.038302
  H      14.277762     22.173204      8.038282
  H      14.277762     42.436796      8.038282
  H      18.960557     24.876228      8.036406
  H      18.960556     39.733772      8.036406
  H      21.624717     29.491420      8.036583
  H      21.624717     35.118580      8.036583
  H      13.161418     34.086203      5.923971
  H      11.001221     34.758351      5.586024
  H       8.967712     32.839884      5.691285
  H       9.892681     30.351166      5.773465
  H      12.380917     29.960491      5.875662
  H      13.926678     31.825808      5.920169
  H      13.511779     39.662471      5.881749
  H      10.871915     39.256086      5.783778
  H       8.095340     39.591846      5.800636
  H       6.035148     37.636467      5.816006
  H       5.158093     35.015506      5.754955
  H       3.424226     32.885697      5.877442
  H       4.171242     30.233870      5.840167
  H       6.017294     28.186330      5.783794
  H       6.957927     25.612710      5.875697
  H       9.637163     24.943402      5.869113
  H      12.286251     25.570588      5.794432
  H      14.991023     25.081945      5.873955
  H      16.976174     26.898627      5.886362
  H      17.823348     29.456114      5.814916
  H      19.497050     31.572961      5.855311
  H      18.929575     34.213111      5.801165
  H      17.156814     36.307867      5.730288
  H      16.075641     38.819788      5.852469
  P      14.149722     37.982279     12.690952
  O      16.004458     34.516933     13.206351
  O      18.861886     33.987580     12.490384
  O      17.548591     32.327722     10.925564
  O      15.674129     37.401099     12.892289
  O      15.038168     31.025385     11.368756
  O      13.850114     38.744807     13.907552
  O      13.292508     36.852011     12.193055
  O      14.360137     38.971161     11.410191
  N      14.511078     33.148621     12.027988
  N      12.933230     31.781202     11.023342
  N      10.900933     32.588905     10.279602
  C      17.830602     34.571485     11.729834
  C      16.858534     33.497928     11.256729
  C      16.960829     35.433322     12.621765
  C      15.921959     33.361992     12.470982
  C      16.270057     36.590441     11.926641
  C      13.612667     34.156460     12.038765
  C      14.229119     31.927489     11.477469
  C      12.376079     34.017115     11.498343
  C      12.037435     32.793073     10.916800
  H      18.238409     35.141312     10.888821
  H      16.282266     33.877359     10.405236
  H      17.546695     35.827851     13.453481
  H      16.180441     32.481017     13.067191
  H      15.534690     36.225483     11.196417
  H      17.025884     37.158775     11.367705
  H      19.025972     33.123841     12.089683
  H      16.905892     31.604661     10.906659
  H      13.889058     35.135390     12.441181
  H      11.724199     34.877987     11.474806
  H      10.397418     33.406549      9.952530
  H      10.657936     31.725398      9.819427
  H      13.725675     38.717871     10.733027
  H      12.783200     30.921679     10.507897
161
Coordinates from ORCA-job cmp_prot_al_frame02_dry E -13345.542018892591
  Si      3.447289     33.816520      7.878906
  Si      3.497174     30.725860      7.880819
  O       2.164446     34.614389      8.489163
  O       2.241936     29.856305      8.458416
  O       3.431819     32.266874      8.405063
  O       3.430082     33.785234      6.232652
  O       3.497075     30.803984      6.236832
  Si      6.176067     26.081592      7.887420
  Si      8.854670     24.550769      7.894205
  O       4.856567     25.336338      8.478760
  O       7.509338     25.309389      8.417659
  O       8.838654     23.028922      8.474948
  O       6.208080     26.099968      6.240760
  O       8.816184     24.588911      6.249998
  Si      6.129599     29.155419      7.768749
  Si      6.074087     35.421132      7.739144
  Si      8.837697     33.850457      7.655015
  Si      8.870196     30.753096      7.681423
  O       4.885363     30.015637      8.371993
  O       4.802856     34.584877      8.345695
  O       7.437018     34.605006      8.040790
  O       7.533002     29.914384      8.073856
  O       6.181543     27.641306      8.371167
  O       8.750721     32.279335      8.216213
  O       5.837308     29.054486      6.153574
  O       5.817569     35.616659      6.123792
  O       8.949750     33.747153      6.020826
  O       9.070466     30.784732      6.059329
  Si      6.177889     38.501774      7.844064
  Si      8.855868     40.063022      7.831503
  O       4.902644     39.331813      8.445988
  O       7.555320     39.208882      8.346183
  O       6.145256     36.935688      8.333139
  O       8.596781     41.591828      8.344069
  O       6.185349     38.519735      6.198028
  O       8.905011     39.955489      6.184014
  Si     11.512007     26.094257      7.798661
  Si     14.161526     24.547425      7.845121
  O      10.173406     25.380181      8.393396
  O      12.869872     25.402284      8.369069
  O      13.911458     23.014956      8.341620
  O      11.447154     25.851568      6.174040
  O      14.187919     24.654369      6.203140
  Si     11.553569     29.268695      7.780709
  Al     11.617543     35.404542      7.758677
  Si     14.261684     33.791866      7.780284
  Si     14.220198     30.749739      7.787471
  O      10.202965     30.022109      8.342660
  O      10.098945     34.598457      8.295839
  O      13.057911     34.605637      8.432634
  O      12.884682     29.983930      8.421190
  O      11.493834     27.686030      8.153667
  O      14.383776     32.241776      8.395327
  O      11.582962     29.472363      6.158532
  O      11.804349     35.011343      6.043340
  O      13.990753     33.569095      6.172077
  O      13.943360     30.872652      6.176148
  Si     11.627027     38.683857      7.800295
  Si     14.387409     40.057079      7.864214
  O      10.274856     39.464561      8.350487
  O      12.999863     39.381536      8.407239
  O      11.573338     37.120144      8.074921
  O      14.628525     41.594878      8.354899
  O      11.725075     39.050771      6.184856
  O      14.380172     39.937982      6.218388
  Si     16.877965     26.004142      7.897444
  O      15.542645     25.206397      8.405149
  O      18.156213     25.176770      8.476327
  O      16.818047     26.013631      6.253380
  Si     16.923630     29.072161      7.797046
  Si     17.066786     35.334301      7.718922
  Si     19.691700     33.721960      7.815473
  Si     19.548531     30.638291      7.849003
  O      15.512030     29.816973      8.089265
  O      15.733455     34.473130      8.033192
  O      18.373847     34.542290      8.319227
  O      18.160663     29.949234      8.383389
  O      16.864524     27.555469      8.408032
  O      19.701696     32.176566      8.354945
  O      17.158426     28.861580      6.181677
  O      17.352113     35.434620      6.102194
  O      19.603763     33.625731      6.172530
  O      19.467135     30.670093      6.202987
  Si     16.990024     38.397934      7.807634
  O      15.716904     39.239985      8.361287
  O      18.453167     38.948690      8.281846
  O      16.955490     36.840086      8.321819
  O      16.876669     38.361538      6.163604
  O      20.730555     29.640855      8.367677
  O      21.102491     34.358490      8.329161
  H       4.074657     24.986772      8.036591
  H       1.410409     29.602015      8.036749
  H       1.410409     35.007985      8.036749
  H       4.074657     39.623228      8.036591
  H       8.948181     22.173255      8.038302
  H       8.948181     42.436745      8.038302
  H      14.277762     22.173204      8.038282
  H      14.277762     42.436796      8.038282
  H      18.960557     24.876228      8.036406
  H      18.960556     39.733772      8.036406
  H      21.624717     29.491420      8.036583
  H      21.624717     35.118580      8.036583
  H      13.161829     34.075832      5.919640
  H      11.000844     34.761690      5.581884
  H       8.968194     32.841205      5.687380
  H       9.889184     30.352896      5.763792
  H      12.384022     29.954022      5.865522
  H      13.957405     31.824561      5.907855
  H      13.511866     39.663049      5.875636
  H      10.871090     39.257122      5.785062
  H       8.098482     39.583629      5.804777
  H       6.042516     37.641648      5.815117
  H       5.157370     35.017752      5.753859
  H       3.424787     32.886030      5.874606
  H       4.168817     30.234334      5.832956
  H       6.013774     28.181029      5.779112
  H       6.956284     25.608994      5.872285
  H       9.633377     24.938551      5.862725
  H      12.286303     25.564994      5.787817
  H      14.991779     25.080473      5.868454
  H      16.979753     26.896449      5.881140
  H      17.828595     29.454831      5.810380
  H      19.492617     31.574092      5.851325
  H      18.927702     34.214574      5.799803
  H      17.157395     36.308152      5.732341
  H      16.078917     38.815981      5.847590
  P      14.207814     37.943009     12.704421
  O      16.033195     34.451668     13.209051
  O      18.880024     33.902187     12.488399
  O      17.553056     32.270453     10.903774
  O      15.725942     37.345700     12.907450
  O      15.031520     30.988640     11.336982
  O      13.925239     38.724894     13.913856
  O      13.329697     36.819858     12.227880
  O      14.430631     38.909435     11.409395
  N      14.524709     33.108261     12.021328
  N      12.932932     31.766174     11.003237
  N      10.904377     32.596572     10.273514
  C      17.856664     34.503384     11.730368
  C      16.873582     33.443698     11.247659
  C      16.994000     35.366258     12.628562
  C      15.938477     33.304294     12.462145
  C      16.311078     36.530314     11.938167
  C      13.634915     34.123642     12.042285
  C      14.229608     31.896135     11.457463
  C      12.396467     34.001469     11.501833
  C      12.045238     32.786021     10.907791
  H      18.271951     35.075689     10.894838
  H      16.301935     33.836542     10.399575
  H      17.582460     35.751424     13.462702
  H      16.190472     32.415234     13.048693
  H      15.570333     36.173309     11.209477
  H      17.070148     37.092692     11.377440
  H      19.039968     33.042691     12.077232
  H      16.905716     31.551939     10.885503
  H      13.915717     35.096068     12.457006
  H      11.751813     34.867957     11.490699
  H      10.412266     33.419586      9.941063
  H      10.664537     31.739343      9.799080
  H      13.772745     38.673094     10.748592
  H      12.778466     30.915100     10.474866
161
Coordinates from ORCA-job cmp_prot_al_frame02_dry E -13345.542149313625
  Si      3.447170     33.816535      7.879205
  Si      3.497667     30.725437      7.878657
  O       2.164079     34.614196      8.489349
  O       2.245404     29.850942      8.454222
  O       3.430438     32.265984      8.403953
  O       3.431867     33.785912      6.233020
  O       3.498642     30.806188      6.234757
  Si      6.175071     26.081093      7.886418
  Si      8.853968     24.549954      7.892666
  O       4.854693     25.338893      8.479704
  O       7.508592     25.308561      8.416064
  O       8.840310     23.028884      8.475035
  O       6.206047     26.097979      6.239812
  O       8.814388     24.587419      6.248435
  Si      6.129944     29.154829      7.767357
  Si      6.075081     35.421100      7.743876
  Si      8.838114     33.850486      7.661729
  Si      8.869902     30.753563      7.684036
  O       4.886014     30.015670      8.370015
  O       4.802600     34.584066      8.348087
  O       7.437921     34.605765      8.047644
  O       7.532473     29.914809      8.073655
  O       6.182753     27.640761      8.369759
  O       8.751383     32.278926      8.221207
  O       5.838392     29.053123      6.152494
  O       5.821217     35.615724      6.128570
  O       8.948271     33.749140      6.027601
  O       9.069437     30.789041      6.061506
  Si      6.179676     38.502048      7.847330
  Si      8.857160     40.062977      7.834789
  O       4.902547     39.330813      8.444561
  O       7.555956     39.210408      8.353263
  O       6.145926     36.936140      8.337231
  O       8.599478     41.592229      8.348170
  O       6.189943     38.518446      6.201340
  O       8.903677     39.955219      6.187920
  Si     11.511322     26.093722      7.796966
  Si     14.160869     24.546895      7.842857
  O      10.172284     25.380135      8.391035
  O      12.869301     25.401704      8.367364
  O      13.910310     23.014684      8.340166
  O      11.446761     25.851032      6.172712
  O      14.187300     24.652798      6.200743
  Si     11.552631     29.267718      7.781333
  Al     11.618605     35.402454      7.762995
  Si     14.263138     33.790547      7.787470
  Si     14.220992     30.747305      7.788475
  O      10.202169     30.020963      8.342669
  O      10.100583     34.596596      8.302599
  O      13.057366     34.602891      8.438452
  O      12.885369     29.980270      8.419981
  O      11.492288     27.685138      8.153351
  O      14.384040     32.238868      8.398191
  O      11.580336     29.473292      6.159209
  O      11.804236     35.011189      6.048504
  O      13.997869     33.571933      6.177541
  O      13.943928     30.871905      6.177313
  Si     11.627919     38.681563      7.801836
  Si     14.387523     40.057269      7.858744
  O      10.276039     39.461906      8.353789
  O      13.002091     39.380655      8.404115
  O      11.573306     37.118073      8.081062
  O      14.627138     41.593876      8.352939
  O      11.723068     39.047092      6.186364
  O      14.380121     39.939080      6.213217
  Si     16.878170     26.002871      7.894398
  O      15.541017     25.208248      8.401976
  O      18.153730     25.172466      8.474422
  O      16.818903     26.012322      6.250252
  Si     16.924807     29.071238      7.794917
  Si     17.066193     35.333071      7.725462
  Si     19.691817     33.722403      7.815803
  Si     19.548582     30.637906      7.847227
  O      15.512558     29.813848      8.088922
  O      15.734047     34.471509      8.044971
  O      18.373763     34.540019      8.324130
  O      18.160995     29.949224      8.382282
  O      16.867090     27.554051      8.404897
  O      19.703223     32.176214      8.353686
  O      17.159867     28.861780      6.179656
  O      17.348776     35.431317      6.108023
  O      19.601519     33.628002      6.173103
  O      19.466431     30.671136      6.201036
  Si     16.991063     38.396687      7.807904
  O      15.716747     39.240387      8.355698
  O      18.453600     38.948542      8.281562
  O      16.956652     36.840245      8.325341
  O      16.878657     38.354901      6.163283
  O      20.728687     29.636905      8.363794
  O      21.101868     34.359607      8.330391
  H       4.074657     24.986772      8.036591
  H       1.410409     29.602015      8.036749
  H       1.410409     35.007985      8.036749
  H       4.074657     39.623228      8.036591
  H       8.948181     22.173255      8.038302
  H       8.948181     42.436745      8.038302
  H      14.277762     22.173204      8.038282
  H      14.277762     42.436796      8.038282
  H      18.960557     24.876228      8.036406
  H      18.960557     39.733772      8.036406
  H      21.624717     29.491420      8.036583
  H      21.624717     35.118580      8.036583
  H      13.173043     34.081818      5.921751
  H      10.999073     34.762666      5.589225
  H       8.968709     32.843386      5.693843
  H       9.886790     30.356276      5.764297
  H      12.380730     29.955681      5.866258
  H      13.957315     31.823627      5.909510
  H      13.510816     39.664194      5.872939
  H      10.868799     39.256120      5.788541
  H       8.096432     39.587065      5.806877
  H       6.047630     37.640408      5.818350
  H       5.161770     35.016508      5.757909
  H       3.426346     32.886835      5.874778
  H       4.168678     30.235180      5.830326
  H       6.013747     28.178885      5.779481
  H       6.954347     25.607374      5.871251
  H       9.631574     24.936293      5.860769
  H      12.286075     25.564229      5.787223
  H      14.990642     25.079682      5.866184
  H      16.981134     26.895259      5.878847
  H      17.830363     29.455283      5.809505
  H      19.489857     31.575426      5.850476
  H      18.923770     34.216963      5.803505
  H      17.155221     36.305560      5.738921
  H      16.082420     38.810495      5.845574
  P      14.250912     37.921022     12.720357
  O      16.046559     34.413674     13.223957
  O      18.886504     33.839254     12.506742
  O      17.547358     32.228050     10.909327
  O      15.763618     37.313722     12.926414
  O      15.016638     30.964180     11.340879
  O      13.977213     38.717352     13.924243
  O      13.359752     36.802875     12.258946
  O      14.485747     38.869191     11.414956
  N      14.528202     33.085630     12.033354
  N      12.924336     31.759732     11.012346
  N      10.897085     32.603725     10.293802
  C      17.872217     34.454063     11.747986
  C      16.878611     33.406097     11.259168
  C      17.014340     35.322483     12.647343
  C      15.942720     33.269541     12.472188
  C      16.342376     36.493038     11.956776
  C      13.645582     34.107260     12.057165
  C      14.221656     31.877254     11.466271
  C      12.405228     33.996670     11.518398
  C      12.043214     32.785978     10.922667
  H      18.295843     35.024521     10.915508
  H      16.312510     33.808223     10.411679
  H      17.604018     35.700843     13.483616
  H      16.189867     32.377683     13.056580
  H      15.598963     36.144276     11.227093
  H      17.107248     37.049607     11.398171
  H      19.040807     32.980877     12.091235
  H      16.893626     31.515332     10.890945
  H      13.932971     35.077390     12.474834
  H      11.766418     34.867470     11.511654
  H      10.409520     33.428592      9.958503
  H      10.662145     31.750044      9.811311
  H      13.813238     38.644762     10.764626
  H      12.765269     30.914277     10.476014
161
Coordinates from ORCA-job cmp_prot_al_frame02_dry E -13345.542285709558
  Si      3.447194     33.816959      7.879726
  Si      3.498417     30.725338      7.876989
  O       2.163885     34.614223      8.489630
  O       2.250103     29.843688      8.448919
  O       3.427329     32.265333      8.402979
  O       3.435738     33.786594      6.233508
  O       3.502683     30.810369      6.233030
  Si      6.173457     26.081865      7.886582
  Si      8.852026     24.549185      7.892169
  O       4.851407     25.343909      8.481525
  O       7.506099     25.306852      8.415369
  O       8.841140     23.028624      8.475578
  O       6.204536     26.097555      6.239798
  O       8.811076     24.587853      6.247749
  Si      6.131159     29.155687      7.767557
  Si      6.076969     35.421132      7.750992
  Si      8.840142     33.851923      7.671723
  Si      8.870983     30.755657      7.687922
  O       4.887212     30.016905      8.369457
  O       4.803081     34.582586      8.351309
  O       7.439763     34.606756      8.057348
  O       7.533132     29.916738      8.074121
  O       6.185326     27.641541      8.369740
  O       8.752174     32.279693      8.228244
  O       5.839000     29.052578      6.153162
  O       5.827026     35.615366      6.135761
  O       8.950301     33.755150      6.038229
  O       9.070225     30.796041      6.064914
  Si      6.180950     38.502431      7.854294
  Si      8.857855     40.062615      7.840184
  O       4.901888     39.330120      8.445014
  O       7.555591     39.212616      8.363845
  O       6.146590     36.936418      8.344209
  O       8.601254     41.592960      8.352019
  O       6.197276     38.516038      6.208362
  O       8.896921     39.950725      6.194141
  Si     11.509300     26.093566      7.795988
  Si     14.158527     24.546345      7.840213
  O      10.169587     25.380810      8.389805
  O      12.867498     25.401332      8.365827
  O      13.907706     23.014169      8.337862
  O      11.444513     25.848790      6.172281
  O      14.184496     24.653900      6.197822
  Si     11.551946     29.267542      7.781330
  Al     11.621309     35.400723      7.774679
  Si     14.265799     33.788431      7.799106
  Si     14.222616     30.744028      7.790686
  O      10.202441     30.020430      8.343945
  O      10.104039     34.593223      8.315551
  O      13.058043     34.598507      8.450572
  O      12.886220     29.976945      8.420223
  O      11.490043     27.684914      8.152322
  O      14.386580     32.234288      8.403725
  O      11.579343     29.475709      6.159334
  O      11.805739     35.011363      6.061216
  O      14.005744     33.575825      6.187382
  O      13.943914     30.872657      6.180116
  Si     11.629456     38.680193      7.806214
  Si     14.388371     40.057870      7.852841
  O      10.277846     39.460626      8.358552
  O      13.004801     39.381380      8.401582
  O      11.574025     37.117052      8.093148
  O      14.627108     41.593083      8.350264
  O      11.718256     39.041029      6.189722
  O      14.379490     39.937955      6.208031
  Si     16.877486     25.999383      7.891120
  O      15.538360     25.208615      8.398285
  O      18.148885     25.163391      8.471497
  O      16.817146     26.010331      6.246642
  Si     16.926082     29.068045      7.793530
  Si     17.066706     35.330018      7.734550
  Si     19.692987     33.721615      7.816445
  Si     19.547992     30.636176      7.845159
  O      15.513171     29.808697      8.088453
  O      15.735604     34.468348      8.061473
  O      18.375026     34.536089      8.331082
  O      18.161176     29.947258      8.381430
  O      16.869818     27.550344      8.402396
  O      19.706221     32.174303      8.352065
  O      17.162405     28.859128      6.178445
  O      17.345246     35.425466      6.115814
  O      19.597095     33.628577      6.174197
  O      19.461663     30.672755      6.198701
  Si     16.992986     38.393959      7.808477
  O      15.717831     39.241207      8.348937
  O      18.455521     38.946590      8.279813
  O      16.959126     36.839006      8.330225
  O      16.878375     38.342668      6.162996
  O      20.725883     29.630982      8.358325
  O      21.102664     34.359300      8.331000
  H       4.074657     24.986772      8.036591
  H       1.410409     29.602015      8.036749
  H       1.410409     35.007985      8.036749
  H       4.074657     39.623228      8.036591
  H       8.948181     22.173255      8.038302
  H       8.948181     42.436745      8.038302
  H      14.277762     22.173204      8.038282
  H      14.277762     42.436796      8.038282
  H      18.960557     24.876228      8.036406
  H      18.960556     39.733772      8.036406
  H      21.624717     29.491420      8.036583
  H      21.624717     35.118580      8.036583
  H      13.182795     34.087404      5.930058
  H      10.998872     34.767451      5.602270
  H       8.973941     32.850034      5.702652
  H       9.886002     30.361541      5.766275
  H      12.380182     29.958433      5.868359
  H      13.950748     31.825468      5.916403
  H      13.508606     39.660674      5.873368
  H      10.862067     39.248861      5.795049
  H       8.091187     39.574194      5.817820
  H       6.056793     37.637397      5.825663
  H       5.168949     35.015718      5.763329
  H       3.429296     32.886906      5.876481
  H       4.170780     30.236510      5.829403
  H       6.014773     28.177540      5.782079
  H       6.953826     25.606891      5.873125
  H       9.629350     24.935591      5.861183
  H      12.285085     25.563633      5.787995
  H      14.988800     25.080749      5.865201
  H      16.980160     26.894554      5.878207
  H      17.831985     29.454724      5.809567
  H      19.484633     31.578379      5.851380
  H      18.916693     34.218575      5.810244
  H      17.151577     36.300340      5.747691
  H      16.083475     38.799861      5.844794
  P      14.335519     37.881535     12.741085
  O      16.085638     34.345579     13.230697
  O      18.913822     33.738261     12.508654
  O      17.553550     32.159768     10.894904
  O      15.839567     37.257391     12.942975
  O      15.009382     30.922991     11.318647
  O      14.078093     38.696761     13.937835
  O      13.423961     36.773312     12.299989
  O      14.581604     38.804526     11.419969
  N      14.548879     33.043897     12.034438
  N      12.927155     31.747890     11.001507
  N      10.904799     32.618468     10.300267
  C      17.909842     34.372890     11.753746
  C      16.900541     33.342967     11.257338
  C      17.061477     35.246982     12.658290
  C      15.965107     33.207736     12.469811
  C      16.404490     36.428713     11.971304
  C      13.677244     34.074481     12.069668
  C      14.226738     31.845048     11.453380
  C      12.434665     33.984643     11.531071
  C      12.057244     32.785286     10.925532
  H      18.341896     34.942285     10.924856
  H      16.338857     33.760751     10.414442
  H      17.655994     35.615570     13.495467
  H      16.205700     32.310675     13.049256
  H      15.654512     36.094082     11.242112
  H      17.176715     36.976174     11.414094
  H      19.056698     32.880638     12.087703
  H      16.890143     31.456183     10.870288
  H      13.976082     35.037451     12.498326
  H      11.805199     34.862176     11.535226
  H      10.429672     33.450151      9.963712
  H      10.672712     31.772641      9.803316
  H      13.885408     38.596907     10.789156
  H      12.759696     30.914428     10.448858
161
Coordinates from ORCA-job cmp_prot_al_frame02_dry E -13345.542361681260
  Si      3.447651     33.818284      7.880040
  Si      3.498488     30.726142      7.876603
  O       2.164905     34.616308      8.489798
  O       2.252269     29.840508      8.446127
  O       3.425148     32.265995      8.402420
  O       3.438494     33.788136      6.233806
  O       3.505350     30.814046      6.232587
  Si      6.171557     26.083119      7.887788
  Si      8.850106     24.548463      7.893174
  O       4.848048     25.348463      8.483708
  O       7.503448     25.305695      8.415192
  O       8.840381     23.027921      8.476784
  O       6.201721     26.098225      6.240827
  O       8.809244     24.587890      6.248637
  Si      6.131766     29.157215      7.768918
  Si      6.079489     35.420482      7.755267
  Si      8.842853     33.853071      7.680201
  Si      8.871478     30.757493      7.691452
  O       4.887229     30.018136      8.370069
  O       4.804295     34.581903      8.353183
  O       7.442169     34.607543      8.066059
  O       7.532791     29.919543      8.076385
  O       6.187005     27.642901      8.370790
  O       8.752721     32.280399      8.234861
  O       5.840229     29.053225      6.154538
  O       5.833362     35.612045      6.139516
  O       8.953408     33.759086      6.047088
  O       9.070855     30.801157      6.068157
  Si      6.180076     38.502073      7.856019
  Si      8.857919     40.063325      7.841586
  O       4.902077     39.330898      8.445218
  O       7.554911     39.213146      8.363933
  O       6.147667     36.936324      8.347319
  O       8.601306     41.593703      8.354251
  O       6.195330     38.512369      6.210366
  O       8.895983     39.952789      6.195921
  Si     11.507652     26.093225      7.798174
  Si     14.156836     24.545539      7.841511
  O      10.167080     25.380860      8.391035
  O      12.865677     25.400183      8.367561
  O      13.908213     23.013413      8.340267
  O      11.443252     25.848099      6.174501
  O      14.181581     24.653085      6.198813
  Si     11.550915     29.266754      7.782339
  Al     11.623708     35.399552      7.785276
  Si     14.267964     33.787496      7.810088
  Si     14.223777     30.741935      7.794943
  O      10.201241     30.018397      8.344516
  O      10.107330     34.591192      8.325941
  O      13.059269     34.596195      8.461971
  O      12.885810     29.975337      8.421611
  O      11.488454     27.684399      8.154794
  O      14.387817     32.231403      8.410294
  O      11.579113     29.475153      6.160214
  O      11.807871     35.013120      6.071875
  O      14.011795     33.579583      6.197111
  O      13.947377     30.873159      6.184198
  Si     11.629839     38.678742      7.810037
  Si     14.387527     40.059007      7.851685
  O      10.277516     39.459387      8.360333
  O      13.004904     39.382527      8.402082
  O      11.575151     37.116640      8.104756
  O      14.624517     41.593028      8.352803
  O      11.715644     39.033606      6.192191
  O      14.376810     39.940256      6.207340
  Si     16.877055     25.996892      7.891213
  O      15.536474     25.209067      8.398036
  O      18.146384     25.157445      8.470848
  O      16.815574     26.008748      6.246491
  Si     16.926273     29.066011      7.796046
  Si     17.066888     35.328243      7.743216
  Si     19.693813     33.721868      7.820217
  Si     19.547668     30.635342      7.847327
  O      15.513389     29.805713      8.093670
  O      15.736926     34.466946      8.077626
  O      18.375963     34.534677      8.338765
  O      18.161747     29.944730      8.383694
  O      16.871547     27.547653      8.403308
  O      19.706762     32.173623      8.354160
  O      17.161337     28.859102      6.180548
  O      17.341008     35.420404      6.123254
  O      19.595160     33.630499      6.178275
  O      19.458972     30.673355      6.200671
  Si     16.993867     38.393024      7.811573
  O      15.716961     39.241280      8.346153
  O      18.454856     38.948234      8.283572
  O      16.960853     36.838731      8.334775
  O      16.879835     38.335997      6.165258
  O      20.726096     29.630303      8.359047
  O      21.102966     34.360516      8.334994
  H       4.074657     24.986772      8.036591
  H       1.410409     29.602015      8.036749
  H       1.410409     35.007985      8.036749
  H       4.074657     39.623228      8.036591
  H       8.948181     22.173255      8.038302
  H       8.948181     42.436745      8.038302
  H      14.277762     22.173204      8.038282
  H      14.277762     42.436796      8.038282
  H      18.960557     24.876228      8.036406
  H      18.960557     39.733772      8.036406
  H      21.624717     29.491420      8.036583
  H      21.624717     35.118580      8.036583
  H      13.186005     34.086954      5.940550
  H      11.000343     34.769495      5.613882
  H       8.977759     32.854469      5.710151
  H       9.885014     30.364100      5.768914
  H      12.381038     29.956430      5.870382
  H      13.958812     31.826113      5.921857
  H      13.505709     39.658754      5.876466
  H      10.859104     39.244508      5.799896
  H       8.087333     39.584245      5.817950
  H       6.059754     37.632248      5.829148
  H       5.174472     35.013490      5.766678
  H       3.431020     32.888046      5.877522
  H       4.172342     30.238549      5.829410
  H       6.015122     28.177373      5.784786
  H       6.951001     25.606955      5.874755
  H       9.628202     24.935468      5.863161
  H      12.284289     25.563230      5.790898
  H      14.986424     25.079389      5.866626
  H      16.978025     26.893833      5.879639
  H      17.830169     29.455856      5.812023
  H      19.483210     31.579435      5.854617
  H      18.911484     34.219264      5.817836
  H      17.149145     36.296060      5.755584
  H      16.086659     38.794443      5.845250
  P      14.387053     37.857673     12.761927
  O      16.096806     34.309472     13.247228
  O      18.918370     33.667794     12.532162
  O      17.543437     32.112023     10.907785
  O      15.886080     37.224773     12.962896
  O      14.993294     30.893847     11.339743
  O      14.134990     38.683908     13.952634
  O      13.466411     36.753596     12.331084
  O      14.640661     38.765594     11.431742
  N      14.549871     33.020595     12.050695
  N      12.916558     31.733640     11.026061
  N      10.894794     32.612068     10.335828
  C      17.925503     34.316871     11.775690
  C      16.904342     33.301543     11.273862
  C      17.084308     35.199695     12.679122
  C      15.966465     33.173412     12.485018
  C      16.442783     36.389843     11.991742
  C      13.685523     34.056991     12.087264
  C      14.218256     31.822089     11.473678
  C      12.439800     33.974063     11.553988
  C      12.052575     32.776772     10.953962
  H      18.367099     34.881892     10.948829
  H      16.348474     33.729792     10.431691
  H      17.681141     35.561597     13.517653
  H      16.201163     32.275136     13.065303
  H      15.689303     36.065066     11.261947
  H      17.221892     36.929363     11.436586
  H      19.051193     32.809010     12.110218
  H      16.870976     31.416869     10.879566
  H      13.994680     35.019608     12.511344
  H      11.815984     34.855581     11.557457
  H      10.420533     33.444518      9.999852
  H      10.666768     31.768959      9.833223
  H      13.934067     38.568670     10.809107
  H      12.740903     30.900890     10.474823
161
Coordinates from ORCA-job cmp_prot_al_frame02_dry E -13345.542451222607
  Si      3.448307     33.819175      7.880864
  Si      3.499002     30.726871      7.877033
  O       2.165982     34.618246      8.489953
  O       2.254444     29.837176      8.443777
  O       3.422757     32.266548      8.402756
  O       3.441153     33.789087      6.234582
  O       3.508502     30.817454      6.232902
  Si      6.170080     26.084900      7.889903
  Si      8.848012     24.548192      7.894993
  O       4.844520     25.353688      8.485753
  O       7.500520     25.304347      8.416317
  O       8.839229     23.027262      8.477974
  O       6.199890     26.099662      6.242706
  O       8.807145     24.588532      6.250274
  Si      6.132745     29.159144      7.770805
  Si      6.081586     35.419652      7.758713
  Si      8.845779     33.854463      7.687406
  Si      8.872826     30.759617      7.693896
  O       4.887820     30.019811      8.371625
  O       4.805656     34.581089      8.354922
  O       7.444398     34.608127      8.073074
  O       7.533369     29.922243      8.078017
  O       6.188948     27.644796      8.372729
  O       8.754200     32.281315      8.240277
  O       5.840978     29.054244      6.156277
  O       5.838169     35.609478      6.142289
  O       8.957535     33.762816      6.054432
  O       9.073162     30.806322      6.070600
  Si      6.179310     38.501349      7.857170
  Si      8.857070     40.063482      7.842017
  O       4.902329     39.331740      8.445661
  O       7.554121     39.212750      8.363427
  O       6.148151     36.935891      8.349607
  O       8.600670     41.594017      8.354601
  O       6.194933     38.509425      6.211534
  O       8.894480     39.952726      6.196488
  Si     11.505819     26.092741      7.800088
  Si     14.154829     24.545088      7.843080
  O      10.164624     25.381164      8.392920
  O      12.863498     25.399156      8.369342
  O      13.907779     23.012782      8.341783
  O      11.441343     25.846738      6.176273
  O      14.178487     24.653625      6.200150
  Si     11.550665     29.266257      7.782692
  Al     11.626100     35.399544      7.794829
  Si     14.269687     33.786781      7.820038
  Si     14.224301     30.740816      7.799746
  O      10.201194     30.017125      8.345211
  O      10.110372     34.590149      8.335307
  O      13.060556     34.594605      8.472269
  O      12.884916     29.975008      8.424102
  O      11.487474     27.683956      8.156019
  O      14.388697     32.229242      8.417415
  O      11.580541     29.475289      6.160581
  O      11.810744     35.014082      6.081468
  O      14.015207     33.582221      6.206394
  O      13.949078     30.874672      6.188995
  Si     11.629432     38.678281      7.813289
  Si     14.386505     40.059695      7.852129
  O      10.276391     39.459724      8.360823
  O      13.003612     39.384229      8.403073
  O      11.575907     37.117300      8.114400
  O      14.623108     41.593177      8.354982
  O      11.714096     39.027100      6.193931
  O      14.373680     39.941915      6.207842
  Si     16.876069     25.994543      7.892207
  O      15.534686     25.208487      8.398754
  O      18.143501     25.150819      8.469930
  O      16.813366     26.007924      6.247241
  Si     16.925874     29.063946      7.798881
  Si     17.067253     35.326272      7.750900
  Si     19.694610     33.721423      7.823684
  Si     19.546805     30.634404      7.849355
  O      15.513062     29.803416      8.098229
  O      15.738180     34.465508      8.091405
  O      18.377256     34.533456      8.345436
  O      18.161670     29.942235      8.385749
  O      16.872724     27.545163      8.405145
  O      19.707723     32.172477      8.356126
  O      17.159198     28.858279      6.182862
  O      17.337290     35.415339      6.129884
  O      19.593213     33.631759      6.181890
  O      19.455204     30.674017      6.202622
  Si     16.994195     38.391786      7.814408
  O      15.716452     39.241362      8.344700
  O      18.454690     38.948822      8.285487
  O      16.962214     36.837909      8.338981
  O      16.880054     38.329895      6.167515
  O      20.725824     29.629209      8.359019
  O      21.103897     34.360684      8.337470
  H       4.074657     24.986772      8.036591
  H       1.410409     29.602015      8.036749
  H       1.410409     35.007985      8.036749
  H       4.074657     39.623228      8.036591
  H       8.948181     22.173255      8.038302
  H       8.948181     42.436745      8.038302
  H      14.277762     22.173204      8.038282
  H      14.277762     42.436796      8.038282
  H      18.960557     24.876228      8.036406
  H      18.960556     39.733772      8.036406
  H      21.624717     29.491420      8.036583
  H      21.624717     35.118580      8.036583
  H      13.188868     34.089402      5.950667
  H      11.003550     34.770770      5.622722
  H       8.982472     32.858709      5.716069
  H       9.886811     30.368345      5.771299
  H      12.380955     29.959960      5.872448
  H      13.958449     31.828251      5.929092
  H      13.501957     39.660109      5.878585
  H      10.857344     39.237710      5.801916
  H       8.085829     39.582116      5.820191
  H       6.060324     37.628531      5.831581
  H       5.178821     35.011793      5.768835
  H       3.434774     32.888463      5.879207
  H       4.174372     30.240135      5.830262
  H       6.015110     28.177842      5.787271
  H       6.950041     25.608717      5.877658
  H       9.627155     24.934946      5.865686
  H      12.282692     25.562058      5.792928
  H      14.984112     25.079243      5.868576
  H      16.976633     26.893512      5.881668
  H      17.826720     29.456383      5.813874
  H      19.479983     31.580721      5.857890
  H      18.907653     34.220306      5.823971
  H      17.146085     36.291390      5.762332
  H      16.088387     38.789755      5.846157
  P      14.449484     37.831306     12.781125
  O      16.116452     34.265184     13.252872
  O      18.932132     33.595505     12.543126
  O      17.546492     32.062604     10.907482
  O      15.943297     37.186565     12.977040
  O      14.989817     30.866705     11.328843
  O      14.209225     38.670480     13.964156
  O      13.515978     36.732361     12.364169
  O      14.705418     38.722955     11.439238
  N      14.558924     32.992915     12.050035
  N      12.917554     31.719242     11.022210
  N      10.898847     32.608555     10.340559
  C      17.948591     34.258051     11.786171
  C      16.918212     33.256290     11.277533
  C      17.114941     35.146318     12.690106
  C      15.976530     33.132514     12.487027
  C      16.487795     36.345042     12.004950
  C      13.701676     34.034734     12.091715
  C      14.220059     31.797954     11.469725
  C      12.454391     33.960593     11.559263
  C      12.059670     32.767864     10.955627
  H      18.398373     34.821191     10.962425
  H      16.366891     33.694964     10.437494
  H      17.713930     35.500614     13.530473
  H      16.202485     32.230465     13.064904
  H      15.728868     36.029678     11.276785
  H      17.272087     36.875343     11.448340
  H      19.056582     32.736586     12.118907
  H      16.868214     31.373562     10.874812
  H      14.018439     34.993779     12.518980
  H      11.835896     34.845811     11.566535
  H      10.429805     33.444098     10.004440
  H      10.671280     31.769014      9.831326
  H      13.986502     38.535968     10.828087
  H      12.735503     30.888849     10.469743
161
Coordinates from ORCA-job cmp_prot_al_frame02_dry E -13345.542581155740
  Si      3.449420     33.820155      7.881427
  Si      3.500170     30.727822      7.877555
  O       2.168602     34.622336      8.489534
  O       2.257961     29.831857      8.439988
  O       3.418570     32.267341      8.403097
  O       3.444279     33.789933      6.235097
  O       3.513791     30.822310      6.233255
  Si      6.167641     26.088261      7.893092
  Si      8.844122     24.547773      7.897431
  O       4.837875     25.364182      8.488739
  O       7.495125     25.301739      8.417804
  O       8.836395     23.026202      8.479538
  O       6.196428     26.102405      6.245499
  O       8.803356     24.589056      6.252450
  Si      6.134761     29.162570      7.773494
  Si      6.084628     35.417894      7.761447
  Si      8.850689     33.856759      7.695703
  Si      8.875668     30.762981      7.696290
  O       4.889167     30.022629      8.374212
  O       4.808243     34.579355      8.355957
  O       7.448059     34.609066      8.081460
  O       7.534864     29.926684      8.079909
  O       6.192691     27.648282      8.375686
  O       8.757159     32.283036      8.246699
  O       5.842565     29.056535      6.158532
  O       5.844501     35.604912      6.143765
  O       8.964832     33.767980      6.062615
  O       9.078084     30.813675      6.073254
  Si      6.177481     38.499851      7.855904
  Si      8.855149     40.063851      7.839516
  O       4.903215     39.333833      8.445974
  O       7.552938     39.211207      8.357687
  O       6.148206     36.934891      8.350350
  O       8.599126     41.594026      8.353241
  O       6.191532     38.505339      6.210184
  O       8.894019     39.954108      6.193800
  Si     11.502360     26.091285      7.801890
  Si     14.151247     24.544243      7.845226
  O      10.160333     25.381458      8.395391
  O      12.859220     25.396876      8.371355
  O      13.907460     23.011827      8.344594
  O      11.437378     25.844238      6.177659
  O      14.172578     24.653698      6.201958
  Si     11.550847     29.264757      7.782073
  Al     11.629963     35.400238      7.806290
  Si     14.272220     33.785646      7.833534
  Si     14.224529     30.739546      7.805663
  O      10.202145     30.015395      8.345327
  O      10.115206     34.589656      8.346503
  O      13.062436     34.592582      8.485560
  O      12.883572     29.974491      8.427195
  O      11.486228     27.682535      8.156541
  O      14.389571     32.226168      8.427485
  O      11.584440     29.474144      6.160110
  O      11.816617     35.015752      6.092631
  O      14.019154     33.585002      6.219295
  O      13.950399     30.878146      6.195007
  Si     11.628102     38.677900      7.815686
  Si     14.384259     40.061076      7.853177
  O      10.273813     39.461146      8.357999
  O      12.999964     39.387503      8.403373
  O      11.577294     37.118899      8.126513
  O      14.620320     41.593706      8.359659
  O      11.713368     39.016963      6.193896
  O      14.368669     39.946568      6.208644
  Si     16.874017     25.990807      7.892483
  O      15.531659     25.207352      8.399356
  O      18.138335     25.139902      8.467322
  O      16.809723     26.005604      6.247218
  Si     16.924841     29.060736      7.799967
  Si     17.067361     35.323574      7.761793
  Si     19.695603     33.721112      7.828400
  Si     19.545506     30.633416      7.850935
  O      15.512414     29.800451      8.102836
  O      15.740102     34.463397      8.111884
  O      18.379242     34.532710      8.354757
  O      18.161332     29.937886      8.385466
  O      16.874390     27.541657      8.405564
  O      19.708421     32.171058      8.358125
  O      17.154079     28.856660      6.182960
  O      17.330700     35.407305      6.139271
  O      19.591310     33.635109      6.186686
  O      19.451188     30.675225      6.204139
  Si     16.993946     38.390385      7.818642
  O      15.714934     39.241724      8.342555
  O      18.453536     38.950469      8.288807
  O      16.963442     36.836892      8.344423
  O      16.880996     38.322470      6.170981
  O      20.725692     29.629055      8.359039
  O      21.105375     34.360743      8.340894
  H       4.074657     24.986772      8.036591
  H       1.410409     29.602015      8.036749
  H       1.410409     35.007985      8.036749
  H       4.074657     39.623228      8.036591
  H       8.948181     22.173255      8.038302
  H       8.948181     42.436745      8.038302
  H      14.277762     22.173204      8.038282
  H      14.277762     42.436796      8.038282
  H      18.960557     24.876228      8.036406
  H      18.960557     39.733772      8.036406
  H      21.624717     29.491420      8.036583
  H      21.624717     35.118580      8.036583
  H      13.191166     34.091126      5.965201
  H      11.011106     34.771574      5.631428
  H       8.988673     32.864652      5.721938
  H       9.890051     30.372423      5.774002
  H      12.385101     29.959639      5.873970
  H      13.960472     31.832484      5.938188
  H      13.498069     39.661310      5.879281
  H      10.857258     39.228124      5.800876
  H       8.086631     39.577860      5.820008
  H       6.059374     37.623095      5.832289
  H       5.183379     35.009322      5.770032
  H       3.440255     32.888455      5.881219
  H       4.177803     30.242228      5.831256
  H       6.014244     28.179230      5.790305
  H       6.947914     25.612232      5.881744
  H       9.624630     24.933927      5.868778
  H      12.278782     25.559364      5.794220
  H      14.978921     25.078329      5.870406
  H      16.972031     26.891716      5.882232
  H      17.819932     29.455802      5.812565
  H      19.477843     31.582470      5.860761
  H      18.902510     34.221879      5.831428
  H      17.140546     36.283727      5.771571
  H      16.092069     38.784357      5.846621
  P      14.569409     37.782465     12.806331
  O      16.160528     34.190422     13.256890
  O      18.964481     33.466948     12.555908
  O      17.557035     31.973359     10.903672
  O      16.056204     37.120441     12.991636
  O      14.989935     30.816566     11.320872
  O      14.351688     38.642876     13.975896
  O      13.615075     36.690412     12.415166
  O      14.822374     38.648877     11.444972
  N      14.584153     32.946364     12.046065
  N      12.927518     31.693793     11.018945
  N      10.917171     32.603995     10.345066
  C      17.997743     34.152945     11.797551
  C      16.950308     33.175384     11.279364
  C      17.179584     35.053089     12.701495
  C      16.003768     33.062361     12.487748
  C      16.577889     36.265597     12.018797
  C      13.740728     33.998823     12.093407
  C      14.231876     31.757097     11.463185
  C      12.491140     33.939239     11.562593
  C      12.081671     32.752196     10.956467
  H      18.462351     34.711033     10.978488
  H      16.406413     33.631718     10.443518
  H      17.782526     35.393936     13.544731
  H      16.212631     32.153818     13.061698
  H      15.809166     35.964498     11.295077
  H      17.370092     36.778062     11.456818
  H      19.072767     32.607568     12.128111
  H      16.867285     31.296082     10.866504
  H      14.071507     34.952854     12.523204
  H      11.882983     34.831516     11.573239
  H      10.459604     33.445273     10.006665
  H      10.686702     31.769889      9.827350
  H      14.084271     38.476258     10.853242
  H      12.732539     30.863551     10.471022
161
Coordinates from ORCA-job cmp_prot_al_frame02_dry E -13345.542668511214
  Si      3.450081     33.820470      7.881234
  Si      3.500707     30.728176      7.877171
  O       2.170843     34.625739      8.488763
  O       2.259589     29.829458      8.437955
  O       3.416139     32.267656      8.402862
  O       3.445359     33.790117      6.234892
  O       3.516004     30.824292      6.232843
  Si      6.166136     26.090268      7.893411
  Si      8.841779     24.547472      7.896967
  O       4.833575     25.371685      8.489689
  O       7.491976     25.300251      8.416839
  O       8.833992     23.025916      8.479576
  O       6.193520     26.103761      6.245613
  O       8.801120     24.588258      6.251923
  Si      6.135779     29.164432      7.773590
  Si      6.086199     35.416744      7.761826
  Si      8.853270     33.857935      7.698417
  Si      8.876915     30.764856      7.696136
  O       4.889761     30.023828      8.374718
  O       4.809896     34.578003      8.355814
  O       7.450246     34.609851      8.085117
  O       7.535363     29.929196      8.079786
  O       6.195055     27.650223      8.375897
  O       8.758758     32.283970      8.248831
  O       5.843520     29.058170      6.158366
  O       5.847582     35.601422      6.143355
  O       8.967898     33.770187      6.065033
  O       9.080053     30.817787      6.073325
  Si      6.175785     38.499039      7.852650
  Si      8.854363     40.064339      7.834772
  O       4.904175     39.336056      8.445815
  O       7.552693     39.210195      8.349603
  O       6.147505     36.934584      8.349030
  O       8.598420     41.593525      8.351261
  O       6.185042     38.502981      6.206909
  O       8.895456     39.957648      6.188492
  Si     11.500205     26.090253      7.800537
  Si     14.149283     24.543489      7.844834
  O      10.157897     25.381517      8.394743
  O      12.856502     25.395204      8.370235
  O      13.908013     23.011457      8.346336
  O      11.434653     25.843098      6.176101
  O      14.169328     24.651847      6.201368
  Si     11.550766     29.263687      7.780425
  Al     11.632079     35.400418      7.807557
  Si     14.273638     33.784761      7.836398
  Si     14.224257     30.738757      7.805592
  O      10.202535     30.014718      8.344039
  O      10.118303     34.589987      8.349069
  O      13.063648     34.591817      8.487889
  O      12.883131     29.973683      8.426553
  O      11.485634     27.681417      8.155025
  O      14.389822     32.224601      8.429432
  O      11.585336     29.473270      6.158726
  O      11.819762     35.015354      6.093575
  O      14.020920     33.585419      6.222096
  O      13.950336     30.879165      6.194979
  Si     11.627538     38.677195      7.812538
  Si     14.382751     40.062592      7.851607
  O      10.272692     39.461668      8.352029
  O      12.997423     39.389576      8.399844
  O      11.578994     37.119344      8.128343
  O      14.618397     41.594070      8.362626
  O      11.714100     39.011482      6.189606
  O      14.366696     39.952525      6.206761
  Si     16.872775     25.988968      7.890175
  O      15.529813     25.207209      8.397804
  O      18.135064     25.134267      8.464535
  O      16.808567     26.003389      6.244840
  Si     16.924240     29.059290      7.796365
  Si     17.066798     35.323018      7.764502
  Si     19.695765     33.721868      7.828821
  Si     19.545252     30.633659      7.849515
  O      15.512276     29.799364      8.102112
  O      15.741012     34.462476      8.119364
  O      18.379948     34.533766      8.356851
  O      18.161387     29.935400      8.380932
  O      16.875339     27.540275      8.402186
  O      19.707238     32.171333      8.357102
  O      17.150286     28.855810      6.178797
  O      17.327064     35.403969      6.141405
  O      19.591999     33.638466      6.187032
  O      19.452137     30.675799      6.202656
  Si     16.993274     38.390665      7.819421
  O      15.712999     39.242074      8.339649
  O      18.451632     38.952523      8.291215
  O      16.962999     36.837104      8.344395
  O      16.883064     38.321944      6.171381
  O      20.726283     29.631336      8.359590
  O      21.105762     34.360845      8.342056
  H       4.074657     24.986772      8.036591
  H       1.410409     29.602015      8.036749
  H       1.410409     35.007985      8.036749
  H       4.074657     39.623228      8.036591
  H       8.948181     22.173255      8.038302
  H       8.948181     42.436745      8.038302
  H      14.277762     22.173204      8.038282
  H      14.277762     42.436796      8.038282
  H      18.960557     24.876228      8.036406
  H      18.960557     39.733772      8.036406
  H      21.624717     29.491420      8.036583
  H      21.624717     35.118580      8.036583
  H      13.193174     34.092889      5.968257
  H      11.015312     34.770071      5.631151
  H       8.989012     32.867338      5.723008
  H       9.891195     30.375548      5.773352
  H      12.384560     29.961542      5.872950
  H      13.962236     31.833737      5.938668
  H      13.497925     39.663953      5.875608
  H      10.859081     39.225832      5.796054
  H       8.088168     39.581677      5.814411
  H       6.055641     37.619633      5.830641
  H       5.184705     35.007251      5.770439
  H       3.442943     32.888304      5.881652
  H       4.179496     30.243526      5.830921
  H       6.012882     28.180275      5.790485
  H       6.945245     25.613926      5.881905
  H       9.622423     24.933023      5.868183
  H      12.275664     25.557232      5.792546
  H      14.976060     25.074986      5.868942
  H      16.969351     26.889344      5.879027
  H      17.815905     29.454421      5.807459
  H      19.480469     31.582820      5.859111
  H      18.901050     34.222849      5.832051
  H      17.138187     36.280653      5.773616
  H      16.096288     38.785496      5.844693
  P      14.639538     37.767045     12.818456
  O      16.181484     34.161836     13.254097
  O      18.981160     33.405883     12.562386
  O      17.563041     31.929908     10.905023
  O      16.123291     37.096337     12.994969
  O      14.990997     30.797176     11.316399
  O      14.438902     38.639050     13.981534
  O      13.672595     36.678897     12.444923
  O      14.887684     38.620861     11.447303
  N      14.596765     32.928760     12.042270
  N      12.933136     31.684582     11.016828
  N      10.926346     32.602536     10.344677
  C      18.024090     34.103379     11.801534
  C      16.967820     33.137512     11.279691
  C      17.214551     35.011937     12.704094
  C      16.017450     33.034022     12.486666
  C      16.630509     36.233024     12.021775
  C      13.759090     33.985915     12.090718
  C      14.237437     31.741263     11.460843
  C      12.508422     33.931722     11.560942
  C      12.092259     32.746479     10.954401
  H      18.497544     34.657336     10.984655
  H      16.429500     33.600654     10.444020
  H      17.818322     35.343288     13.550495
  H      16.216363     32.123624     13.061129
  H      15.856648     35.941669     11.299688
  H      17.428775     36.733810     11.457895
  H      19.081255     32.546072     12.133469
  H      16.867539     31.258543     10.869267
  H      14.095136     34.938524     12.521512
  H      11.903919     34.826422     11.572842
  H      10.471452     33.445103     10.005402
  H      10.694159     31.769394      9.825682
  H      14.143208     38.450790     10.863270
  H      12.733468     30.853946     10.471321
161
Coordinates from ORCA-job cmp_prot_al_frame02_dry E -13345.542783749745
  Si      3.451080     33.820356      7.881701
  Si      3.501951     30.728324      7.877062
  O       2.174938     34.632252      8.487318
  O       2.262720     29.824427      8.434219
  O       3.411290     32.267700      8.403590
  O       3.447648     33.789647      6.235418
  O       3.521174     30.827271      6.232920
  Si      6.163482     26.094012      7.894174
  Si      8.837347     24.547088      7.895915
  O       4.824927     25.386898      8.490917
  O       7.486103     25.297373      8.415738
  O       8.829394     23.025545      8.479147
  O       6.189037     26.106743      6.246205
  O       8.796838     24.587768      6.250964
  Si      6.137962     29.167599      7.775881
  Si      6.088208     35.415050      7.764599
  Si      8.856758     33.859832      7.704323
  Si      8.879223     30.767919      7.699819
  O       4.890958     30.025882      8.377315
  O       4.812456     34.575002      8.357385
  O       7.453658     34.611825      8.092886
  O       7.536572     29.933181      8.082781
  O       6.199472     27.653387      8.377736
  O       8.762179     32.286044      8.255192
  O       5.846874     29.061904      6.160137
  O       5.852256     35.596157      6.144952
  O       8.971378     33.772701      6.070424
  O       9.082782     30.823931      6.077395
  Si      6.173534     38.498012      7.848925
  Si      8.853368     40.064963      7.827692
  O       4.905589     39.340144      8.445959
  O       7.552666     39.209342      8.339028
  O       6.145048     36.934605      8.349049
  O       8.598816     41.592515      8.348913
  O       6.176309     38.499207      6.203196
  O       8.895935     39.962836      6.180325
  Si     11.495992     26.088476      7.798545
  Si     14.145569     24.542378      7.843071
  O      10.153326     25.381486      8.393901
  O      12.851513     25.392150      8.368155
  O      13.908163     23.010895      8.348032
  O      11.429106     25.842328      6.173890
  O      14.163243     24.649042      6.199476
  Si     11.550625     29.261831      7.780778
  Al     11.635252     35.400938      7.806259
  Si     14.275793     33.782706      7.839971
  Si     14.223613     30.736917      7.805113
  O      10.204191     30.014882      8.346230
  O      10.123281     34.591988      8.352574
  O      13.064819     34.590747      8.488935
  O      12.883554     29.971001      8.426943
  O      11.484323     27.679350      8.153651
  O      14.390095     32.221800      8.432132
  O      11.585293     29.472243      6.159677
  O      11.824562     35.013990      6.091994
  O      14.024266     33.584907      6.225547
  O      13.948047     30.880310      6.194969
  Si     11.627058     38.676220      7.805440
  Si     14.380999     40.065229      7.847448
  O      10.271888     39.462313      8.341975
  O      12.993907     39.393179      8.391830
  O      11.582251     37.119843      8.128528
  O      14.616093     41.594675      8.366542
  O      11.714383     39.003482      6.180987
  O      14.365106     39.962832      6.202232
  Si     16.870297     25.985910      7.884137
  O      15.526262     25.207428      8.394109
  O      18.128305     25.123647      8.457728
  O      16.806213     25.999816      6.238961
  Si     16.923731     29.057003      7.788007
  Si     17.065140     35.322247      7.769347
  Si     19.695599     33.723370      7.828118
  Si     19.545192     30.634467      7.845340
  O      15.512480     29.797378      8.098793
  O      15.742171     34.460212      8.131547
  O      18.380950     34.535644      8.359851
  O      18.161741     29.931709      8.370885
  O      16.877636     27.538000      8.394182
  O      19.705099     32.172243      8.354217
  O      17.143878     28.854699      6.169588
  O      17.319888     35.398973      6.145371
  O      19.592425     33.644581      6.186385
  O      19.455367     30.677206      6.198543
  Si     16.992060     38.390940      7.820434
  O      15.709789     39.242889      8.334430
  O      18.448675     38.955386      8.294064
  O      16.961373     36.837650      8.344907
  O      16.886428     38.321064      6.172099
  O      20.726909     29.634957      8.359279
  O      21.106381     34.360481      8.342326
  H       4.074657     24.986772      8.036591
  H       1.410409     29.602015      8.036749
  H       1.410409     35.007985      8.036749
  H       4.074657     39.623228      8.036591
  H       8.948181     22.173255      8.038302
  H       8.948181     42.436745      8.038302
  H      14.277762     22.173204      8.038282
  H      14.277762     42.436796      8.038282
  H      18.960557     24.876228      8.036406
  H      18.960557     39.733772      8.036406
  H      21.624717     29.491420      8.036583
  H      21.624717     35.118580      8.036583
  H      13.197351     34.094345      5.971015
  H      11.021815     34.767568      5.627289
  H       8.987775     32.870300      5.727031
  H       9.891464     30.378791      5.775374
  H      12.383678     29.961754      5.873296
  H      13.964011     31.835009      5.938942
  H      13.499625     39.669882      5.867285
  H      10.861031     39.223559      5.787185
  H       8.088209     39.587741      5.806711
  H       6.050927     37.614134      5.829556
  H       5.186937     35.003693      5.773534
  H       3.447738     32.887486      5.882847
  H       4.184110     30.245764      5.831179
  H       6.012331     28.183190      5.792530
  H       6.940744     25.617332      5.882053
  H       9.617777     24.932649      5.866680
  H      12.269378     25.555254      5.789744
  H      14.970464     25.069073      5.864718
  H      16.964094     26.885200      5.871157
  H      17.809329     29.451973      5.796640
  H      19.486173     31.583507      5.854130
  H      18.898129     34.224812      5.831586
  H      17.133591     36.276044      5.777373
  H      16.103715     38.787723      5.841125
  P      14.784129     37.728413     12.827518
  O      16.237111     34.103901     13.245016
  O      19.023628     33.280446     12.566873
  O      17.578493     31.838857     10.902118
  O      16.262744     37.043623     12.989507
  O      14.994521     30.752748     11.319076
  O      14.613777     38.619758     13.980383
  O      13.796223     36.647928     12.484734
  O      15.022434     38.560975     11.440535
  N      14.633599     32.892640     12.037323
  N      12.950217     31.669192     11.019332
  N      10.956799     32.612487     10.341954
  C      18.086074     34.000491     11.801681
  C      17.009873     33.058749     11.276368
  C      17.295208     34.928082     12.701289
  C      16.056443     32.975999     12.482746
  C      16.743704     36.163364     12.017511
  C      13.810818     33.962086     12.084148
  C      14.255011     31.708991     11.461563
  C      12.558716     33.922885     11.555733
  C      12.124224     32.741779     10.951923
  H      18.576194     34.543623     10.987360
  H      16.482330     33.535305     10.441169
  H      17.901908     35.242554     13.551895
  H      16.237896     32.063176     13.059270
  H      15.961365     35.889215     11.298163
  H      17.553008     36.642169     11.450449
  H      19.105824     32.419456     12.136424
  H      16.869190     31.181373     10.873347
  H      14.160886     34.912567     12.513620
  H      11.964894     34.824634     11.566309
  H      10.513005     33.459112      9.996916
  H      10.718297     31.781512      9.822085
  H      14.265685     38.395360     10.871324
  H      12.738996     30.838340     10.478467
161
Coordinates from ORCA-job cmp_prot_al_frame02_dry E -13345.543011136653
  Si      3.453083     33.820815      7.881979
  Si      3.503509     30.729143      7.876269
  O       2.182713     34.644689      8.484221
  O       2.267373     29.817409      8.427990
  O       3.403594     32.268332      8.404140
  O       3.451706     33.789335      6.235794
  O       3.528954     30.831995      6.232592
  Si      6.158631     26.100709      7.894200
  Si      8.829651     24.546629      7.893040
  O       4.809540     25.414048      8.491331
  O       7.476294     25.293567      8.412748
  O       8.820843     23.025228      8.477521
  O       6.181633     26.111828      6.246098
  O       8.789661     24.587215      6.248400
  Si      6.141032     29.173141      7.779286
  Si      6.091974     35.413018      7.769597
  Si      8.862318     33.863231      7.713384
  Si      8.882067     30.773079      7.706347
  O       4.892291     30.029563      8.380854
  O       4.817151     34.569950      8.360095
  O       7.459905     34.616226      8.105528
  O       7.537718     29.940337      8.088254
  O       6.206361     27.658808      8.379939
  O       8.768439     32.289985      8.265493
  O       5.852543     29.068362      6.162907
  O       5.860415     35.588163      6.148392
  O       8.975630     33.776450      6.078894
  O       9.083999     30.833367      6.084201
  Si      6.170097     38.496998      7.843955
  Si      8.853016     40.066010      7.818035
  O       4.907714     39.346786      8.446395
  O       7.552910     39.208960      8.323771
  O       6.140860     36.935362      8.349941
  O       8.600705     41.591031      8.347011
  O       6.161061     38.493820      6.198559
  O       8.897451     39.972100      6.168927
  Si     11.489001     26.085799      7.794664
  Si     14.139772     24.540621      7.839290
  O      10.145570     25.381411      8.391431
  O      12.843550     25.387323      8.363863
  O      13.908434     23.010047      8.350343
  O      11.420351     25.840959      6.170046
  O      14.154059     24.643686      6.195552
  Si     11.549652     29.259121      7.780621
  Al     11.640708     35.401711      7.800044
  Si     14.279666     33.779180      7.843290
  Si     14.222785     30.733354      7.802037
  O      10.206188     30.015470      8.349221
  O      10.131949     34.596137      8.355821
  O      13.066667     34.589464      8.486807
  O      12.884807     29.965301      8.424986
  O      11.481529     27.676388      8.150730
  O      14.390201     32.217021      8.433746
  O      11.582385     29.470868      6.160308
  O      11.832357     35.011732      6.085793
  O      14.032701     33.584475      6.228177
  O      13.944541     30.880932      6.192759
  Si     11.627552     38.674568      7.793568
  Si     14.379025     40.069786      7.839995
  O      10.271955     39.461855      8.327233
  O      12.989959     39.398767      8.378262
  O      11.589137     37.119899      8.126129
  O      14.613008     41.595775      8.372434
  O      11.713652     38.993083      6.167403
  O      14.364467     39.979692      6.194541
  Si     16.866359     25.981398      7.872597
  O      15.520184     25.209139      8.386874
  O      18.117063     25.106768      8.444901
  O      16.802217     25.994392      6.227851
  Si     16.923460     29.053855      7.773339
  Si     17.062063     35.321600      7.777723
  Si     19.694812     33.726405      7.826489
  Si     19.545625     30.636305      7.838516
  O      15.513304     29.794223      8.091900
  O      15.743960     34.456006      8.150386
  O      18.382432     34.539033      8.364673
  O      18.162852     29.926271      8.353362
  O      16.881814     27.534478      8.379365
  O      19.700279     32.174549      8.349593
  O      17.135071     28.853726      6.153781
  O      17.308432     35.393024      6.152394
  O      19.592123     33.654954      6.185057
  O      19.463247     30.680067      6.191765
  Si     16.990397     38.391591      7.823025
  O      15.704300     39.243923      8.326473
  O      18.443903     38.960464      8.299551
  O      16.958248     36.839018      8.346685
  O      16.892316     38.319989      6.174233
  O      20.728381     29.641676      8.359582
  O      21.107180     34.359824      8.342196
  H       4.074657     24.986772      8.036591
  H       1.410409     29.602015      8.036749
  H       1.410409     35.007985      8.036749
  H       4.074657     39.623228      8.036591
  H       8.948181     22.173255      8.038302
  H       8.948181     42.436745      8.038302
  H      14.277762     22.173204      8.038282
  H      14.277762     42.436796      8.038282
  H      18.960557     24.876228      8.036406
  H      18.960557     39.733772      8.036406
  H      21.624717     29.491420      8.036583
  H      21.624717     35.118580      8.036583
  H      13.207880     34.096807      5.971017
  H      11.031345     34.764581      5.618581
  H       8.984961     32.874406      5.734289
  H       9.888678     30.384307      5.777783
  H      12.379632     29.961308      5.872092
  H      13.966084     31.835708      5.937118
  H      13.503890     39.679568      5.854749
  H      10.862230     39.222492      5.774967
  H       8.088269     39.602806      5.793573
  H       6.044352     37.605856      5.828858
  H       5.191404     34.997789      5.779930
  H       3.455295     32.886810      5.883929
  H       4.191852     30.250159      5.831282
  H       6.011887     28.188187      5.796204
  H       6.933003     25.623007      5.880824
  H       9.609745     24.932810      5.863201
  H      12.259765     25.552429      5.785368
  H      14.961667     25.058998      5.856658
  H      16.954789     26.879036      5.857034
  H      17.801075     29.448622      5.779205
  H      19.497642     31.585177      5.845876
  H      18.892326     34.228900      5.831405
  H      17.126603     36.271017      5.784551
  H      16.115694     38.790760      5.836427
  P      15.032985     37.661657     12.824339
  O      16.326431     34.006720     13.220740
  O      19.084870     33.061976     12.573804
  O      17.596643     31.679904     10.894872
  O      16.500674     36.949983     12.963447
  O      14.994475     30.676455     11.319410
  O      14.912957     38.580459     13.962778
  O      14.010511     36.599109     12.528520
  O      15.257589     38.462054     11.415891
  N      14.691838     32.830003     12.023855
  N      12.974483     31.641932     11.019691
  N      11.002570     32.625863     10.337161
  C      18.185875     33.819378     11.797432
  C      17.075519     32.921418     11.266239
  C      17.427015     34.782453     12.687928
  C      16.116802     32.877400     12.469692
  C      16.936401     36.039450     11.997036
  C      13.894286     33.919508     12.066934
  C      14.280434     31.653610     11.457065
  C      12.639421     33.905571     11.542615
  C      12.173321     32.732124     10.945625
  H      18.706800     34.339198     10.987149
  H      16.570206     33.419436     10.429407
  H      18.036961     35.069318     13.545770
  H      16.270167     31.963505     13.053121
  H      16.142197     35.797311     11.279692
  H      17.767359     36.476695     11.427902
  H      19.135943     32.198626     12.143143
  H      16.863569     31.048020     10.879960
  H      14.267241     34.866294     12.493983
  H      12.062912     34.818328     11.551257
  H      10.572613     33.476927      9.983650
  H      10.754346     31.796661      9.818914
  H      14.484184     38.303771     10.867668
  H      12.744887     30.813050     10.483192
161
Coordinates from ORCA-job cmp_prot_al_frame02_dry E -13345.543134863179
  Si      3.454869     33.821775      7.882215
  Si      3.503721     30.730366      7.877129
  O       2.189546     34.655898      8.481268
  O       2.268147     29.816452      8.426602
  O       3.398988     32.269772      8.405408
  O       3.454634     33.788950      6.236083
  O       3.533053     30.833539      6.233887
  Si      6.155261     26.106315      7.894145
  Si      8.823906     24.546795      7.891208
  O       4.798047     25.434662      8.489779
  O       7.469357     25.291953      8.411167
  O       8.812317     23.025098      8.475207
  O       6.178343     26.117098      6.246131
  O       8.785511     24.588819      6.247014
  Si      6.142626     29.177728      7.783577
  Si      6.094510     35.412447      7.772864
  Si      8.865727     33.865861      7.718391
  Si      8.883505     30.776416      7.713364
  O       4.892190     30.032423      8.384929
  O       4.821014     34.566426      8.362191
  O       7.464360     34.620188      8.112636
  O       7.538092     29.945570      8.095035
  O       6.210314     27.663069      8.382607
  O       8.772877     32.293579      8.272824
  O       5.856646     29.074483      6.166795
  O       5.865394     35.583973      6.150914
  O       8.978319     33.777736      6.083874
  O       9.083057     30.836441      6.091289
  Si      6.167076     38.496938      7.841725
  Si      8.853303     40.066423      7.812893
  O       4.908543     39.351748      8.448286
  O       7.552822     39.209254      8.314375
  O       6.137003     36.936520      8.351146
  O       8.601897     41.590061      8.345746
  O       6.148550     38.491472      6.196849
  O       8.898512     39.977213      6.162455
  Si     11.483833     26.084575      7.794074
  Si     14.135735     24.539746      7.837125
  O      10.139989     25.380990      8.391084
  O      12.838103     25.384244      8.361977
  O      13.908239     23.009421      8.351456
  O      11.414101     25.841433      6.169595
  O      14.147874     24.641303      6.193540
  Si     11.548532     29.258065      7.784140
  Al     11.644527     35.403052      7.793226
  Si     14.282369     33.776820      7.845552
  Si     14.221942     30.731134      7.801506
  O      10.207506     30.017539      8.355508
  O      10.137489     34.600755      8.355470
  O      13.068036     34.590396      8.483276
  O      12.886227     29.960854      8.426557
  O      11.479060     27.675008      8.151131
  O      14.390337     32.214247      8.436194
  O      11.578647     29.470835      6.164263
  O      11.839183     35.008818      6.079613
  O      14.039157     33.582123      6.230215
  O      13.940358     30.881160      6.193259
  Si     11.629186     38.674581      7.785868
  Si     14.379140     40.073453      7.837263
  O      10.273131     39.461290      8.318812
  O      12.988343     39.404173      8.370287
  O      11.595813     37.120147      8.120673
  O      14.613573     41.597695      8.376146
  O      11.713348     38.990008      6.159259
  O      14.367307     39.989823      6.191854
  Si     16.863210     25.978784      7.864633
  O      15.516035     25.210343      8.382729
  O      18.109768     25.096771      8.435192
  O      16.797954     25.991593      6.220440
  Si     16.923154     29.052138      7.764098
  Si     17.060187     35.322562      7.784990
  Si     19.693756     33.728589      7.825859
  Si     19.546585     30.637885      7.834678
  O      15.514205     29.792959      8.087893
  O      15.745450     34.452784      8.161077
  O      18.384272     34.542953      8.368556
  O      18.164301     29.922478      8.340721
  O      16.883856     27.532224      8.369524
  O      19.694965     32.176654      8.348027
  O      17.128672     28.853494      6.143720
  O      17.301719     35.392290      6.158877
  O      19.589953     33.660870      6.184832
  O      19.471590     30.682397      6.188045
  Si     16.989146     38.392816      7.827715
  O      15.700200     39.244287      8.326301
  O      18.440816     38.964510      8.304975
  O      16.955461     36.840805      8.350713
  O      16.894613     38.321628      6.179004
  O      20.730695     29.648330      8.362195
  O      21.108906     34.357689      8.339960
  H       4.074657     24.986772      8.036591
  H       1.410409     29.602015      8.036749
  H       1.410409     35.007985      8.036749
  H       4.074657     39.623228      8.036591
  H       8.948181     22.173255      8.038302
  H       8.948181     42.436745      8.038302
  H      14.277762     22.173204      8.038282
  H      14.277762     42.436796      8.038282
  H      18.960557     24.876228      8.036406
  H      18.960557     39.733772      8.036406
  H      21.624717     29.491420      8.036583
  H      21.624717     35.118580      8.036583
  H      13.215148     34.094811      5.970544
  H      11.039421     34.762391      5.610111
  H       8.982366     32.875529      5.739653
  H       9.885839     30.386120      5.782106
  H      12.375637     29.960556      5.874261
  H      13.965862     31.835968      5.937916
  H      13.509006     39.687657      5.848938
  H      10.862625     39.225012      5.768722
  H       8.088589     39.611918      5.785563
  H       6.038413     37.601668      5.829390
  H       5.194127     34.994294      5.785061
  H       3.460034     32.886312      5.884523
  H       4.197612     30.252787      5.833691
  H       6.013139     28.193732      5.800236
  H       6.929410     25.628684      5.879991
  H       9.605218     24.935229      5.861846
  H      12.253220     25.552885      5.784411
  H      14.955610     25.053434      5.851589
  H      16.947608     26.875726      5.847766
  H      17.795526     29.446376      5.768183
  H      19.507665     31.586682      5.840968
  H      18.887332     34.231585      5.832164
  H      17.122353     36.270655      5.790993
  H      16.120838     38.794259      5.837863
  P      15.184281     37.634770     12.808895
  O      16.373710     33.971088     13.211911
  O      19.115694     32.942571     12.606748
  O      17.607872     31.584911     10.925289
  O      16.645449     36.907734     12.939743
  O      14.992039     30.640508     11.346792
  O      15.086258     38.558564     13.946874
  O      14.146236     36.585143     12.523658
  O      15.405490     38.430394     11.398417
  N      14.726622     32.807149     12.025632
  N      12.990561     31.637349     11.031260
  N      11.040148     32.646595     10.325170
  C      18.245885     33.716816     11.814017
  C      17.116926     32.843666     11.280695
  C      17.504253     34.709001     12.688317
  C      16.149617     32.835089     12.476666
  C      17.059947     35.976141     11.983972
  C      13.947104     33.910883     12.053532
  C      14.295152     31.632155     11.472040
  C      12.693416     33.911492     11.526087
  C      12.208429     32.740104     10.939980
  H      18.789535     34.214382     11.004763
  H      16.632611     33.347473     10.434414
  H      18.111731     34.981965     13.552341
  H      16.283970     31.926447     13.073439
  H      16.265612     35.754717     11.260156
  H      17.910646     36.383703     11.422131
  H      19.148505     32.075080     12.182488
  H      16.858894     30.970924     10.922766
  H      14.335979     34.857868     12.471596
  H      12.129313     34.831872     11.521873
  H      10.617076     33.497855      9.963207
  H      10.782816     31.813565      9.817889
  H      14.631184     38.268619     10.852498
  H      12.751599     30.808014     10.499552
161
Coordinates from ORCA-job cmp_prot_al_frame02_dry E -13345.543400597748
  Si      3.457488     33.824502      7.881029
  Si      3.502962     30.733291      7.877375
  O       2.199420     34.672147      8.476350
  O       2.268116     29.818013      8.425665
  O       3.394513     32.273119      8.405860
  O       3.457811     33.789678      6.235061
  O       3.535451     30.835586      6.234786
  Si      6.150695     26.114220      7.892642
  Si      8.816115     24.547458      7.887229
  O       4.783160     25.461775      8.485555
  O       7.461026     25.291957      8.408420
  O       8.801028     23.025570      8.470731
  O       6.174935     26.124075      6.245049
  O       8.778681     24.591088      6.243758
  Si      6.143378     29.184177      7.787113
  Si      6.097850     35.412964      7.774287
  Si      8.869093     33.868952      7.717723
  Si      8.883923     30.780004      7.718038
  O       4.891522     30.037497      8.388107
  O       4.826675     34.562590      8.363107
  O       7.470340     34.625887      8.115467
  O       7.537618     29.952786      8.101058
  O       6.214207     27.669308      8.384476
  O       8.780365     32.298572      8.276274
  O       5.859832     29.082121      6.170328
  O       5.869930     35.582235      6.152285
  O       8.977641     33.777809      6.083443
  O       9.076430     30.837704      6.095277
  Si      6.164733     38.497569      7.840707
  Si      8.854170     40.066828      7.809691
  O       4.908941     39.355542      8.450174
  O       7.553001     39.210135      8.309132
  O       6.133623     36.938164      8.352228
  O       8.605134     41.589275      8.346995
  O       6.138060     38.491214      6.196649
  O       8.897566     39.983108      6.158306
  Si     11.477720     26.083030      7.789656
  Si     14.131337     24.538816      7.832758
  O      10.133114     25.380890      8.387450
  O      12.831967     25.381542      8.357095
  O      13.906023     23.008801      8.350017
  O      11.407536     25.838959      6.166006
  O      14.142706     24.637746      6.189505
  Si     11.546157     29.257425      7.780446
  Al     11.648875     35.405790      7.773772
  Si     14.285809     33.774565      7.838773
  Si     14.221318     30.728104      7.792629
  O      10.208427     30.019871      8.356739
  O      10.143963     34.607994      8.345662
  O      13.069451     34.593183      8.467398
  O      12.887828     29.955169      8.418741
  O      11.475225     27.674240      8.145052
  O      14.389141     32.211388      8.429208
  O      11.570085     29.471538      6.160518
  O      11.845958     35.007957      6.061624
  O      14.050550     33.581186      6.222191
  O      13.938141     30.878886      6.185290
  Si     11.631966     38.676317      7.774670
  Si     14.381080     40.077166      7.833800
  O      10.275179     39.458598      8.311615
  O      12.988367     39.410191      8.360354
  O      11.604207     37.120507      8.105426
  O      14.616810     41.599831      8.377641
  O      11.711569     38.994837      6.149162
  O      14.374528     39.998983      6.188644
  Si     16.859441     25.976132      7.854522
  O      15.510569     25.212968      8.377090
  O      18.101403     25.086398      8.422842
  O      16.792271     25.988380      6.211113
  Si     16.923441     29.050535      7.752405
  Si     17.059169     35.323763      7.789681
  Si     19.692461     33.730353      7.824456
  Si     19.548528     30.639182      7.830371
  O      15.515131     29.791655      8.078132
  O      15.747801     34.447501      8.164399
  O      18.385972     34.546077      8.371025
  O      18.166008     29.919180      8.325368
  O      16.885677     27.529863      8.357103
  O      19.687739     32.178611      8.347153
  O      17.125410     28.852839      6.131593
  O      17.298248     35.395124      6.163034
  O      19.587338     33.665221      6.184113
  O      19.484925     30.685144      6.183894
  Si     16.988931     38.393620      7.832814
  O      15.695823     39.242807      8.327943
  O      18.438858     38.967614      8.309798
  O      16.952105     36.842002      8.354413
  O      16.897588     38.324127      6.184101
  O      20.733212     29.654521      8.365269
  O      21.110752     34.354744      8.336111
  H       4.074657     24.986772      8.036591
  H       1.410409     29.602015      8.036749
  H       1.410409     35.007985      8.036749
  H       4.074657     39.623228      8.036591
  H       8.948181     22.173255      8.038302
  H       8.948181     42.436745      8.038302
  H      14.277762     22.173204      8.038282
  H      14.277762     42.436796      8.038282
  H      18.960557     24.876228      8.036406
  H      18.960557     39.733772      8.036406
  H      21.624717     29.491420      8.036583
  H      21.624717     35.118580      8.036583
  H      13.229127     34.094343      5.957721
  H      11.046235     34.763524      5.591158
  H       8.977673     32.874604      5.741696
  H       9.877313     30.387050      5.782031
  H      12.365834     29.960644      5.867356
  H      13.967454     31.833423      5.929564
  H      13.517446     39.697289      5.843233
  H      10.860445     39.235371      5.762772
  H       8.085536     39.627099      5.777846
  H       6.033806     37.600357      5.830009
  H       5.196539     34.992963      5.789275
  H       3.464294     32.887246      5.883199
  H       4.202106     30.256464      5.835660
  H       6.014062     28.200818      5.804059
  H       6.925912     25.636817      5.877492
  H       9.598053     24.937553      5.857967
  H      12.246490     25.549985      5.780857
  H      14.949940     25.047585      5.844122
  H      16.939741     26.871863      5.836524
  H      17.794175     29.443163      5.756079
  H      19.519501     31.588804      5.835646
  H      18.881768     34.233229      5.832956
  H      17.123166     36.274649      5.796072
  H      16.126197     38.797784      5.839743
  P      15.364736     37.575762     12.767029
  O      16.437436     33.903485     13.182855
  O      19.155784     32.780199     12.625598
  O      17.626820     31.454941     10.937138
  O      16.815763     36.827849     12.895815
  O      14.995966     30.579567     11.347886
  O      15.280498     38.491083     13.915101
  O      14.312744     36.545206     12.470873
  O      15.594437     38.380222     11.365372
  N      14.774137     32.757345     12.007782
  N      13.013677     31.611004     11.027529
  N      11.085487     32.650140     10.307811
  C      18.321392     33.573916     11.815347
  C      17.171575     32.732178     11.276634
  C      17.600156     34.597494     12.671824
  C      16.194218     32.761999     12.462310
  C      17.211171     35.875205     11.953596
  C      14.015101     33.876320     12.025738
  C      14.319400     31.586344     11.464701
  C      12.760903     33.895087     11.500223
  C      12.252527     32.728266     10.925843
  H      18.890585     34.045862     11.008041
  H      16.715975     33.243988     10.419191
  H      18.205343     34.854833     13.542280
  H      16.309535     31.859522     13.073224
  H      16.421251     35.679950     11.217457
  H      18.086498     36.249267     11.406611
  H      19.167993     31.909072     12.207432
  H      16.859682     30.862896     10.948215
  H      14.424925     34.820516     12.434277
  H      12.211089     34.823796     11.484806
  H      10.665924     33.502241      9.942395
  H      10.816459     31.814051      9.812733
  H      14.821294     38.221498     10.816282
  H      12.761998     30.784143     10.497852
161
Coordinates from ORCA-job cmp_prot_al_frame02_dry E -13345.542989448299
  Si      3.468257     33.840088      7.876098
  Si      3.496442     30.748878      7.883634
  O       2.235407     34.734203      8.454782
  O       2.260618     29.836725      8.431192
  O       3.382698     32.290997      8.408214
  O       3.470651     33.793751      6.230545
  O       3.537425     30.841745      6.242388
  Si      6.136058     26.143890      7.889800
  Si      8.788545     24.551844      7.881645
  O       4.732157     25.552470      8.460761
  O       7.432440     25.296111      8.406242
  O       8.756889     23.026051      8.453048
  O       6.176786     26.153005      6.243836
  O       8.757957     24.610149      6.240108
  Si      6.143466     29.209501      7.804931
  Si      6.110386     35.418729      7.774241
  Si      8.879970     33.880373      7.708016
  Si      8.886301     30.791468      7.739224
  O       4.886767     30.059647      8.401857
  O       4.848232     34.553038      8.363734
  O       7.490955     34.646912      8.111797
  O       7.535828     29.979533      8.127593
  O       6.223678     27.692926      8.395164
  O       8.807006     32.317520      8.284602
  O       5.865462     29.109749      6.188445
  O       5.881523     35.586168      6.153580
  O       8.972897     33.774220      6.076228
  O       9.054542     30.830975      6.113053
  Si      6.160171     38.501805      7.845781
  Si      8.857829     40.066012      7.813569
  O       4.907150     39.360579      8.457507
  O       7.551988     39.213681      8.313704
  O       6.127992     36.943836      8.355337
  O       8.614966     41.588621      8.355273
  O       6.122090     38.497501      6.204023
  O       8.889374     39.990280      6.161700
  Si     11.457296     26.080003      7.789351
  Si     14.116344     24.539629      7.825519
  O      10.109192     25.379968      8.386086
  O      12.813402     25.376583      8.352239
  O      13.891438     23.006691      8.339512
  O      11.387831     25.829357      6.168236
  O      14.125138     24.639942      6.183547
  Si     11.538359     29.258085      7.776516
  Al     11.663114     35.418055      7.708022
  Si     14.296936     33.771671      7.815899
  Si     14.220869     30.720931      7.765500
  O      10.213613     30.030777      8.372601
  O      10.163642     34.630758      8.308161
  O      13.075235     34.607343      8.409272
  O      12.894584     29.939111      8.399156
  O      11.459772     27.674625      8.134321
  O      14.387855     32.204983      8.405537
  O      11.542141     29.474984      6.154647
  O      11.867500     35.004621      6.004954
  O      14.087971     33.573118      6.195441
  O      13.924655     30.874479      6.163197
  Si     11.642659     38.687874      7.749190
  Si     14.393939     40.083159      7.829110
  O      10.281225     39.446640      8.307175
  O      12.993709     39.431090      8.338536
  O      11.631946     37.124639      8.045245
  O      14.643070     41.606139      8.368846
  O      11.702739     39.033153      6.130437
  O      14.407481     40.003834      6.184275
  Si     16.846248     25.968289      7.829288
  O      15.492944     25.221813      8.366709
  O      18.077534     25.057407      8.383776
  O      16.764134     25.980385      6.187576
  Si     16.924768     29.044962      7.721680
  Si     17.061538     35.330436      7.799268
  Si     19.687400     33.732722      7.826135
  Si     19.555898     30.641059      7.821354
  O      15.518295     29.788458      8.044162
  O      15.756131     34.435024      8.151918
  O      18.391146     34.554716      8.382882
  O      18.171406     29.910103      8.278768
  O      16.888358     27.522187      8.325304
  O      19.662291     32.181216      8.353125
  O      17.124469     28.844934      6.099841
  O      17.309123     35.410350      6.172485
  O      19.571188     33.667238      6.187602
  O      19.532072     30.697770      6.175054
  Si     16.993028     38.393250      7.849836
  O      15.685504     39.229338      8.344316
  O      18.440502     38.970477      8.319193
  O      16.943253     36.844306      8.365995
  O      16.900980     38.325562      6.199976
  O      20.739520     29.666562      8.375497
  O      21.119902     34.340762      8.318497
  H       4.074657     24.986772      8.036591
  H       1.410409     29.602015      8.036749
  H       1.410409     35.007985      8.036749
  H       4.074657     39.623228      8.036591
  H       8.948181     22.173255      8.038302
  H       8.948181     42.436745      8.038302
  H      14.277762     22.173204      8.038282
  H      14.277762     42.436796      8.038282
  H      18.960557     24.876228      8.036406
  H      18.960557     39.733772      8.036406
  H      21.624717     29.491420      8.036583
  H      21.624717     35.118580      8.036583
  H      13.268121     34.073011      5.916293
  H      11.065904     34.772177      5.532381
  H       8.966107     32.866558      5.746859
  H       9.855913     30.387020      5.793030
  H      12.341282     29.949549      5.852783
  H      13.966295     31.828169      5.909051
  H      13.544420     39.717716      5.839506
  H      10.843568     39.270238      5.758902
  H       8.079639     39.637420      5.774424
  H       6.027073     37.605840      5.835694
  H       5.206325     34.995009      5.796312
  H       3.480607     32.890735      5.880741
  H       4.211843     30.265241      5.851239
  H       6.023072     28.228548      5.822449
  H       6.932850     25.672117      5.878098
  H       9.582583     24.949614      5.858743
  H      12.229221     25.544838      5.784129
  H      14.929286     25.052150      5.832879
  H      16.914797     26.863606      5.812689
  H      17.798716     29.430947      5.726769
  H      19.552368     31.603882      5.830599
  H      18.865154     34.241141      5.845412
  H      17.145076     36.295404      5.809615
  H      16.127554     38.796220      5.854088
  P      15.924692     37.489434     12.601394
  O      16.632562     33.784565     13.124820
  O      19.286518     32.392460     12.716272
  O      17.695739     31.121879     11.058642
  O      17.330917     36.656361     12.748667
  O      15.021859     30.447457     11.443059
  O      15.865804     38.366973     13.783646
  O      14.833001     36.529671     12.238859
  O      16.205717     38.327320     11.237117
  N      14.927436     32.670773     11.980827
  N      13.103737     31.576164     11.049819
  N      11.266914     32.696755     10.220296
  C      18.540488     33.216042     11.853774
  C      17.337037     32.449630     11.318056
  C      17.882166     34.334968     12.646965
  C      16.330707     32.616928     12.464495
  C      17.673072     35.627641     11.872392
  C      14.237350     33.836073     11.928446
  C      14.407623     31.498617     11.498806
  C      12.990261     33.901445     11.389261
  C      12.419148     32.740141     10.869691
  H      19.165405     33.604899     11.040142
  H      16.946469     32.958135     10.433946
  H      18.480826     34.560468     13.531821
  H      16.392087     31.749584     13.136394
  H      16.912278     35.508557     11.088788
  H      18.627382     35.878124     11.383920
  H      19.238483     31.504672     12.334881
  H      16.883089     30.592961     11.123555
  H      14.715900     34.773204     12.277549
  H      12.496426     34.858043     11.298343
  H      10.863530     33.548330      9.835005
  H      10.952523     31.844516      9.779745
  H      15.442974     38.182162     10.669898
  H      12.816968     30.747000     10.542104
161
Coordinates from ORCA-job cmp_prot_al_frame02_dry E -13345.543805212677
  Si      3.466486     33.839463      7.882683
  Si      3.496331     30.748042      7.886113
  O       2.224593     34.718702      8.464650
  O       2.259038     29.837798      8.434570
  O       3.387785     32.289219      8.411376
  O       3.471329     33.797290      6.236965
  O       3.532575     30.843004      6.244001
  Si      6.140097     26.136703      7.895209
  Si      8.795750     24.551184      7.888672
  O       4.748220     25.522518      8.471817
  O       7.441126     25.297526      8.412703
  O       8.768121     23.025264      8.459778
  O       6.177821     26.147231      6.248793
  O       8.762929     24.607767      6.246201
  Si      6.140763     29.204151      7.802202
  Si      6.109171     35.417946      7.784080
  Si      8.878333     33.876077      7.722604
  Si      8.884266     30.787355      7.734914
  O       4.886457     30.055920      8.400161
  O       4.842633     34.558260      8.371154
  O       7.485824     34.639289      8.122775
  O       7.534131     29.972920      8.121458
  O       6.218123     27.688132      8.395384
  O       8.799971     32.309738      8.287837
  O       5.859438     29.103171      6.185746
  O       5.882944     35.587922      6.162970
  O       8.974590     33.777000      6.089905
  O       9.062620     30.833706      6.109433
  Si      6.163817     38.500677      7.855240
  Si      8.853950     40.065710      7.825276
  O       4.905420     39.355853      8.457579
  O       7.550545     39.212932      8.331194
  O       6.133479     36.941911      8.365313
  O       8.610171     41.591349      8.357944
  O       6.141412     38.495974      6.212231
  O       8.888738     39.978927      6.175444
  Si     11.463998     26.080509      7.798022
  Si     14.121291     24.539099      7.835276
  O      10.116117     25.379152      8.392556
  O      12.819679     25.377918      8.362678
  O      13.893735     23.005842      8.343200
  O      11.395822     25.832281      6.175407
  O      14.131935     24.642866      6.192945
  Si     11.538932     29.257690      7.784445
  Al     11.659694     35.415579      7.751061
  Si     14.295106     33.773714      7.839480
  Si     14.220669     30.723638      7.788534
  O      10.207299     30.024541      8.370192
  O      10.157855     34.620685      8.336574
  O      13.076467     34.603354      8.448081
  O      12.889212     29.945291      8.414804
  O      11.462456     27.674169      8.146436
  O      14.386988     32.207127      8.426727
  O      11.552034     29.475237      6.162642
  O      11.860643     35.012847      6.045002
  O      14.077773     33.579006      6.219031
  O      13.933439     30.875516      6.183704
  Si     11.635966     38.687102      7.775321
  Si     14.388031     40.079426      7.841229
  O      10.274752     39.451067      8.326804
  O      12.989001     39.427816      8.360763
  O      11.620827     37.125913      8.084650
  O      14.636949     41.605025      8.368716
  O      11.704083     39.022781      6.154014
  O      14.394040     39.988837      6.196152
  Si     16.850111     25.970833      7.849836
  O      15.498539     25.217013      8.380065
  O      18.088392     25.069202      8.403639
  O      16.769271     25.986437      6.207061
  Si     16.922857     29.046531      7.751101
  Si     17.066006     35.324576      7.809395
  Si     19.691523     33.727715      7.832733
  Si     19.553906     30.637686      7.835168
  O      15.515317     29.788892      8.072759
  O      15.759203     34.434615      8.168881
  O      18.394228     34.546773      8.387419
  O      18.169445     29.913624      8.311537
  O      16.885376     27.523567      8.352656
  O      19.673397     32.176843      8.361795
  O      17.123024     28.847373      6.128945
  O      17.305448     35.405672      6.181407
  O      19.572099     33.658619      6.193730
  O      19.512460     30.691161      6.188570
  Si     16.992461     38.392211      7.854094
  O      15.689057     39.231784      8.354366
  O      18.443632     38.967251      8.318003
  O      16.949940     36.840771      8.376722
  O      16.893733     38.323538      6.204648
  O      20.738765     29.658545      8.377175
  O      21.119862     34.343948      8.325575
  H       4.074657     24.986772      8.036591
  H       1.410409     29.602015      8.036749
  H       1.410409     35.007985      8.036749
  H       4.074657     39.623228      8.036591
  H       8.948181     22.173255      8.038302
  H       8.948181     42.436745      8.038302
  H      14.277762     22.173204      8.038282
  H      14.277762     42.436796      8.038282
  H      18.960557     24.876228      8.036406
  H      18.960557     39.733772      8.036406
  H      21.624717     29.491420      8.036583
  H      21.624717     35.118580      8.036583
  H      13.258427     34.083616      5.945622
  H      11.058650     34.777565      5.574178
  H       8.972942     32.870721      5.755720
  H       9.867313     30.390756      5.794680
  H      12.349079     29.958607      5.866831
  H      13.970590     31.830088      5.929804
  H      13.529952     39.702471      5.854484
  H      10.846758     39.254594      5.775352
  H       8.079006     39.622295      5.790948
  H       6.041803     37.606117      5.842500
  H       5.210581     34.997291      5.799877
  H       3.480672     32.894613      5.886230
  H       4.204764     30.266145      5.850336
  H       6.019639     28.223016      5.818634
  H       6.933857     25.665664      5.883660
  H       9.587471     24.948132      5.865141
  H      12.236293     25.546489      5.790885
  H      14.936461     25.057906      5.846763
  H      16.923060     26.870475      5.835548
  H      17.793356     29.435607      5.753694
  H      19.531465     31.597449      5.844726
  H      18.866382     34.234449      5.852254
  H      17.133515     36.286823      5.817969
  H      16.117532     38.791318      5.863058
  P      15.672639     37.515871     12.693729
  O      16.513758     33.849262     13.180781
  O      19.198342     32.549515     12.780747
  O      17.658464     31.231435     11.101484
  O      17.095270     36.720889     12.851035
  O      14.983262     30.501724     11.464574
  O      15.564553     38.383608     13.876367
  O      14.615107     36.524502     12.306286
  O      15.961452     38.365123     11.333892
  N      14.837898     32.719022     12.009613
  N      13.047085     31.592974     11.062413
  N      11.185055     32.670869     10.247526
  C      18.435503     33.351708     11.912765
  C      17.262239     32.551363     11.360758
  C      17.742240     34.445143     12.706098
  C      16.239482     32.685715     12.502257
  C      17.475854     35.729531     11.947565
  C      14.128416     33.870417     11.956183
  C      14.346960     31.538699     11.519293
  C      12.883380     33.913062     11.410472
  C      12.338474     32.739838     10.888454
  H      19.054579     33.760468     11.106182
  H      16.885455     33.042789     10.447424
  H      18.333145     34.689642     13.590867
  H      16.303178     31.811663     13.162633
  H      16.714832     35.578292     11.170845
  H      18.407585     36.030693     11.447533
  H      19.175041     31.660691     12.401121
  H      16.858731     30.683113     11.125871
  H      14.584128     34.813480     12.312903
  H      12.374892     34.861700     11.324833
  H      10.771746     33.516792      9.861933
  H      10.888432     31.817266      9.801421
  H      15.205811     38.211526     10.758945
  H      12.771055     30.755677     10.562900
161
Coordinates from ORCA-job cmp_prot_al_frame02_dry E -13345.543638779171
  Si      3.467302     33.840848      7.875824
  Si      3.497441     30.749521      7.877625
  O       2.228126     34.722844      8.460365
  O       2.265555     29.830436      8.424929
  O       3.382206     32.290220      8.403017
  O       3.471325     33.800026      6.230310
  O       3.533427     30.851475      6.234966
  Si      6.136439     26.139611      7.885174
  Si      8.790587     24.549685      7.878478
  O       4.741998     25.533799      8.466170
  O       7.434548     25.294515      8.400566
  O       8.766588     23.026009      8.457652
  O       6.168149     26.147783      6.238122
  O       8.753057     24.599105      6.235034
  Si      6.142330     29.207816      7.788551
  Si      6.113092     35.414642      7.774318
  Si      8.885341     33.877281      7.712411
  Si      8.887832     30.791110      7.714421
  O       4.889324     30.059508      8.389802
  O       4.846486     34.556759      8.362220
  O       7.491687     34.639513      8.117659
  O       7.535443     29.978695      8.103851
  O       6.223672     27.692015      8.383016
  O       8.806957     32.309917      8.275793
  O       5.857032     29.105406      6.171738
  O       5.886903     35.581817      6.151846
  O       8.975153     33.781186      6.077559
  O       9.067738     30.848307      6.088977
  Si      6.163335     38.498048      7.839241
  Si      8.848665     40.069453      7.803525
  O       4.910102     39.356845      8.448461
  O       7.550590     39.210136      8.307912
  O       6.138051     36.939430      8.352358
  O       8.609579     41.589595      8.352406
  O       6.137171     38.490141      6.195549
  O       8.885324     39.996588      6.153760
  Si     11.461119     26.075434      7.776237
  Si     14.119140     24.537216      7.825872
  O      10.112129     25.380266      8.376159
  O      12.815035     25.375714      8.347398
  O      13.894469     23.006770      8.342128
  O      11.391999     25.820678      6.153450
  O      14.130031     24.633627      6.182493
  Si     11.539549     29.253013      7.752600
  Al     11.663336     35.416383      7.730171
  Si     14.297303     33.772918      7.812431
  Si     14.219824     30.722237      7.764661
  O      10.208501     30.016868      8.340181
  O      10.167432     34.618411      8.323780
  O      13.080919     34.601946      8.424935
  O      12.886111     29.946119      8.385774
  O      11.462060     27.669763      8.119658
  O      14.384404     32.206280      8.400579
  O      11.556542     29.471061      6.131503
  O      11.856428     35.016742      6.021930
  O      14.074872     33.581047      6.191871
  O      13.941106     30.871926      6.157274
  Si     11.628961     38.688929      7.747378
  Si     14.382190     40.078023      7.823733
  O      10.267224     39.452273      8.298895
  O      12.978679     39.426332      8.339341
  O      11.619043     37.130002      8.066230
  O      14.628277     41.599634      8.367382
  O      11.704240     39.021260      6.124814
  O      14.386790     40.001537      6.177341
  Si     16.850131     25.968263      7.840978
  O      15.495906     25.217865      8.369069
  O      18.083857     25.060561      8.397752
  O      16.772580     25.981224      6.197080
  Si     16.922194     29.044429      7.735741
  Si     17.067097     35.319623      7.782210
  Si     19.695713     33.727736      7.821162
  Si     19.552590     30.637296      7.825320
  O      15.513066     29.786754      8.056707
  O      15.761238     34.432474      8.150533
  O      18.392488     34.544778      8.369587
  O      18.166110     29.913333      8.299751
  O      16.887864     27.523260      8.340898
  O      19.675651     32.176474      8.349814
  O      17.120603     28.843361      6.113505
  O      17.309293     35.394949      6.155070
  O      19.590446     33.661014      6.180898
  O      19.510895     30.687899      6.178492
  Si     16.992450     38.390109      7.833264
  O      15.686868     39.228871      8.327473
  O      18.440112     38.965867      8.308968
  O      16.949436     36.835753      8.347493
  O      16.904021     38.324792      6.182103
  O      20.735463     29.657363      8.370804
  O      21.117035     34.347760      8.329353
  H       4.074657     24.986772      8.036591
  H       1.410409     29.602015      8.036749
  H       1.410409     35.007985      8.036749
  H       4.074657     39.623228      8.036591
  H       8.948181     22.173255      8.038302
  H       8.948181     42.436745      8.038302
  H      14.277762     22.173204      8.038282
  H      14.277762     42.436796      8.038282
  H      18.960557     24.876228      8.036406
  H      18.960557     39.733772      8.036406
  H      21.624717     29.491420      8.036583
  H      21.624717     35.118580      8.036583
  H      13.259026     34.094946      5.921043
  H      11.054393     34.775425      5.553525
  H       8.971662     32.876321      5.739287
  H       9.868585     30.399369      5.771896
  H      12.348985     29.964369      5.837280
  H      13.979309     31.825738      5.900144
  H      13.529294     39.707088      5.827621
  H      10.851422     39.261687      5.742025
  H       8.073207     39.644652      5.769736
  H       6.038192     37.598930      5.828450
  H       5.211030     34.995977      5.787644
  H       3.481892     32.896237      5.881375
  H       4.200743     30.270946      5.838425
  H       6.011437     28.224423      5.804360
  H       6.924449     25.665582      5.873806
  H       9.576625     24.938265      5.850847
  H      12.230727     25.528508      5.769792
  H      14.936516     25.045487      5.836689
  H      16.923876     26.864459      5.823158
  H      17.789263     29.430948      5.735409
  H      19.532961     31.593438      5.833706
  H      18.882081     34.229258      5.832627
  H      17.141003     36.277945      5.792729
  H      16.132900     38.796553      5.835375
  P      15.843774     37.367158     12.622804
  O      16.631641     33.683499     13.070499
  O      19.278431     32.348307     12.603546
  O      17.694025     31.101470     10.906258
  O      17.260319     36.562269     12.757090
  O      15.025907     30.397104     11.317478
  O      15.768562     38.264687     13.781446
  O      14.761096     36.379870     12.283363
  O      16.124562     38.184913     11.235428
  N      14.916920     32.602840     11.907617
  N      13.092615     31.511684     10.987338
  N      11.210860     32.610238     10.251934
  C      18.518406     33.181790     11.762018
  C      17.323497     32.413937     11.211617
  C      17.859364     34.270876     12.582970
  C      16.328718     32.536991     12.378468
  C      17.592990     35.563475     11.840399
  C      14.218961     33.760620     11.895053
  C      14.400888     31.438187     11.408894
  C      12.959041     33.821448     11.383085
  C      12.386047     32.661155     10.855534
  H      19.133617     33.595544     10.957530
  H      16.926088     32.941912     10.333927
  H      18.463838     34.496576     13.463055
  H      16.382310     31.648177     13.016475
  H      16.804400     35.420037     11.092592
  H      18.506446     35.851035     11.306014
  H      19.228765     31.468719     12.207652
  H      16.890825     30.561681     10.932071
  H      14.691526     34.692933     12.267073
  H      12.457049     34.774407     11.335126
  H      10.803588     33.466747      9.880270
  H      10.908296     31.769845      9.785440
  H      15.343011     38.064179     10.689452
  H      12.789452     30.679261     10.496754
161
Coordinates from ORCA-job cmp_prot_al_frame02_dry E -13345.544192980535
  Si      3.467456     33.841454      7.877481
  Si      3.495436     30.749915      7.882704
  O       2.229005     34.725464      8.460134
  O       2.258740     29.839775      8.433434
  O       3.384818     32.291489      8.406519
  O       3.470377     33.798326      6.231876
  O       3.530085     30.845793      6.239910
  Si      6.138397     26.139210      7.888290
  Si      8.792497     24.550253      7.881993
  O       4.744680     25.530029      8.466569
  O       7.437210     25.295970      8.404657
  O       8.763272     23.025422      8.456829
  O       6.173602     26.149736      6.241440
  O       8.758301     24.603586      6.238803
  Si      6.140784     29.207190      7.795255
  Si      6.112217     35.415957      7.775033
  Si      8.883230     33.876024      7.714662
  Si      8.886275     30.789085      7.724574
  O       4.886449     30.057864      8.395207
  O       4.845961     34.558032      8.363753
  O       7.489803     34.639195      8.117187
  O       7.533661     29.977193      8.113479
  O       6.221049     27.690851      8.388254
  O       8.803354     32.309658      8.281136
  O       5.857481     29.106973      6.178227
  O       5.885603     35.582971      6.152785
  O       8.975441     33.776531      6.080407
  O       9.066982     30.839463      6.099335
  Si      6.162722     38.499262      7.841006
  Si      8.850907     40.068311      7.806390
  O       4.909161     39.357481      8.451187
  O       7.551048     39.210728      8.309037
  O       6.137271     36.940580      8.353528
  O       8.608127     41.589594      8.351121
  O       6.133082     38.492399      6.197576
  O       8.889909     39.992416      6.156386
  Si     11.462385     26.076933      7.786753
  Si     14.120553     24.537988      7.830383
  O      10.114186     25.378058      8.383580
  O      12.817172     25.375988      8.354614
  O      13.895764     23.006620      8.343905
  O      11.393475     25.827383      6.163405
  O      14.130435     24.637531      6.187383
  Si     11.539243     29.254091      7.770683
  Al     11.662084     35.415678      7.736825
  Si     14.296477     33.773174      7.822677
  Si     14.218014     30.723873      7.777451
  O      10.207259     30.019252      8.356589
  O      10.164335     34.618307      8.326456
  O      13.080636     34.604356      8.432664
  O      12.887104     29.945385      8.403014
  O      11.461902     27.670299      8.134567
  O      14.384443     32.207594      8.413837
  O      11.556072     29.471577      6.149572
  O      11.858392     35.011168      6.029579
  O      14.073368     33.575338      6.203096
  O      13.933042     30.874110      6.171373
  Si     11.632028     38.688093      7.753761
  Si     14.384773     40.079098      7.830297
  O      10.269917     39.451734      8.304263
  O      12.981287     39.429000      8.344952
  O      11.620830     37.128791      8.067459
  O      14.633745     41.602144      8.366557
  O      11.707968     39.022632      6.131690
  O      14.392282     39.995998      6.184139
  Si     16.850297     25.970553      7.844603
  O      15.497996     25.217284      8.373936
  O      18.087594     25.068500      8.401662
  O      16.771279     25.983013      6.200948
  Si     16.921002     29.046625      7.739133
  Si     17.066948     35.323238      7.788759
  Si     19.693789     33.728598      7.825201
  Si     19.554105     30.638443      7.826452
  O      15.513446     29.789584      8.064211
  O      15.760898     34.434512      8.151617
  O      18.393134     34.548542      8.374339
  O      18.167170     29.914683      8.299197
  O      16.885588     27.525403      8.344472
  O      19.672758     32.177311      8.353922
  O      17.116841     28.845306      6.116425
  O      17.311359     35.399352      6.161927
  O      19.585162     33.659900      6.184935
  O      19.515829     30.689754      6.179790
  Si     16.991824     38.392821      7.839678
  O      15.686557     39.229126      8.340169
  O      18.440279     38.967889      8.313234
  O      16.948527     36.838978      8.354831
  O      16.899720     38.330088      6.189488
  O      20.737730     29.660973      8.374834
  O      21.118575     34.345654      8.327256
  H       4.074657     24.986772      8.036591
  H       1.410409     29.602015      8.036749
  H       1.410409     35.007985      8.036749
  H       4.074657     39.623228      8.036591
  H       8.948181     22.173255      8.038302
  H       8.948181     42.436745      8.038302
  H      14.277762     22.173204      8.038282
  H      14.277762     42.436796      8.038282
  H      18.960557     24.876228      8.036406
  H      18.960557     39.733772      8.036406
  H      21.624717     29.491420      8.036583
  H      21.624717     35.118580      8.036583
  H      13.256908     34.087656      5.931267
  H      11.057213     34.770320      5.559982
  H       8.971527     32.871439      5.743742
  H       9.869555     30.392390      5.784618
  H      12.352720     29.957160      5.854687
  H      13.970616     31.827890      5.914842
  H      13.533000     39.704443      5.835144
  H      10.854245     39.259054      5.748359
  H       8.079679     39.638101      5.770895
  H       6.034509     37.601286      5.829969
  H       5.210533     34.995792      5.789404
  H       3.478553     32.894503      5.883461
  H       4.200320     30.267209      5.845365
  H       6.015729     28.227294      5.809477
  H       6.929256     25.666628      5.877344
  H       9.582514     24.943804      5.857039
  H      12.232854     25.538353      5.778828
  H      14.935833     25.051564      5.841652
  H      16.921951     26.866603      5.827231
  H      17.785813     29.432493      5.737628
  H      19.539027     31.595691      5.835623
  H      18.880223     34.231814      5.837170
  H      17.139991     36.281050      5.797485
  H      16.124390     38.798555      5.846126
  P      15.724677     37.488457     12.678096
  O      16.557252     33.809736     13.139920
  O      19.243098     32.518821     12.721413
  O      17.699237     31.209390     11.048940
  O      17.145329     36.689534     12.823688
  O      15.029275     30.478088     11.399643
  O      15.629508     38.359811     13.856394
  O      14.654511     36.502469     12.301213
  O      16.015313     38.341617     11.317022
  N      14.878245     32.687450     11.966719
  N      13.083982     31.560804     11.028736
  N      11.196554     32.627320     10.257837
  C      18.471963     33.323962     11.862975
  C      17.299047     32.522194     11.313241
  C      17.783112     34.409908     12.665488
  C      16.283034     32.649891     12.458983
  C      17.510710     35.696679     11.913681
  C      14.161969     33.834185     11.933336
  C      14.387908     31.511035     11.469146
  C      12.908972     33.871886     11.403819
  C      12.361554     32.698986     10.877895
  H      19.085785     33.740009     11.057777
  H      16.910917     33.017494     10.415052
  H      18.372537     34.648280     13.552504
  H      16.341499     31.771306     13.111433
  H      16.739300     35.543302     11.149301
  H      18.432095     35.997250     11.399381
  H      19.215605     31.632336     12.338047
  H      16.904393     30.656398     11.075445
  H      14.614285     34.775674     12.305329
  H      12.392505     34.816592     11.340479
  H      10.771920     33.475736      9.888748
  H      10.897263     31.776114      9.807841
  H      15.260769     38.195298     10.739822
  H      12.801146     30.721341     10.537775
161
Coordinates from ORCA-job cmp_prot_al_frame02_dry E -13345.544254989418
  Si      3.467418     33.841238      7.878656
  Si      3.495086     30.749827      7.883877
  O       2.228401     34.724647      8.460811
  O       2.257960     29.840664      8.434896
  O       3.385426     32.291267      8.407862
  O       3.470752     33.797348      6.233059
  O       3.529042     30.844912      6.241006
  Si      6.140237     26.138696      7.889310
  Si      8.793815     24.551022      7.883213
  O       4.746943     25.527905      8.466413
  O       7.439124     25.296539      8.407512
  O       8.764412     23.025879      8.456414
  O       6.178306     26.149001      6.242603
  O       8.758719     24.606519      6.239943
  Si      6.140478     29.206436      7.796130
  Si      6.110823     35.417678      7.777043
  Si      8.881280     33.875683      7.712736
  Si      8.886625     30.788224      7.724738
  O       4.886699     30.058019      8.395864
  O       4.845227     34.558510      8.365544
  O       7.488168     34.638870      8.114269
  O       7.534504     29.975598      8.113076
  O       6.220718     27.690303      8.389532
  O       8.803129     32.309396      8.279290
  O       5.855280     29.105742      6.179580
  O       5.881942     35.589411      6.155762
  O       8.972477     33.776379      6.078684
  O       9.067219     30.836742      6.099355
  Si      6.166370     38.500491      7.849151
  Si      8.851187     40.067180      7.815113
  O       4.907387     39.354361      8.452301
  O       7.551565     39.212475      8.326346
  O       6.137916     36.940974      8.358434
  O       8.610008     41.590451      8.354501
  O       6.149327     38.495766      6.205086
  O       8.881477     39.983966      6.165739
  Si     11.463410     26.077857      7.787483
  Si     14.120830     24.539245      7.828688
  O      10.115735     25.378389      8.384495
  O      12.818869     25.378100      8.354883
  O      13.891920     23.007024      8.338362
  O      11.393994     25.826961      6.164510
  O      14.131652     24.642226      6.185899
  Si     11.539790     29.255044      7.771111
  Al     11.660515     35.416713      7.735400
  Si     14.295389     33.773806      7.816421
  Si     14.218694     30.724011      7.771168
  O      10.209347     30.021559      8.358966
  O      10.162758     34.616871      8.325521
  O      13.079844     34.603868      8.427848
  O      12.888849     29.946331      8.400741
  O      11.462030     27.671435      8.134000
  O      14.385942     32.207932      8.406645
  O      11.554567     29.472214      6.149917
  O      11.854571     35.013061      6.028519
  O      14.069932     33.574993      6.196902
  O      13.930252     30.873809      6.165679
  Si     11.632523     38.690751      7.757975
  Si     14.387787     40.076561      7.828452
  O      10.271594     39.452488      8.313089
  O      12.984720     39.428896      8.346219
  O      11.618557     37.129695      8.064994
  O      14.639924     41.601235      8.357981
  O      11.704858     39.031043      6.137061
  O      14.395268     39.985537      6.182463
  Si     16.850367     25.970829      7.844128
  O      15.498806     25.216314      8.373504
  O      18.088144     25.070350      8.401839
  O      16.770662     25.983535      6.200425
  Si     16.922208     29.046127      7.736897
  Si     17.068425     35.322927      7.785884
  Si     19.693938     33.726377      7.824333
  Si     19.554233     30.637264      7.824994
  O      15.513476     29.788793      8.055964
  O      15.760477     34.433712      8.140960
  O      18.392784     34.545826      8.372928
  O      18.165880     29.916727      8.298845
  O      16.884860     27.525653      8.344022
  O      19.675729     32.175348      8.354250
  O      17.123685     28.841731      6.115150
  O      17.318604     35.402327      6.159992
  O      19.582956     33.654482      6.184136
  O      19.515416     30.691034      6.178430
  Si     16.992870     38.390981      7.837012
  O      15.689818     39.228573      8.341281
  O      18.444426     38.962350      8.305638
  O      16.948689     36.837628      8.354488
  O      16.895006     38.327435      6.187398
  O      20.734683     29.653851      8.369871
  O      21.119077     34.343978      8.323922
  H       4.074657     24.986772      8.036591
  H       1.410409     29.602015      8.036749
  H       1.410409     35.007985      8.036749
  H       4.074657     39.623228      8.036591
  H       8.948181     22.173255      8.038302
  H       8.948181     42.436745      8.038302
  H      14.277762     22.173204      8.038282
  H      14.277762     42.436796      8.038282
  H      18.960557     24.876228      8.036406
  H      18.960556     39.733772      8.036406
  H      21.624717     29.491420      8.036583
  H      21.624717     35.118580      8.036583
  H      13.251568     34.083722      5.926286
  H      11.052929     34.774741      5.558634
  H       8.974177     32.871052      5.742650
  H       9.871180     30.391702      5.785616
  H      12.351378     29.957644      5.854687
  H      13.968452     31.827846      5.909081
  H      13.533139     39.699678      5.835624
  H      10.848861     39.259453      5.754102
  H       8.073916     39.614263      5.788142
  H       6.044056     37.606125      5.835685
  H       5.210669     34.999499      5.790165
  H       3.478535     32.893379      5.885156
  H       4.199746     30.266356      5.847039
  H       6.017231     28.226922      5.810383
  H       6.934784     25.665677      5.880304
  H       9.583795     24.945219      5.858596
  H      12.234125     25.540033      5.779869
  H      14.937232     25.057814      5.842102
  H      16.923324     26.867434      5.827783
  H      17.792488     29.429968      5.737202
  H      19.537301     31.598137      5.836515
  H      18.880366     34.229554      5.836629
  H      17.144316     36.283579      5.795975
  H      16.116804     38.794895      5.848099
  P      15.723557     37.485972     12.659349
  O      16.572848     33.806773     13.145112
  O      19.256844     32.518618     12.713132
  O      17.704170     31.204779     11.049184
  O      17.143038     36.686846     12.815409
  O      15.024667     30.473641     11.421601
  O      15.619349     38.357709     13.837473
  O      14.657902     36.498898     12.275842
  O      16.019183     38.337170     11.297844
  N      14.886851     32.687265     11.976482
  N      13.086542     31.568571     11.037873
  N      11.219516     32.654243     10.234446
  C      18.481681     33.322232     11.857203
  C      17.305684     32.518975     11.313928
  C      17.793703     34.409881     12.660679
  C      16.293458     32.648151     12.463372
  C      17.513879     35.694766     11.906806
  C      14.177262     33.838361     11.934593
  C      14.388161     31.510207     11.487414
  C      12.929201     33.884272     11.395848
  C      12.377274     32.714102     10.870399
  H      19.091759     33.737025     11.047588
  H      16.916253     33.013345     10.415184
  H      18.388138     34.652614     13.543279
  H      16.354591     31.769672     13.116694
  H      16.741936     35.538120     11.142742
  H      18.433972     36.000088     11.391219
  H      19.226794     31.630689     12.332260
  H      16.906902     30.653658     11.072158
  H      14.635099     34.778017     12.298837
  H      12.423587     34.834667     11.320451
  H      10.814944     33.507233      9.853888
  H      10.913601     31.805754      9.782812
  H      15.260703     38.193153     10.724437
  H      12.801276     30.729968     10.545970
161
Coordinates from ORCA-job cmp_prot_al_frame02_dry E -13345.544407323163
  Si      3.468791     33.843501      7.879121
  Si      3.493517     30.751810      7.885523
  O       2.230875     34.729646      8.459589
  O       2.254615     29.846362      8.438398
  O       3.385775     32.293546      8.408420
  O       3.472660     33.798649      6.233499
  O       3.526044     30.845063      6.242322
  Si      6.140248     26.139903      7.888238
  Si      8.793325     24.551082      7.881899
  O       4.746648     25.529456      8.464835
  O       7.439250     25.297655      8.406165
  O       8.761212     23.025974      8.454850
  O       6.178749     26.151007      6.241475
  O       8.758331     24.606663      6.238401
  Si      6.139137     29.207746      7.796896
  Si      6.113064     35.418094      7.779243
  Si      8.882930     33.875300      7.715881
  Si      8.885858     30.788163      7.726076
  O       4.884901     30.058584      8.396546
  O       4.846699     34.559481      8.367014
  O       7.489994     34.639118      8.117799
  O       7.532661     29.977181      8.115046
  O       6.220231     27.691163      8.389303
  O       8.803840     32.308610      8.281992
  O       5.854105     29.107970      6.180180
  O       5.885256     35.588962      6.157680
  O       8.971143     33.775853      6.081448
  O       9.066042     30.837153      6.100556
  Si      6.167303     38.500774      7.849516
  Si      8.851525     40.067763      7.815343
  O       4.907674     39.354141      8.451581
  O       7.552084     39.213043      8.326841
  O       6.140331     36.941426      8.359813
  O       8.609704     41.590878      8.355307
  O       6.150002     38.494948      6.205323
  O       8.882953     39.985740      6.166207
  Si     11.463880     26.076849      7.786411
  Si     14.121721     24.539012      7.828611
  O      10.116265     25.376871      8.382897
  O      12.819449     25.377764      8.354224
  O      13.892709     23.007115      8.338640
  O      11.394841     25.826228      6.163243
  O      14.133217     24.641256      6.185639
  Si     11.539023     29.253833      7.770532
  Al     11.660990     35.416676      7.736406
  Si     14.295437     33.774036      7.812113
  Si     14.217568     30.724011      7.770192
  O      10.207886     30.018805      8.358459
  O      10.165333     34.614580      8.327836
  O      13.082288     34.604951      8.425955
  O      12.888107     29.945549      8.399597
  O      11.461436     27.670100      8.133775
  O      14.384796     32.208457      8.403700
  O      11.553561     29.471472      6.149486
  O      11.851494     35.013480      6.029101
  O      14.066531     33.573211      6.193042
  O      13.929492     30.871624      6.164302
  Si     11.632478     38.691227      7.758554
  Si     14.387959     40.076037      7.827862
  O      10.271063     39.452079      8.313781
  O      12.984398     39.430394      8.347068
  O      11.618972     37.130382      8.064443
  O      14.641891     41.601080      8.354687
  O      11.705789     39.032902      6.137807
  O      14.396179     39.981770      6.181860
  Si     16.850804     25.972070      7.845309
  O      15.499414     25.216518      8.373577
  O      18.089826     25.073970      8.403850
  O      16.771505     25.984402      6.201290
  Si     16.921657     29.047212      7.737760
  Si     17.069460     35.323398      7.779855
  Si     19.694477     33.726403      7.823949
  Si     19.554865     30.637716      7.826054
  O      15.512845     29.789660      8.057043
  O      15.761512     34.433647      8.131975
  O      18.392511     34.546377      8.369627
  O      18.165317     29.918389      8.299281
  O      16.883938     27.526983      8.345342
  O      19.674971     32.175817      8.355588
  O      17.122995     28.841807      6.115961
  O      17.323613     35.403579      6.154622
  O      19.586511     33.652385      6.183340
  O      19.517585     30.690888      6.179475
  Si     16.992919     38.391709      7.834931
  O      15.689440     39.227309      8.342180
  O      18.444301     38.962262      8.304842
  O      16.948217     36.837433      8.349598
  O      16.895528     38.331506      6.185277
  O      20.735410     29.654652      8.371854
  O      21.118723     34.344654      8.325139
  H       4.074657     24.986772      8.036591
  H       1.410409     29.602015      8.036749
  H       1.410409     35.007985      8.036749
  H       4.074657     39.623228      8.036591
  H       8.948181     22.173255      8.038302
  H       8.948181     42.436745      8.038302
  H      14.277762     22.173204      8.038282
  H      14.277762     42.436796      8.038282
  H      18.960557     24.876228      8.036406
  H      18.960557     39.733772      8.036406
  H      21.624717     29.491420      8.036583
  H      21.624717     35.118580      8.036583
  H      13.248337     34.082643      5.923780
  H      11.048892     34.773950      5.561406
  H       8.973721     32.870761      5.744901
  H       9.869731     30.391598      5.786764
  H      12.350342     29.957155      5.854366
  H      13.966015     31.825433      5.906625
  H      13.533794     39.697120      5.834851
  H      10.850005     39.260370      5.753883
  H       8.074999     39.618588      5.787042
  H       6.045712     37.605042      5.836506
  H       5.214953     34.998674      5.791040
  H       3.480252     32.894400      5.886381
  H       4.197795     30.267548      5.848724
  H       6.018022     28.230025      5.809885
  H       6.935444     25.667667      5.879596
  H       9.583530     24.945569      5.857504
  H      12.235047     25.539178      5.778902
  H      14.938859     25.057703      5.842940
  H      16.924923     26.868313      5.829008
  H      17.791340     29.429833      5.737310
  H      19.539124     31.598234      5.838034
  H      18.885625     34.228347      5.833783
  H      17.147477     36.284236      5.790540
  H      16.115787     38.797275      5.847373
  P      15.720832     37.488448     12.648172
  O      16.583177     33.810138     13.132187
  O      19.273231     32.531399     12.690855
  O      17.718284     31.210813     11.035251
  O      17.140863     36.690164     12.803385
  O      15.039675     30.473671     11.412391
  O      15.609180     38.346024     13.835852
  O      14.658426     36.504216     12.247692
  O      16.021506     38.358210     11.299372
  N      14.897978     32.687761     11.964184
  N      13.097805     31.562677     11.033947
  N      11.221433     32.638253     10.241810
  C      18.490669     33.331939     11.838741
  C      17.315746     32.523699     11.299846
  C      17.801447     34.416757     12.645027
  C      16.305261     32.651249     12.450728
  C      17.516307     35.701496     11.892784
  C      14.184856     33.836654     11.922318
  C      14.401033     31.508893     11.477666
  C      12.934462     33.878009     11.388399
  C      12.382986     32.704778     10.869420
  H      19.095596     33.749879     11.026817
  H      16.922107     33.016649     10.402824
  H      18.397014     34.659836     13.526779
  H      16.367274     31.772684     13.103836
  H      16.745022     35.542368     11.128562
  H      18.434958     36.011971     11.377682
  H      19.242552     31.642815     12.311529
  H      16.923509     30.656690     11.057306
  H      14.640595     34.778687     12.282604
  H      12.426235     34.827131     11.313890
  H      10.807099     33.488011      9.865845
  H      10.914568     31.786016      9.799091
  H      15.269414     38.215993     10.716934
  H      12.811672     30.721707     10.546763
161
Coordinates from ORCA-job cmp_prot_al_frame02_dry E -13345.544594981600
  Si      3.472513     33.849557      7.877763
  Si      3.489850     30.757186      7.887504
  O       2.238196     34.743435      8.454620
  O       2.247911     29.858772      8.444634
  O       3.385159     32.299639      8.407304
  O       3.477820     33.801699      6.232151
  O       3.519654     30.846791      6.243403
  Si      6.139727     26.143909      7.885392
  Si      8.790812     24.551572      7.880376
  O       4.743951     25.536603      8.459858
  O       7.437586     25.299837      8.404148
  O       8.752682     23.025928      8.451375
  O       6.180798     26.155776      6.238477
  O       8.756083     24.609182      6.236150
  Si      6.136501     29.212029      7.797248
  Si      6.119468     35.419357      7.783101
  Si      8.888524     33.874897      7.723909
  Si      8.885494     30.789438      7.728342
  O       4.881297     30.061702      8.396258
  O       4.851219     34.561571      8.368241
  O       7.495587     34.640300      8.125159
  O       7.528997     29.982621      8.117523
  O       6.220097     27.694617      8.388031
  O       8.806964     32.307440      8.288592
  O       5.850926     29.113452      6.180248
  O       5.894348     35.590224      6.161026
  O       8.970013     33.775790      6.088598
  O       9.067203     30.840347      6.102609
  Si      6.171756     38.501505      7.851795
  Si      8.851226     40.069094      7.816883
  O       4.908301     39.351529      8.447997
  O       7.553399     39.214850      8.334466
  O       6.147586     36.942140      8.362871
  O       8.610386     41.592013      8.358715
  O       6.162131     38.493919      6.206884
  O       8.879059     39.988344      6.168706
  Si     11.463903     26.074860      7.786761
  Si     14.122159     24.539071      7.828396
  O      10.116066     25.373499      8.381404
  O      12.819966     25.377524      8.355091
  O      13.892050     23.007269      8.337110
  O      11.395431     25.825138      6.163043
  O      14.134003     24.641795      6.184988
  Si     11.537510     29.251075      7.770856
  Al     11.663213     35.416749      7.739994
  Si     14.296640     33.774583      7.806844
  Si     14.215264     30.723926      7.769067
  O      10.205082     30.013385      8.357763
  O      10.173488     34.607459      8.335916
  O      13.087957     34.607064      8.424431
  O      12.886591     29.944317      8.398372
  O      11.458947     27.667405      8.135996
  O      14.382784     32.208738      8.399551
  O      11.553106     29.468219      6.149947
  O      11.844699     35.013929      6.032338
  O      14.061876     33.570596      6.188121
  O      13.926861     30.869197      6.162620
  Si     11.631373     38.693529      7.757706
  Si     14.388826     40.072530      7.824152
  O      10.269220     39.451325      8.315065
  O      12.983055     39.433585      8.346349
  O      11.618173     37.133160      8.061952
  O      14.647456     41.599061      8.342928
  O      11.705681     39.038982      6.137321
  O      14.399691     39.967307      6.178376
  Si     16.851426     25.973529      7.846703
  O      15.500153     25.216359      8.372813
  O      18.092425     25.079673      8.407155
  O      16.772155     25.985128      6.201864
  Si     16.920295     29.048282      7.737893
  Si     17.073139     35.323142      7.772678
  Si     19.696440     33.724927      7.825194
  Si     19.555442     30.637403      7.826997
  O      15.510904     29.789781      8.057752
  O      15.764422     34.432785      8.117257
  O      18.392853     34.544713      8.368355
  O      18.162422     29.922069      8.299318
  O      16.882442     27.528811      8.347039
  O      19.676719     32.174638      8.359221
  O      17.121695     28.840698      6.116022
  O      17.337170     35.404009      6.149042
  O      19.591147     33.647219      6.183870
  O      19.519973     30.692182      6.180447
  Si     16.993289     38.391115      7.831472
  O      15.689443     39.223907      8.343661
  O      18.445624     38.959826      8.300313
  O      16.948641     36.835871      8.343335
  O      16.894398     38.333261      6.181855
  O      20.733895     29.649911      8.371139
  O      21.118756     34.345793      8.328163
  H       4.074657     24.986772      8.036591
  H       1.410409     29.602015      8.036749
  H       1.410409     35.007985      8.036749
  H       4.074657     39.623228      8.036591
  H       8.948181     22.173255      8.038302
  H       8.948181     42.436745      8.038302
  H      14.277762     22.173204      8.038282
  H      14.277762     42.436796      8.038282
  H      18.960557     24.876228      8.036406
  H      18.960557     39.733772      8.036406
  H      21.624717     29.491420      8.036583
  H      21.624717     35.118580      8.036583
  H      13.243992     34.081278      5.921526
  H      11.039956     34.771633      5.569509
  H       8.979396     32.871105      5.750944
  H       9.869680     30.391494      5.789908
  H      12.351050     29.952706      5.855363
  H      13.961320     31.822635      5.903920
  H      13.536205     39.686474      5.830973
  H      10.849743     39.260733      5.750555
  H       8.070748     39.619510      5.791349
  H       6.056229     37.603825      5.838758
  H       5.227596     34.998865      5.789995
  H       3.483616     32.896168      5.887975
  H       4.192322     30.269462      5.850939
  H       6.019427     28.237472      5.807562
  H       6.938773     25.671964      5.879420
  H       9.582350     24.947344      5.856912
  H      12.235989     25.538919      5.778936
  H      14.939735     25.061063      5.845446
  H      16.927312     26.869384      5.830763
  H      17.787950     29.429600      5.735465
  H      19.539951     31.601153      5.842318
  H      18.894403     34.226850      5.831797
  H      17.156933     36.283697      5.784730
  H      16.109633     38.793570      5.847440
  P      15.749128     37.491366     12.625596
  O      16.612378     33.809560     13.122485
  O      19.309883     32.537079     12.669254
  O      17.748292     31.208470     11.031959
  O      17.163380     36.686646     12.791529
  O      15.068598     30.473178     11.405809
  O      15.620943     38.333991     13.821823
  O      14.690460     36.514169     12.196483
  O      16.074473     38.379626     11.292744
  N      14.925264     32.689281     11.949940
  N      13.124371     31.557036     11.030119
  N      11.235240     32.618819     10.251641
  C      18.517679     33.333747     11.822328
  C      17.342343     32.520434     11.290809
  C      17.829765     34.416724     12.631560
  C      16.332399     32.651277     12.441578
  C      17.541776     35.700365     11.879466
  C      14.209578     33.836198     11.903728
  C      14.429499     31.508259     11.466531
  C      12.956968     33.872627     11.373222
  C      12.403787     32.694895     10.865866
  H      19.115464     33.754568     11.006924
  H      16.941076     33.011536     10.396120
  H      18.426354     34.659437     13.512668
  H      16.387965     31.772919     13.095129
  H      16.769053     35.538212     11.117568
  H      18.457826     36.014315     11.362135
  H      19.274320     31.646739     12.294853
  H      16.956767     30.651105     11.050091
  H      14.661416     34.781741     12.259074
  H      12.448240     34.821344     11.298847
  H      10.810301     33.464256      9.878173
  H      10.925178     31.760319      9.823405
  H      15.330267     38.250066     10.697499
  H      12.834282     30.711091     10.554604
161
Coordinates from ORCA-job cmp_prot_al_frame02_dry E -13345.544680568533
  Si      3.474814     33.853213      7.875242
  Si      3.487151     30.760569      7.888463
  O       2.243892     34.753495      8.449741
  O       2.242520     29.868382      8.449492
  O       3.384855     32.303809      8.406046
  O       3.480580     33.802742      6.229742
  O       3.514890     30.846585      6.243998
  Si      6.139515     26.146837      7.883480
  Si      8.788987     24.552243      7.879372
  O       4.741946     25.542042      8.455883
  O       7.436428     25.301577      8.403614
  O       8.746503     23.025990      8.448377
  O       6.183340     26.159140      6.236690
  O       8.754422     24.612025      6.234940
  Si      6.134741     29.214976      7.797182
  Si      6.122853     35.420649      7.782830
  Si      8.891102     33.874587      7.723973
  Si      8.885211     30.790160      7.728490
  O       4.878857     30.064037      8.395854
  O       4.854411     34.562571      8.366895
  O       7.498822     34.641338      8.125167
  O       7.526929     29.986055      8.118266
  O       6.219771     27.697277      8.387327
  O       8.809181     32.307546      8.289664
  O       5.848498     29.117146      6.180201
  O       5.898216     35.593845      6.160917
  O       8.967992     33.774586      6.088331
  O       9.067203     30.840588      6.102647
  Si      6.175018     38.502237      7.853881
  Si      8.850521     40.069597      7.818339
  O       4.908273     39.348987      8.446057
  O       7.554147     39.216133      8.342255
  O       6.151501     36.942542      8.363899
  O       8.611488     41.592564      8.360981
  O       6.173395     38.495661      6.208543
  O       8.872878     39.987987      6.170731
  Si     11.463638     26.074177      7.786773
  Si     14.122075     24.539524      7.827419
  O      10.115900     25.371508      8.380589
  O      12.820248     25.378107      8.355385
  O      13.890303     23.007502      8.334325
  O      11.395351     25.824732      6.162950
  O      14.134224     24.643526      6.184002
  Si     11.536308     29.250067      7.769808
  Al     11.663694     35.417962      7.733979
  Si     14.296803     33.775437      7.796018
  Si     14.213757     30.723985      7.763326
  O      10.203839     30.011541      8.357161
  O      10.178126     34.604208      8.334616
  O      13.090679     34.609870      8.414982
  O      12.886043     29.944619      8.394932
  O      11.457365     27.666609      8.136385
  O      14.381552     32.209878      8.390523
  O      11.550571     29.465747      6.148715
  O      11.839044     35.014844      6.026095
  O      14.058153     33.569148      6.177652
  O      13.924720     30.866383      6.156655
  Si     11.630931     38.696486      7.754031
  Si     14.390402     40.069762      7.822549
  O      10.268820     39.451282      8.314912
  O      12.982559     39.435370      8.345072
  O      11.616837     37.135403      8.052815
  O      14.652470     41.597969      8.333704
  O      11.705525     39.047836      6.134841
  O      14.404083     39.955563      6.177256
  Si     16.851588     25.974254      7.846700
  O      15.500676     25.215689      8.372041
  O      18.094188     25.084044      8.408948
  O      16.772189     25.984808      6.201702
  Si     16.919572     29.048647      7.735681
  Si     17.076400     35.323005      7.765916
  Si     19.697966     33.722949      7.824053
  Si     19.555787     30.636526      7.825382
  O      15.509530     29.790153      8.053409
  O      15.765863     34.431878      8.100276
  O      18.393295     34.542387      8.365431
  O      18.160222     29.924548      8.297184
  O      16.880770     27.529943      8.346682
  O      19.678564     32.173074      8.359831
  O      17.122651     28.838801      6.114244
  O      17.348513     35.407307      6.143680
  O      19.593982     33.642754      6.182574
  O      19.522016     30.692634      6.179062
  Si     16.993707     38.390292      7.829239
  O      15.690135     39.221599      8.346974
  O      18.447620     38.956790      8.295410
  O      16.948878     36.834162      8.339399
  O      16.892052     38.335441      6.180077
  O      20.731969     29.645296      8.368614
  O      21.119112     34.345472      8.327973
  H       4.074657     24.986772      8.036591
  H       1.410409     29.602015      8.036749
  H       1.410409     35.007985      8.036749
  H       4.074657     39.623228      8.036591
  H       8.948181     22.173255      8.038302
  H       8.948181     42.436745      8.038302
  H      14.277762     22.173204      8.038282
  H      14.277762     42.436796      8.038282
  H      18.960557     24.876228      8.036406
  H      18.960557     39.733772      8.036406
  H      21.624717     29.491420      8.036583
  H      21.624717     35.118580      8.036583
  H      13.240057     34.080029      5.912525
  H      11.032994     34.771353      5.566120
  H       8.983181     32.869703      5.751274
  H       9.869446     30.390680      5.790638
  H      12.347228     29.951795      5.853061
  H      13.958645     31.819575      5.896561
  H      13.539232     39.680412      5.828713
  H      10.849212     39.264828      5.746396
  H       8.065309     39.612869      5.797338
  H       6.065248     37.606094      5.839620
  H       5.234438     35.001304      5.786760
  H       3.484844     32.896549      5.887287
  H       4.188964     30.270210      5.852452
  H       6.020100     28.242570      5.805716
  H       6.942314     25.675379      5.879362
  H       9.581109     24.950053      5.856398
  H      12.236041     25.539191      5.778513
  H      14.940139     25.063794      5.845825
  H      16.928411     26.868921      5.830486
  H      17.788045     29.427905      5.732638
  H      19.539674     31.602496      5.842564
  H      18.899844     34.224599      5.828716
  H      17.166110     36.286566      5.779412
  H      16.104221     38.793183      5.848483
  P      15.760022     37.494802     12.611205
  O      16.628539     33.812434     13.119425
  O      19.331130     32.543995     12.660431
  O      17.765670     31.207175     11.035811
  O      17.169574     36.684639     12.787327
  O      15.083996     30.470724     11.413557
  O      15.617152     38.324124     13.815056
  O      14.706270     36.523950     12.156126
  O      16.105526     38.398682     11.293399
  N      14.941862     32.689471     11.947915
  N      13.139654     31.553543     11.034931
  N      11.252405     32.612869     10.248412
  C      18.532577     33.336695     11.815803
  C      17.357694     32.519060     11.290044
  C      17.845272     34.419490     12.625733
  C      16.348626     32.652589     12.441435
  C      17.555067     35.702327     11.873878
  C      14.228004     33.836950     11.893174
  C      14.444898     31.505880     11.471767
  C      12.975654     33.871920     11.361940
  C      12.420479     32.691390     10.862834
  H      19.125519     33.758453     10.997435
  H      16.950583     33.006878     10.395794
  H      18.442910     34.662876     13.505906
  H      16.402486     31.775997     13.097376
  H      16.784326     35.538433     11.110375
  H      18.471109     36.020409     11.359141
  H      19.293407     31.651979     12.290348
  H      16.975107     30.648406     11.052978
  H      14.681865     34.784614     12.239379
  H      12.470093     34.821596     11.279982
  H      10.826688     33.456789      9.871879
  H      10.937815     31.751137      9.830377
  H      15.369023     38.278024     10.686904
  H      12.847340     30.704493     10.566627
161
Coordinates from ORCA-job cmp_prot_al_frame02_dry E -13345.544759059207
  Si      3.477326     33.856808      7.871851
  Si      3.484584     30.763906      7.889164
  O       2.250316     34.764503      8.443591
  O       2.237243     29.877781      8.453896
  O       3.384111     32.308092      8.404251
  O       3.484101     33.803288      6.226520
  O       3.510999     30.846024      6.244476
  Si      6.138749     26.150229      7.882456
  Si      8.786588     24.553064      7.879642
  O       4.738571     25.549000      8.452096
  O       7.434380     25.303258      8.404139
  O       8.739742     23.025725      8.445703
  O       6.185845     26.162726      6.235870
  O       8.752992     24.615851      6.235164
  Si      6.133357     29.218346      7.797748
  Si      6.126643     35.421926      7.782162
  Si      8.894113     33.874762      7.725104
  Si      8.885174     30.791524      7.730189
  O       4.876417     30.066668      8.395644
  O       4.858061     34.563098      8.364569
  O       7.502632     34.643042      8.125665
  O       7.525032     29.990146      8.119810
  O       6.219539     27.700455      8.387395
  O       8.811457     32.308495      8.292036
  O       5.847045     29.120874      6.180772
  O       5.903373     35.597667      6.160406
  O       8.967888     33.773880      6.089402
  O       9.068099     30.841439      6.104346
  Si      6.178056     38.502845      7.856145
  Si      8.849447     40.070081      7.820302
  O       4.908105     39.346247      8.444181
  O       7.554513     39.217381      8.350850
  O       6.154697     36.942938      8.364803
  O       8.612613     41.593244      8.363519
  O       6.184824     38.497851      6.210462
  O       8.865787     39.987009      6.173171
  Si     11.462782     26.074085      7.789540
  Si     14.121278     24.540047      7.827859
  O      10.114969     25.369554      8.381909
  O      12.819944     25.378501      8.357914
  O      13.888183     23.007377      8.332030
  O      11.394865     25.825844      6.165570
  O      14.132965     24.646491      6.184572
  Si     11.535148     29.249655      7.771842
  Al     11.664803     35.419334      7.729868
  Si     14.297283     33.775884      7.791542
  Si     14.212393     30.724015      7.762611
  O      10.202460     30.010683      8.358518
  O      10.183145     34.601453      8.335312
  O      13.092743     34.613048      8.410068
  O      12.885194     29.945139      8.395546
  O      11.455551     27.666447      8.140251
  O      14.380404     32.210672      8.387627
  O      11.549122     29.463194      6.150290
  O      11.835868     35.014895      6.022211
  O      14.056394     33.567210      6.173508
  O      13.922648     30.864785      6.155907
  Si     11.630600     38.699458      7.751121
  Si     14.391845     40.066692      7.822741
  O      10.268595     39.451839      8.314742
  O      12.981925     39.436753      8.345214
  O      11.615077     37.137564      8.045257
  O      14.656825     41.596931      8.325451
  O      11.705786     39.055818      6.133147
  O      14.408453     39.943548      6.178108
  Si     16.851534     25.974322      7.847593
  O      15.500806     25.214693      8.372345
  O      18.095511     25.086757      8.410686
  O      16.771577     25.984522      6.202685
  Si     16.918488     29.048518      7.735978
  Si     17.079732     35.322166      7.765154
  Si     19.699585     33.720622      7.824057
  Si     19.555450     30.635006      7.824084
  O      15.508042     29.789986      8.052822
  O      15.767529     34.430272      8.090628
  O      18.394592     34.538959      8.366367
  O      18.158257     29.926020      8.296786
  O      16.879451     27.530069      8.347744
  O      19.681641     32.170848      8.360345
  O      17.122133     28.837548      6.114834
  O      17.356979     35.409667      6.143651
  O      19.594230     33.639904      6.182787
  O      19.521444     30.692883      6.177993
  Si     16.994188     38.388703      7.829889
  O      15.691093     39.219778      8.352136
  O      18.449917     38.953944      8.291395
  O      16.950303     36.832315      8.340512
  O      16.888713     38.334484      6.181255
  O      20.729418     29.639334      8.364785
  O      21.120006     34.344861      8.327851
  H       4.074657     24.986772      8.036591
  H       1.410409     29.602015      8.036749
  H       1.410409     35.007985      8.036749
  H       4.074657     39.623228      8.036591
  H       8.948181     22.173255      8.038302
  H       8.948181     42.436745      8.038302
  H      14.277762     22.173204      8.038282
  H      14.277762     42.436796      8.038282
  H      18.960557     24.876228      8.036406
  H      18.960557     39.733772      8.036406
  H      21.624717     29.491420      8.036583
  H      21.624717     35.118580      8.036583
  H      13.237879     34.077016      5.908759
  H      11.028906     34.769892      5.564696
  H       8.989080     32.868532      5.753661
  H       9.869446     30.389146      5.793234
  H      12.346058     29.947927      5.853464
  H      13.956179     31.817758      5.895255
  H      13.541989     39.675185      5.828218
  H      10.849203     39.268019      5.742958
  H       8.059756     39.603133      5.804497
  H       6.073517     37.609075      5.840460
  H       5.243040     35.003558      5.782959
  H       3.487340     32.896419      5.885879
  H       4.186547     30.270402      5.854217
  H       6.020862     28.247296      5.805034
  H       6.946107     25.679431      5.880337
  H       9.580430     24.953273      5.857645
  H      12.235685     25.541421      5.780491
  H      14.939086     25.067090      5.847100
  H      16.928995     26.868470      5.831418
  H      17.786658     29.427064      5.732304
  H      19.537168     31.603466      5.842908
  H      18.902744     34.225308      5.829240
  H      17.172162     36.288459      5.779224
  H      16.097884     38.789296      5.851747
  P      15.779080     37.495280     12.604717
  O      16.637174     33.813703     13.128283
  O      19.341454     32.537302     12.676046
  O      17.774708     31.200116     11.055785
  O      17.181715     36.678322     12.800910
  O      15.089694     30.470647     11.430567
  O      15.616259     38.317674     13.810700
  O      14.732177     36.529431     12.123722
  O      16.152330     38.405612     11.298644
  N      14.950960     32.692357     11.954073
  N      13.149079     31.556384     11.040186
  N      11.268629     32.616272     10.239626
  C      18.544065     33.330154     11.830447
  C      17.369074     32.513605     11.304612
  C      17.858923     34.414947     12.639030
  C      16.355889     32.652450     12.452971
  C      17.576793     35.699473     11.887934
  C      14.242469     33.842388     11.887178
  C      14.452967     31.507536     11.481911
  C      12.992159     33.878286     11.350646
  C      12.434550     32.695976     10.857628
  H      19.137772     33.750755     11.011982
  H      16.961772     32.999058     10.408498
  H      18.454915     34.654966     13.521249
  H      16.404028     31.777851     13.111930
  H      16.812785     35.538206     11.117167
  H      18.497924     36.018122     11.382517
  H      19.301712     31.644474     12.308070
  H      16.982483     30.643363     11.070526
  H      14.698641     34.791181     12.227027
  H      12.491184     34.829520     11.259516
  H      10.845007     33.458436      9.855822
  H      10.950202     31.751154      9.830992
  H      15.422221     38.297637     10.682090
  H      12.855646     30.705260     10.576530
161
Coordinates from ORCA-job cmp_prot_al_frame02_dry E -13345.544822788635
  Si      3.478635     33.858224      7.868965
  Si      3.483271     30.765273      7.889274
  O       2.254413     34.771016      8.438920
  O       2.233850     29.883557      8.456739
  O       3.383624     32.310255      8.402874
  O       3.486027     33.802632      6.223799
  O       3.509022     30.844423      6.244665
  Si      6.137941     26.151998      7.881801
  Si      8.785109     24.553469      7.879392
  O       4.736311     25.553004      8.450232
  O       7.432974     25.304107      8.404035
  O       8.735633     23.025489      8.444094
  O       6.186346     26.164491      6.235389
  O       8.752496     24.617652      6.235140
  Si      6.132834     29.220049      7.797610
  Si      6.128407     35.422642      7.780353
  Si      8.895165     33.875172      7.723730
  Si      8.884966     30.792531      7.730572
  O       4.874965     30.067564      8.395327
  O       4.860228     34.562936      8.361673
  O       7.504684     34.644500      8.124829
  O       7.524097     29.992293      8.119909
  O       6.219301     27.702202      8.387095
  O       8.811635     32.309732      8.292274
  O       5.846803     29.122787      6.180657
  O       5.906317     35.599995      6.158695
  O       8.968315     33.773818      6.088161
  O       9.068338     30.842556      6.104900
  Si      6.178697     38.503160      7.856410
  Si      8.848432     40.070661      7.820168
  O       4.908015     39.345531      8.443703
  O       7.554432     39.217848      8.353243
  O       6.154909     36.943296      8.364221
  O       8.612937     41.593554      8.364320
  O       6.188241     38.499580      6.210659
  O       8.861328     39.987364      6.172866
  Si     11.461930     26.074478      7.790647
  Si     14.120556     24.540375      7.827969
  O      10.114226     25.368550      8.382449
  O      12.819320     25.378627      8.358878
  O      13.887520     23.007353      8.331414
  O      11.394188     25.827353      6.166680
  O      14.131446     24.648243      6.184893
  Si     11.534327     29.249839      7.772466
  Al     11.664989     35.420504      7.724287
  Si     14.296978     33.776136      7.786529
  Si     14.211594     30.724056      7.761004
  O      10.201649     30.011029      8.358805
  O      10.185653     34.600825      8.333365
  O      13.093134     34.615552      8.404882
  O      12.884488     29.946173      8.395473
  O      11.454949     27.666827      8.142416
  O      14.379888     32.211604      8.384446
  O      11.547664     29.461356      6.150530
  O      11.834333     35.014715      6.016443
  O      14.054062     33.566120      6.169158
  O      13.921799     30.863477      6.154264
  Si     11.630455     38.701208      7.747505
  Si     14.392393     40.065149      7.822792
  O      10.269095     39.453524      8.311869
  O      12.981515     39.436448      8.344457
  O      11.613270     37.138564      8.038719
  O      14.658192     41.596348      8.322143
  O      11.706665     39.059902      6.130318
  O      14.410165     39.939172      6.178564
  Si     16.851588     25.974017      7.847619
  O      15.500902     25.213830      8.372160
  O      18.096321     25.088102      8.411937
  O      16.772126     25.983435      6.203094
  Si     16.917732     29.048240      7.735306
  Si     17.081844     35.321214      7.764056
  Si     19.700895     33.719284      7.822493
  Si     19.554780     30.633808      7.821805
  O      15.507205     29.790185      8.051736
  O      15.768300     34.429036      8.083742
  O      18.395625     34.536492      8.365380
  O      18.157555     29.925822      8.295792
  O      16.878522     27.529847      8.347328
  O      19.684091     32.169474      8.357887
  O      17.121583     28.837101      6.114472
  O      17.360744     35.411497      6.142703
  O      19.595420     33.640010      6.181605
  O      19.519301     30.691886      6.175868
  Si     16.994555     38.387663      7.829414
  O      15.692154     39.219632      8.354142
  O      18.450987     38.952490      8.288924
  O      16.951753     36.831061      8.340694
  O      16.886773     38.334768      6.181291
  O      20.727800     29.636502      8.361501
  O      21.120422     34.344572      8.327711
  H       4.074657     24.986772      8.036591
  H       1.410409     29.602015      8.036749
  H       1.410409     35.007985      8.036749
  H       4.074657     39.623228      8.036591
  H       8.948181     22.173255      8.038302
  H       8.948181     42.436745      8.038302
  H      14.277762     22.173204      8.038282
  H      14.277762     42.436796      8.038282
  H      18.960557     24.876228      8.036406
  H      18.960557     39.733772      8.036406
  H      21.624717     29.491420      8.036583
  H      21.624717     35.118580      8.036583
  H      13.235351     34.075793      5.904354
  H      11.027028     34.768499      5.560221
  H       8.991251     32.868019      5.753644
  H       9.868997     30.389227      5.793661
  H      12.344119     29.945824      5.852295
  H      13.955234     31.816442      5.893105
  H      13.543217     39.674178      5.827155
  H      10.850295     39.270983      5.739330
  H       8.056062     39.598358      5.807440
  H       6.076254     37.611138      5.840024
  H       5.247804     35.004901      5.779810
  H       3.488301     32.895515      5.884006
  H       4.185875     30.269705      5.855234
  H       6.020220     28.249271      5.804609
  H       6.946932     25.681445      5.880184
  H       9.579956     24.955361      5.857918
  H      12.234848     25.543302      5.780964
  H      14.937910     25.067348      5.846552
  H      16.929050     26.867032      5.830855
  H      17.786000     29.426667      5.731688
  H      19.535507     31.602138      5.840139
  H      18.904581     34.226470      5.828484
  H      17.175506     36.290097      5.778183
  H      16.095304     38.789377      5.852358
  P      15.785786     37.494373     12.606091
  O      16.638098     33.818139     13.132070
  O      19.342092     32.534486     12.680913
  O      17.772986     31.198717     11.062826
  O      17.185495     36.675773     12.814609
  O      15.089189     30.470332     11.443919
  O      15.608729     38.313612     13.812197
  O      14.744907     36.529661     12.110000
  O      16.177476     38.406924     11.307756
  N      14.952439     32.693500     11.961835
  N      13.150817     31.558472     11.046372
  N      11.277672     32.621848     10.233307
  C      18.544944     33.328622     11.835952
  C      17.369015     32.513113     11.311372
  C      17.863546     34.414544     12.646250
  C      16.356970     32.654406     12.460848
  C      17.587848     35.702225     11.899116
  C      14.248238     33.845628     11.887138
  C      14.453585     31.508096     11.492460
  C      12.999395     33.882682     11.347720
  C      12.440376     32.700113     10.856952
  H      19.138519     33.748509     11.016830
  H      16.957280     32.995025     10.414914
  H      18.459717     34.649745     13.529698
  H      16.405747     31.781704     13.122204
  H      16.830202     35.545790     11.121146
  H      18.513793     36.022265     11.403369
  H      19.302477     31.641944     12.312376
  H      16.979711     30.643139     11.081605
  H      14.707098     34.794933     12.222586
  H      12.500995     34.834566     11.250153
  H      10.857299     33.463243      9.843344
  H      10.957349     31.755281      9.829319
  H      15.453710     38.307686     10.682947
  H      12.858204     30.707189     10.582454
161
Coordinates from ORCA-job cmp_prot_al_frame02_dry E -13345.544888622111
  Si      3.480664     33.860454      7.865414
  Si      3.481008     30.767465      7.890055
  O       2.260460     34.780901      8.431929
  O       2.227855     29.893460      8.461638
  O       3.383396     32.313646      8.401607
  O       3.489238     33.801858      6.220476
  O       3.505563     30.841550      6.245628
  Si      6.136566     26.154643      7.881071
  Si      8.783003     24.554087      7.878460
  O       4.732784     25.558904      8.447818
  O       7.431207     25.305794      8.403413
  O       8.729078     23.025269      8.441281
  O       6.186333     26.167468      6.234924
  O       8.752206     24.620009      6.234665
  Si      6.131573     29.222591      7.798024
  Si      6.130934     35.423856      7.778503
  Si      8.896272     33.875851      7.722106
  Si      8.883965     30.793695      7.731112
  O       4.872287     30.068681      8.395576
  O       4.863434     34.562745      8.358161
  O       7.507625     34.646980      8.124475
  O       7.522301     29.995287      8.120697
  O       6.218400     27.704709      8.387013
  O       8.811373     32.311528      8.292182
  O       5.846357     29.125851      6.181066
  O       5.911077     35.602439      6.156841
  O       8.969433     33.774062      6.086833
  O       9.066844     30.843459      6.105512
  Si      6.178517     38.503814      7.856519
  Si      8.847872     40.071452      7.820296
  O       4.907925     39.345832      8.444170
  O       7.554409     39.218247      8.354150
  O       6.154334     36.944253      8.363738
  O       8.612930     41.593989      8.365202
  O       6.188380     38.501703      6.210836
  O       8.859029     39.988559      6.172597
  Si     11.460794     26.074982      7.791921
  Si     14.119804     24.540398      7.828759
  O      10.113208     25.367099      8.382798
  O      12.818308     25.378247      8.359939
  O      13.887248     23.007069      8.331685
  O      11.393650     25.829582      6.167968
  O      14.129872     24.649872      6.186031
  Si     11.532937     29.250278      7.773119
  Al     11.665608     35.421961      7.718478
  Si     14.296328     33.775535      7.782002
  Si     14.210381     30.723837      7.760471
  O      10.199985     30.011643      8.358491
  O      10.188560     34.600572      8.331124
  O      13.093775     34.618815      8.400059
  O      12.883027     29.947229      8.395824
  O      11.454325     27.667398      8.145372
  O      14.378860     32.212305      8.382560
  O      11.545506     29.459619      6.150660
  O      11.834201     35.014617      6.010391
  O      14.050381     33.562995      6.165842
  O      13.921135     30.861072      6.153606
  Si     11.631246     38.702788      7.745641
  Si     14.393306     40.064027      7.825045
  O      10.270399     39.455814      8.309299
  O      12.981780     39.436256      8.346362
  O      11.611739     37.139068      8.032726
  O      14.660134     41.596442      8.319587
  O      11.709153     39.063489      6.129365
  O      14.412603     39.934903      6.181284
  Si     16.851576     25.973750      7.848735
  O      15.500924     25.212667      8.372841
  O      18.097744     25.090283      8.414159
  O      16.772980     25.982471      6.204769
  Si     16.916462     29.048149      7.736669
  Si     17.083430     35.320228      7.761520
  Si     19.701844     33.718315      7.820344
  Si     19.553768     30.632550      7.820377
  O      15.506097     29.790807      8.052850
  O      15.769218     34.426578      8.075226
  O      18.396226     34.534630      8.362699
  O      18.157427     29.924805      8.296205
  O      16.876780     27.529476      8.348118
  O      19.685647     32.168546      8.354947
  O      17.120201     28.837378      6.116042
  O      17.363394     35.413982      6.140086
  O      19.596948     33.640754      6.179983
  O      19.515959     30.689929      6.174555
  Si     16.995027     38.386781      7.828753
  O      15.693594     39.219510      8.358484
  O      18.452010     38.951103      8.286568
  O      16.953048     36.829864      8.340294
  O      16.884021     38.336466      6.181367
  O      20.726822     29.635193      8.359395
  O      21.120576     34.344364      8.327580
  H       4.074657     24.986772      8.036591
  H       1.410409     29.602015      8.036749
  H       1.410409     35.007985      8.036749
  H       4.074657     39.623228      8.036591
  H       8.948181     22.173255      8.038302
  H       8.948181     42.436745      8.038302
  H      14.277762     22.173204      8.038282
  H      14.277762     42.436796      8.038282
  H      18.960557     24.876228      8.036406
  H      18.960557     39.733772      8.036406
  H      21.624717     29.491420      8.036583
  H      21.624717     35.118580      8.036583
  H      13.231983     34.072990      5.900424
  H      11.026316     34.767361      5.555723
  H       8.991563     32.867490      5.753972
  H       9.866711     30.389178      5.793622
  H      12.342196     29.942548      5.850900
  H      13.953578     31.813939      5.891647
  H      13.545745     39.672084      5.828147
  H      10.852894     39.273344      5.737560
  H       8.053894     39.597432      5.808881
  H       6.077325     37.613454      5.839511
  H       5.254514     35.006037      5.776704
  H       3.489819     32.894563      5.881464
  H       4.184746     30.268616      5.857480
  H       6.018995     28.252255      5.804813
  H       6.946948     25.684832      5.879341
  H       9.579641     24.958380      5.857996
  H      12.234116     25.545855      5.781631
  H      14.936848     25.066460      5.846128
  H      16.929441     26.865628      5.831425
  H      17.784763     29.426882      5.733277
  H      19.533723     31.599241      5.836944
  H      18.906909     34.228548      5.827336
  H      17.177324     36.292066      5.775013
  H      16.091600     38.789923      5.853068
  P      15.790978     37.494980     12.603532
  O      16.633782     33.825335     13.129577
  O      19.339940     32.530669     12.688509
  O      17.771458     31.199133     11.068595
  O      17.186546     36.673835     12.831655
  O      15.086675     30.472906     11.453942
  O      15.588718     38.300739     13.814678
  O      14.761104     36.535030     12.076287
  O      16.208151     38.421075     11.324051
  N      14.950359     32.698007     11.962737
  N      13.150722     31.561694     11.045168
  N      11.285847     32.624776     10.215969
  C      18.545948     33.327971     11.843390
  C      17.370434     32.515442     11.315662
  C      17.866935     34.413935     12.655220
  C      16.354055     32.658795     12.462229
  C      17.604656     35.708185     11.915089
  C      14.250383     33.852227     11.877628
  C      14.451750     31.511392     11.496651
  C      13.003382     33.888712     11.333893
  C      12.444098     32.704534     10.846731
  H      19.141819     33.747588     11.025546
  H      16.963758     32.994071     10.415359
  H      18.460911     34.639345     13.542815
  H      16.402761     31.788110     13.126393
  H      16.861671     35.559620     11.121730
  H      18.540514     36.030504     11.439437
  H      19.302011     31.639434     12.316404
  H      16.975868     30.646496     11.090322
  H      14.711717     34.802313     12.207917
  H      12.506426     34.840353     11.227220
  H      10.865170     33.463613      9.819972
  H      10.963672     31.754087      9.821935
  H      15.495573     38.334606     10.684148
  H      12.860558     30.709947     10.580467
161
Coordinates from ORCA-job cmp_prot_al_frame02_dry E -13345.544935843789
  Si      3.481110     33.860201      7.865310
  Si      3.480856     30.767242      7.891030
  O       2.261340     34.781997      8.430514
  O       2.226228     29.895547      8.463311
  O       3.383611     32.313812      8.402144
  O       3.490506     33.800849      6.220424
  O       3.505590     30.839864      6.246721
  Si      6.136034     26.154297      7.882075
  Si      8.783055     24.553886      7.878555
  O       4.732551     25.558025      8.449375
  O       7.431210     25.305780      8.403199
  O       8.728229     23.024960      8.441527
  O       6.184409     26.167615      6.235867
  O       8.753194     24.619541      6.234989
  Si      6.131426     29.222247      7.799336
  Si      6.131304     35.424098      7.778992
  Si      8.895939     33.876217      7.724034
  Si      8.883407     30.793858      7.733670
  O       4.871408     30.067528      8.396819
  O       4.863815     34.562793      8.357577
  O       7.508076     34.648218      8.127141
  O       7.521728     29.995120      8.122157
  O       6.217745     27.704302      8.387908
  O       8.809088     32.312006      8.294564
  O       5.847492     29.125795      6.182143
  O       5.913585     35.601201      6.156872
  O       8.971543     33.774638      6.088891
  O       9.066919     30.845105      6.108242
  Si      6.177045     38.504133      7.855304
  Si      8.847938     40.072303      7.819138
  O       4.908346     39.348157      8.444933
  O       7.554447     39.218056      8.349830
  O       6.152520     36.945067      8.363439
  O       8.612086     41.594224      8.364867
  O       6.182633     38.501343      6.209739
  O       8.861014     39.991145      6.170853
  Si     11.460658     26.075271      7.793257
  Si     14.119933     24.540343      7.830047
  O      10.113193     25.366612      8.383635
  O      12.817967     25.377432      8.360800
  O      13.888996     23.007011      8.334185
  O      11.393682     25.831951      6.169130
  O      14.129045     24.649987      6.187380
  Si     11.532678     29.250167      7.776402
  Al     11.665727     35.421825      7.720837
  Si     14.295489     33.774947      7.785640
  Si     14.209979     30.723840      7.765073
  O      10.199154     30.011525      8.360554
  O      10.188486     34.600796      8.333637
  O      13.093320     34.619264      8.404203
  O      12.882061     29.947564      8.400161
  O      11.455097     27.667207      8.149175
  O      14.378657     32.212443      8.387503
  O      11.546028     29.459438      6.154039
  O      11.835630     35.013552      6.012435
  O      14.047940     33.561636      6.170346
  O      13.921107     30.861054      6.158152
  Si     11.631259     38.701967      7.746138
  Si     14.392573     40.064297      7.823695
  O      10.271271     39.458118      8.307090
  O      12.982381     39.434401      8.345988
  O      11.610139     37.138383      8.035480
  O      14.657984     41.596046      8.321663
  O      11.710301     39.059405      6.129194
  O      14.410236     39.939171      6.179723
  Si     16.852145     25.973744      7.850013
  O      15.501344     25.212395      8.373475
  O      18.098637     25.090599      8.416180
  O      16.775335     25.982408      6.206230
  Si     16.915796     29.048418      7.739336
  Si     17.082744     35.319585      7.762673
  Si     19.701973     33.719235      7.820410
  Si     19.552473     30.632445      7.820941
  O      15.505893     29.791211      8.057761
  O      15.769155     34.425988      8.078809
  O      18.395939     34.534962      8.362793
  O      18.158186     29.923204      8.299246
  O      16.876538     27.529268      8.349414
  O      19.686694     32.168965      8.352818
  O      17.118177     28.839470      6.118489
  O      17.360376     35.412302      6.140732
  O      19.598229     33.644170      6.180201
  O      19.510241     30.688660      6.174978
  Si     16.994976     38.386620      7.826648
  O      15.694515     39.221084      8.355435
  O      18.451156     38.951676      8.286439
  O      16.953870     36.830343      8.339951
  O      16.883463     38.336003      6.179591
  O      20.726814     29.636218      8.358643
  O      21.119933     34.345648      8.329726
  H       4.074657     24.986772      8.036591
  H       1.410409     29.602015      8.036749
  H       1.410409     35.007985      8.036749
  H       4.074657     39.623228      8.036591
  H       8.948181     22.173255      8.038302
  H       8.948181     42.436745      8.038302
  H      14.277762     22.173204      8.038282
  H      14.277762     42.436796      8.038282
  H      18.960557     24.876228      8.036406
  H      18.960557     39.733772      8.036406
  H      21.624717     29.491420      8.036583
  H      21.624717     35.118580      8.036583
  H      13.230000     34.072708      5.904382
  H      11.027683     34.765106      5.558455
  H       8.989830     32.867916      5.756271
  H       9.865610     30.389677      5.795489
  H      12.343700     29.940766      5.854477
  H      13.952338     31.813985      5.896323
  H      13.544009     39.674021      5.826562
  H      10.854553     39.271074      5.737344
  H       8.054692     39.603815      5.806074
  H       6.074307     37.612470      5.839082
  H       5.257011     35.004494      5.777204
  H       3.490440     32.893624      5.881392
  H       4.185563     30.267576      5.858975
  H       6.018361     28.251547      5.806581
  H       6.944358     25.685057      5.879029
  H       9.580211     24.958941      5.858450
  H      12.233963     25.548031      5.782636
  H      14.936539     25.064114      5.846120
  H      16.930857     26.865438      5.832468
  H      17.782989     29.429204      5.736307
  H      19.532040     31.596906      5.835459
  H      18.907420     34.231075      5.827886
  H      17.174563     36.290039      5.774990
  H      16.091944     38.790781      5.850859
  P      15.782687     37.493700     12.603404
  O      16.628475     33.831257     13.127947
  O      19.334966     32.535568     12.680669
  O      17.763726     31.205337     11.062983
  O      17.180272     36.677744     12.838679
  O      15.083410     30.473479     11.459839
  O      15.570002     38.301285     13.811508
  O      14.757950     36.529424     12.073800
  O      16.208286     38.416798     11.325468
  N      14.945551     32.698474     11.967741
  N      13.146612     31.561086     11.050256
  N      11.280502     32.624427     10.221810
  C      18.538824     33.334263     11.838510
  C      17.361768     32.521415     11.313179
  C      17.862324     34.418726     12.655062
  C      16.350458     32.663150     12.463142
  C      17.601114     35.715567     11.919510
  C      14.244522     33.852274     11.882950
  C      14.447822     31.511773     11.501205
  C      12.997193     33.887521     11.340602
  C      12.438834     32.703532     10.852867
  H      19.132701     33.754773     11.019666
  H      16.950164     32.996721     10.413585
  H      18.457961     34.639584     13.542768
  H      16.404780     31.792608     13.127130
  H      16.860693     35.569368     11.123445
  H      18.538293     36.039990     11.447771
  H      19.299078     31.645763     12.305015
  H      16.969510     30.651154     11.093578
  H      14.704927     34.802948     12.213276
  H      12.498170     34.838184     11.234691
  H      10.859858     33.463052      9.825243
  H      10.960592     31.753880      9.826274
  H      15.500291     38.336891     10.680305
  H      12.858399     30.709870     10.583202
161
Coordinates from ORCA-job cmp_prot_al_frame02_dry E -13345.544985962801
  Si      3.481923     33.860895      7.864902
  Si      3.479910     30.767937      7.891788
  O       2.262820     34.784288      8.428607
  O       2.223487     29.899787      8.465572
  O       3.384218     32.314847      8.402317
  O       3.491810     33.800746      6.220009
  O       3.503703     30.838655      6.247409
  Si      6.135649     26.154326      7.881876
  Si      8.782971     24.553773      7.877338
  O       4.732445     25.557756      8.449901
  O       7.431409     25.306250      8.401821
  O       8.726490     23.024983      8.440654
  O       6.182639     26.168022      6.235538
  O       8.753596     24.619026      6.233829
  Si      6.130367     29.222350      7.799464
  Si      6.132072     35.424840      7.779317
  Si      8.895954     33.876479      7.724773
  Si      8.882507     30.793772      7.733621
  O       4.870069     30.067039      8.397240
  O       4.864628     34.563306      8.356969
  O       7.508889     34.649583      8.128692
  O       7.520643     29.995243      8.121878
  O       6.216896     27.704261      8.387623
  O       8.807449     32.311980      8.294591
  O       5.846650     29.126190      6.182132
  O       5.915903     35.600654      6.156761
  O       8.973192     33.775375      6.089613
  O       9.065914     30.846088      6.108108
  Si      6.176068     38.504969      7.854480
  Si      8.848648     40.072918      7.818706
  O       4.908932     39.350801      8.445741
  O       7.554899     39.218013      8.346266
  O       6.151649     36.946108      8.363191
  O       8.611252     41.594454      8.364695
  O       6.177989     38.501551      6.209017
  O       8.864193     39.993025      6.170135
  Si     11.460717     26.075013      7.792563
  Si     14.120363     24.540114      7.830200
  O      10.113324     25.366094      8.382648
  O      12.817834     25.376682      8.359927
  O      13.890305     23.007038      8.335681
  O      11.393904     25.832714      6.168303
  O      14.129344     24.649372      6.187461
  Si     11.532210     29.249622      7.776381
  Al     11.666262     35.421862      7.723011
  Si     14.294880     33.774268      7.786834
  Si     14.209425     30.723760      7.766208
  O      10.198125     30.010806      8.359655
  O      10.188690     34.600403      8.334917
  O      13.093884     34.619316      8.406421
  O      12.881009     29.947494      8.400763
  O      11.455647     27.666624      8.149916
  O      14.378225     32.212135      8.389297
  O      11.545900     29.459356      6.154262
  O      11.836791     35.013884      6.014236
  O      14.045436     33.560336      6.172145
  O      13.921077     30.860559      6.159174
  Si     11.631711     38.701289      7.748290
  Si     14.392410     40.064866      7.823006
  O      10.272113     39.459599      8.307012
  O      12.983517     39.433556      8.346734
  O      11.609243     37.137857      8.038492
  O      14.657111     41.596133      8.322937
  O      11.711466     39.056693      6.130703
  O      14.409035     39.941497      6.178861
  Si     16.852628     25.974013      7.850762
  O      15.501764     25.212201      8.373397
  O      18.099683     25.091884      8.417942
  O      16.777538     25.982343      6.206839
  Si     16.915140     29.048860      7.740588
  Si     17.081470     35.319742      7.760188
  Si     19.701588     33.720454      7.819921
  Si     19.551460     30.632651      7.821678
  O      15.505535     29.791729      8.060023
  O      15.769129     34.425372      8.078334
  O      18.394771     34.536442      8.360642
  O      18.158570     29.922136      8.301283
  O      16.875601     27.529546      8.349929
  O      19.686198     32.169773      8.351332
  O      17.117297     28.840909      6.119527
  O      17.358993     35.411519      6.138240
  O      19.599972     33.645969      6.179523
  O      19.506204     30.687942      6.175504
  Si     16.994807     38.386927      7.823746
  O      15.695264     39.221930      8.353730
  O      18.450574     38.951722      8.285434
  O      16.953396     36.830982      8.337054
  O      16.882274     38.336878      6.176992
  O      20.727078     29.637737      8.358642
  O      21.119064     34.346717      8.331134
  H       4.074657     24.986772      8.036591
  H       1.410409     29.602015      8.036749
  H       1.410409     35.007985      8.036749
  H       4.074657     39.623228      8.036591
  H       8.948181     22.173255      8.038302
  H       8.948181     42.436745      8.038302
  H      14.277762     22.173204      8.038282
  H      14.277762     42.436796      8.038282
  H      18.960557     24.876228      8.036406
  H      18.960557     39.733772      8.036406
  H      21.624717     29.491420      8.036583
  H      21.624717     35.118580      8.036583
  H      13.228077     34.072979      5.906205
  H      11.028461     34.764905      5.561082
  H       8.987667     32.868720      5.756558
  H       9.864567     30.391172      5.794673
  H      12.343768     29.941122      5.855501
  H      13.951275     31.813629      5.897246
  H      13.543492     39.673018      5.826506
  H      10.855905     39.269215      5.738823
  H       8.056647     39.610434      5.803531
  H       6.072908     37.612125      5.838752
  H       5.258828     35.004237      5.777436
  H       3.490705     32.893536      5.881029
  H       4.184564     30.267191      5.859965
  H       6.016779     28.251595      5.806981
  H       6.941872     25.685241      5.877665
  H       9.580280     24.959441      5.857513
  H      12.234206     25.548530      5.782090
  H      14.937245     25.062196      5.845790
  H      16.931844     26.865615      5.833199
  H      17.782299     29.431025      5.738129
  H      19.531231     31.595553      5.834825
  H      18.908438     34.231580      5.826530
  H      17.172484     36.288782      5.771948
  H      16.091279     38.792793      5.848952
  P      15.777642     37.496501     12.591841
  O      16.628238     33.836292     13.118372
  O      19.338214     32.543210     12.669230
  O      17.766077     31.210222     11.055427
  O      17.175895     36.682316     12.832413
  O      15.086495     30.473977     11.457630
  O      15.554630     38.297332     13.802605
  O      14.757285     36.533112     12.052151
  O      16.210978     38.426900     11.321940
  N      14.946659     32.699541     11.961722
  N      13.147726     31.558199     11.048974
  N      11.278489     32.618070     10.221820
  C      18.539528     33.341111     11.828750
  C      17.362419     32.526430     11.304623
  C      17.862235     34.423980     12.647258
  C      16.352294     32.667326     12.454538
  C      17.600390     35.721671     11.913141
  C      14.242909     33.851946     11.877230
  C      14.449588     31.511567     11.497569
  C      12.994656     33.884110     11.337211
  C      12.437566     32.698856     10.851568
  H      19.131456     33.762632     11.009163
  H      16.953061     32.999772     10.403367
  H      18.458297     34.642543     13.535301
  H      16.409848     31.796759     13.118353
  H      16.861721     35.574215     11.115774
  H      18.537664     36.048511     11.443246
  H      19.302901     31.653826     12.292403
  H      16.973470     30.654284     11.090434
  H      14.702559     34.803711     12.204848
  H      12.493656     34.833671     11.230865
  H      10.855879     33.456546      9.827255
  H      10.959748     31.747068      9.826654
  H      15.508752     38.354254     10.669591
  H      12.859916     30.706091     10.583329
161
Coordinates from ORCA-job cmp_prot_al_frame02_dry E -13345.545023654287
  Si      3.482662     33.861664      7.864514
  Si      3.478867     30.768712      7.892315
  O       2.263679     34.785434      8.427359
  O       2.220934     29.903795      8.467547
  O       3.385271     32.315800      8.402325
  O       3.492556     33.801033      6.219563
  O       3.501297     30.837816      6.247740
  Si      6.135677     26.153870      7.881746
  Si      8.783373     24.553674      7.876293
  O       4.733358     25.556004      8.450856
  O       7.432187     25.306699      8.400697
  O       8.725768     23.025140      8.440007
  O       6.181096     26.167751      6.235214
  O       8.753928     24.618426      6.232675
  Si      6.128898     29.221998      7.799145
  Si      6.132684     35.425754      7.779304
  Si      8.896032     33.876494      7.725228
  Si      8.881577     30.793249      7.732755
  O       4.868847     30.066647      8.397261
  O       4.865159     34.564239      8.356359
  O       7.509515     34.650828      8.129213
  O       7.519496     29.994788      8.120604
  O       6.215849     27.703825      8.387188
  O       8.806129     32.311372      8.293724
  O       5.844665     29.125820      6.181746
  O       5.917418     35.600536      6.156348
  O       8.974707     33.775770      6.089953
  O       9.065117     30.846030      6.107066
  Si      6.175849     38.506087      7.853803
  Si      8.849568     40.073330      7.818683
  O       4.909745     39.353368      8.445965
  O       7.555654     39.218054      8.344079
  O       6.151448     36.947134      8.362621
  O       8.610568     41.594686      8.364624
  O       6.175676     38.502338      6.208374
  O       8.867257     39.993843      6.170125
  Si     11.461182     26.074724      7.791685
  Si     14.121083     24.540043      7.829792
  O      10.113855     25.365840      8.381505
  O      12.818216     25.376319      8.358712
  O      13.891055     23.007197      8.336171
  O      11.394323     25.833158      6.167264
  O      14.130381     24.648806      6.186881
  Si     11.532000     29.248966      7.776155
  Al     11.666873     35.421962      7.725734
  Si     14.294563     33.774058      7.788711
  Si     14.208929     30.724035      7.767252
  O      10.197170     30.009791      8.358548
  O      10.188599     34.599659      8.336038
  O      13.094579     34.619068      8.408807
  O      12.880098     29.947430      8.401139
  O      11.456288     27.665997      8.150121
  O      14.377841     32.211911      8.391237
  O      11.546453     29.459418      6.154378
  O      11.837824     35.014722      6.016772
  O      14.044354     33.559934      6.174133
  O      13.920718     30.860991      6.160230
  Si     11.631920     38.700763      7.750950
  Si     14.392384     40.065206      7.822369
  O      10.272682     39.460615      8.308382
  O      12.984828     39.432636      8.347419
  O      11.607762     37.137636      8.041858
  O      14.656150     41.596091      8.324141
  O      11.712121     39.055061      6.132681
  O      14.408230     39.942757      6.178076
  Si     16.853272     25.974507      7.851357
  O      15.502393     25.212099      8.372943
  O      18.100807     25.093460      8.419667
  O      16.780056     25.982612      6.207052
  Si     16.914494     29.049428      7.741600
  Si     17.080004     35.320289      7.758305
  Si     19.701108     33.721581      7.819733
  Si     19.550266     30.632809      7.822436
  O      15.505074     29.792182      8.061632
  O      15.769010     34.425400      8.078868
  O      18.393545     34.537927      8.359205
  O      18.158413     29.921611      8.303757
  O      16.874540     27.530079      8.350469
  O      19.685767     32.170358      8.350331
  O      17.117026     28.842318      6.120358
  O      17.357959     35.410713      6.136574
  O      19.601061     33.647014      6.178939
  O      19.501699     30.687819      6.176013
  Si     16.994471     38.387128      7.821356
  O      15.695984     39.222615      8.352431
  O      18.450406     38.951292      8.283750
  O      16.952665     36.831733      8.334713
  O      16.880323     38.336585      6.174888
  O      20.726752     29.637985      8.357557
  O      21.118327     34.347527      8.332078
  H       4.074657     24.986772      8.036591
  H       1.410409     29.602015      8.036749
  H       1.410409     35.007985      8.036749
  H       4.074657     39.623228      8.036591
  H       8.948181     22.173255      8.038302
  H       8.948181     42.436745      8.038302
  H      14.277762     22.173204      8.038282
  H      14.277762     42.436796      8.038282
  H      18.960557     24.876228      8.036406
  H      18.960556     39.733772      8.036406
  H      21.624717     29.491420      8.036583
  H      21.624717     35.118580      8.036583
  H      13.227258     34.073564      5.908419
  H      11.029130     34.764854      5.564620
  H       8.986387     32.869346      5.756193
  H       9.863605     30.391013      5.793489
  H      12.344858     29.941333      5.856896
  H      13.950150     31.814249      5.898556
  H      13.542730     39.671902      5.827250
  H      10.856644     39.267805      5.740629
  H       8.058795     39.615147      5.801780
  H       6.072325     37.612671      5.838216
  H       5.259755     35.004658      5.777186
  H       3.490550     32.893855      5.880589
  H       4.182557     30.266748      5.860405
  H       6.014850     28.251050      5.806982
  H       6.939836     25.684902      5.876510
  H       9.580352     24.959584      5.856483
  H      12.234819     25.548982      5.781445
  H      14.938605     25.061229      5.845527
  H      16.933878     26.866250      5.834056
  H      17.782460     29.432845      5.740111
  H      19.529135     31.595278      5.835133
  H      18.909300     34.231836      5.825179
  H      17.169902     36.287490      5.769899
  H      16.089417     38.793593      5.848199
  P      15.767387     37.499155     12.576011
  O      16.628629     33.839407     13.112489
  O      19.343440     32.553670     12.661589
  O      17.772300     31.214972     11.052560
  O      17.165757     36.686392     12.824166
  O      15.091049     30.474051     11.454308
  O      15.533846     38.295579     13.787897
  O      14.751646     36.535990     12.027574
  O      16.209961     38.434337     11.312541
  N      14.949300     32.700076     11.955556
  N      13.150020     31.554905     11.047857
  N      11.276775     32.611722     10.223531
  C      18.541411     33.349115     11.822159
  C      17.365258     32.530787     11.298911
  C      17.861003     34.430128     12.641183
  C      16.355118     32.670582     12.447704
  C      17.594895     35.726497     11.905943
  C      14.242229     33.850705     11.872543
  C      14.452844     31.510838     11.493653
  C      12.992952     33.880112     11.335148
  C      12.437228     32.693673     10.851001
  H      19.131064     33.772231     11.001947
  H      16.958065     33.002312     10.396037
  H      18.456747     34.649451     13.529212
  H      16.414460     31.799463     13.110783
  H      16.856067     35.574383     11.109605
  H      18.530158     36.057321     11.435002
  H      19.307970     31.663833     12.285679
  H      16.981972     30.656183     11.089378
  H      14.700827     34.803397     12.197465
  H      12.490727     34.829101     11.229407
  H      10.853950     33.451226      9.831646
  H      10.959270     31.741763      9.825173
  H      15.512750     38.370545     10.653747
  H      12.861361     30.701480     10.585290
161
Coordinates from ORCA-job cmp_prot_al_frame02_dry E -13345.545050270974
  Si      3.483261     33.862429      7.863731
  Si      3.477927     30.769496      7.892464
  O       2.264479     34.786462      8.426196
  O       2.218904     29.907134      8.468967
  O       3.386176     32.316698      8.401946
  O       3.492871     33.801376      6.218733
  O       3.499208     30.837271      6.247724
  Si      6.135674     26.153650      7.881561
  Si      8.783575     24.553699      7.875678
  O       4.733984     25.554902      8.451397
  O       7.432628     25.307099      8.400019
  O       8.725307     23.025300      8.439445
  O       6.180166     26.167414      6.234896
  O       8.753968     24.618238      6.231935
  Si      6.127586     29.221851      7.798526
  Si      6.133250     35.426496      7.778521
  Si      8.896407     33.876539      7.724748
  Si      8.880844     30.792924      7.731372
  O       4.867931     30.066692      8.396947
  O       4.865711     34.564936      8.355391
  O       7.510249     34.651909      8.128394
  O       7.518567     29.994578      8.118950
  O       6.215087     27.703691      8.386696
  O       8.805637     32.310948      8.292168
  O       5.842409     29.125358      6.181188
  O       5.918146     35.600915      6.155384
  O       8.975737     33.775951      6.089390
  O       9.064426     30.845491      6.105536
  Si      6.176005     38.506987      7.853236
  Si      8.850263     40.073491      7.818755
  O       4.910460     39.355130      8.445765
  O       7.556222     39.218108      8.343245
  O       6.151566     36.947787      8.361673
  O       8.610149     41.594836      8.364555
  O       6.175154     38.503422      6.207827
  O       8.869181     39.993684      6.170350
  Si     11.461435     26.074675      7.791087
  Si     14.121452     24.540053      7.829156
  O      10.114105     25.365879      8.380723
  O      12.818525     25.376368      8.357709
  O      13.890959     23.007300      8.335769
  O      11.394409     25.833265      6.166581
  O      14.131157     24.648543      6.186108
  Si     11.531751     29.248664      7.775350
  Al     11.667478     35.422330      7.726428
  Si     14.294773     33.774309      7.789003
  Si     14.208628     30.724358      7.766742
  O      10.196434     30.009218      8.357377
  O      10.188866     34.599053      8.335758
  O      13.095234     34.619041      8.408906
  O      12.879529     29.947600      8.400366
  O      11.456567     27.665833      8.149774
  O      14.377741     32.211874      8.391232
  O      11.546371     29.459212      6.153710
  O      11.838443     35.015769      6.017435
  O      14.045045     33.560436      6.174125
  O      13.920383     30.861508      6.159811
  Si     11.632067     38.700726      7.752526
  Si     14.392566     40.065336      7.822932
  O      10.272993     39.461045      8.309785
  O      12.985657     39.432102      8.348175
  O      11.606398     37.137791      8.043173
  O      14.655551     41.596204      8.325338
  O      11.712634     39.055480      6.134002
  O      14.408416     39.942707      6.178640
  Si     16.853632     25.974727      7.851438
  O      15.502741     25.211953      8.372327
  O      18.101429     25.094461      8.420553
  O      16.781531     25.982593      6.206830
  Si     16.914000     29.049636      7.741650
  Si     17.079384     35.320724      7.757459
  Si     19.701004     33.721951      7.819341
  Si     19.549287     30.632640      7.822432
  O      15.504635     29.792384      8.061455
  O      15.769106     34.425595      8.079028
  O      18.393231     34.538459      8.358547
  O      18.157897     29.921332      8.305051
  O      16.873603     27.530337      8.350471
  O      19.685479     32.170356      8.349491
  O      17.117440     28.842886      6.120421
  O      17.357861     35.410671      6.135945
  O      19.601316     33.647132      6.178268
  O      19.498516     30.687833      6.175837
  Si     16.994281     38.387054      7.820769
  O      15.696408     39.222832      8.352882
  O      18.450738     38.950658      8.282345
  O      16.952311     36.831988      8.333785
  O      16.878702     38.335987      6.174421
  O      20.726047     29.637237      8.355855
  O      21.118262     34.347495      8.331951
  H       4.074657     24.986772      8.036591
  H       1.410409     29.602015      8.036749
  H       1.410409     35.007985      8.036749
  H       4.074657     39.623228      8.036591
  H       8.948181     22.173255      8.038302
  H       8.948181     42.436745      8.038302
  H      14.277762     22.173204      8.038282
  H      14.277762     42.436796      8.038282
  H      18.960557     24.876228      8.036406
  H      18.960557     39.733772      8.036406
  H      21.624717     29.491420      8.036583
  H      21.624717     35.118580      8.036583
  H      13.227762     34.074080      5.908744
  H      11.029483     34.764996      5.566172
  H       8.986284     32.869729      5.755122
  H       9.863351     30.391111      5.792212
  H      12.344299     29.942478      5.856896
  H      13.950437     31.814910      5.898313
  H      13.542352     39.671635      5.829096
  H      10.857178     39.268089      5.741765
  H       8.060663     39.616212      5.800958
  H       6.072571     37.613736      5.837534
  H       5.260123     35.005431      5.776252
  H       3.490354     32.894189      5.879853
  H       4.180619     30.266267      5.860535
  H       6.012992     28.250536      5.806685
  H       6.938832     25.684719      5.875857
  H       9.580323     24.959655      5.855828
  H      12.235113     25.549319      5.781004
  H      14.939481     25.061230      5.845264
  H      16.934859     26.866617      5.834449
  H      17.783364     29.433751      5.741286
  H      19.526534     31.595492      5.835401
  H      18.909427     34.231676      5.824332
  H      17.168618     36.287272      5.769336
  H      16.087876     38.793983      5.848796
  P      15.762542     37.501406     12.564363
  O      16.628884     33.840830     13.111865
  O      19.346534     32.558475     12.663434
  O      17.777355     31.216003     11.056536
  O      17.159134     36.687296     12.820308
  O      15.093315     30.474488     11.454068
  O      15.521444     38.295670     13.776416
  O      14.749907     36.539617     12.008405
  O      16.215137     38.438744     11.305972
  N      14.951331     32.701255     11.952047
  N      13.151600     31.554107     11.047589
  N      11.276973     32.609435     10.223498
  C      18.543768     33.352245     11.823363
  C      17.368749     32.531896     11.299317
  C      17.860866     34.433014     12.640946
  C      16.356499     32.672358     12.445929
  C      17.593197     35.727903     11.903660
  C      14.243141     33.851161     11.868613
  C      14.454887     31.511087     11.492431
  C      12.993369     33.879443     11.332446
  C      12.438067     32.692125     10.849822
  H      19.133141     33.775982     11.003313
  H      16.963883     33.002248     10.394766
  H      18.455169     34.653657     13.529573
  H      16.414802     31.801138     13.109046
  H      16.855310     35.572677     11.106993
  H      18.527918     36.061220     11.433570
  H      19.309575     31.667665     12.289893
  H      16.987734     30.656217     11.091468
  H      14.701741     34.804467     12.190480
  H      12.491644     34.828615     11.225935
  H      10.855143     33.449765      9.832444
  H      10.960326     31.740640      9.821831
  H      15.522056     38.383307     10.642053
  H      12.861752     30.699522     10.588034
161
Coordinates from ORCA-job cmp_prot_al_frame02_dry E -13345.545071416584
  Si      3.483587     33.862887      7.863270
  Si      3.477153     30.770035      7.892846
  O       2.264615     34.786391      8.425805
  O       2.217045     29.910055      8.470362
  O       3.387377     32.317277      8.401948
  O       3.492682     33.801640      6.218240
  O       3.497531     30.836631      6.247998
  Si      6.135795     26.153144      7.881950
  Si      8.783996     24.553791      7.875631
  O       4.735122     25.552753      8.452510
  O       7.433251     25.307415      8.400106
  O       8.725760     23.025477      8.439270
  O       6.179489     26.166817      6.235202
  O       8.754002     24.618214      6.231787
  Si      6.126287     29.221397      7.798345
  Si      6.133380     35.427099      7.777466
  Si      8.896589     33.876424      7.723848
  Si      8.880103     30.792383      7.730267
  O       4.867214     30.066672      8.397088
  O       4.865909     34.565616      8.354708
  O       7.510673     34.652809      8.126695
  O       7.517824     29.993886      8.117548
  O       6.214216     27.703331      8.386834
  O       8.805383     32.310473      8.290388
  O       5.839887     29.124469      6.181153
  O       5.917810     35.601478      6.154287
  O       8.976326     33.775639      6.088417
  O       9.063621     30.843804      6.104328
  Si      6.176237     38.507782      7.852748
  Si      8.850780     40.073461      7.819012
  O       4.911219     39.356874      8.445429
  O       7.556614     39.218082      8.343129
  O       6.151510     36.948246      8.360592
  O       8.609692     41.594943      8.364314
  O       6.175370     38.504618      6.207376
  O       8.870849     39.992589      6.170855
  Si     11.461721     26.074924      7.790799
  Si     14.121791     24.540162      7.828418
  O      10.114433     25.366239      8.380415
  O      12.819009     25.376823      8.356838
  O      13.890341     23.007411      8.334760
  O      11.394317     25.833525      6.166218
  O      14.132052     24.648472      6.185289
  Si     11.531567     29.248754      7.774896
  Al     11.667780     35.422941      7.726108
  Si     14.295226     33.775071      7.788970
  Si     14.208356     30.724966      7.766116
  O      10.195923     30.009093      8.357118
  O      10.188763     34.598843      8.334575
  O      13.095509     34.619236      8.407916
  O      12.879210     29.948002      8.399796
  O      11.456794     27.666073      8.149344
  O      14.377701     32.212237      8.390849
  O      11.546249     29.459107      6.153263
  O      11.838832     35.016921      6.017195
  O      14.047224     33.561783      6.173439
  O      13.919743     30.862590      6.159397
  Si     11.631927     38.700986      7.753764
  Si     14.392713     40.065456      7.824543
  O      10.273101     39.461349      8.311738
  O      12.986157     39.431463      8.349145
  O      11.604435     37.138198      8.043635
  O      14.654598     41.596440      8.327502
  O      11.713042     39.057154      6.135266
  O      14.408952     39.942643      6.180292
  Si     16.853920     25.974973      7.851507
  O      15.503092     25.211749      8.371839
  O      18.101932     25.095400      8.421180
  O      16.782648     25.982752      6.206668
  Si     16.913567     29.049830      7.741773
  Si     17.079250     35.320984      7.757999
  Si     19.701170     33.721787      7.819006
  Si     19.548288     30.632266      7.822234
  O      15.504191     29.792698      8.060797
  O      15.769238     34.426087      8.080270
  O      18.393747     34.538395      8.358743
  O      18.157147     29.921286      8.306598
  O      16.872631     27.530568      8.350681
  O      19.685317     32.169958      8.348934
  O      17.118268     28.843407      6.120700
  O      17.357547     35.410726      6.136598
  O      19.600801     33.646540      6.177756
  O      19.495325     30.687787      6.175530
  Si     16.994116     38.386786      7.821395
  O      15.696656     39.222930      8.354518
  O      18.451393     38.949858      8.280993
  O      16.952231     36.831972      8.334166
  O      16.877059     38.335156      6.175097
  O      20.725055     29.635859      8.353582
  O      21.118810     34.346738      8.330933
  H       4.074657     24.986772      8.036591
  H       1.410409     29.602015      8.036749
  H       1.410409     35.007985      8.036749
  H       4.074657     39.623228      8.036591
  H       8.948181     22.173255      8.038302
  H       8.948181     42.436745      8.038302
  H      14.277762     22.173204      8.038282
  H      14.277762     42.436796      8.038282
  H      18.960557     24.876228      8.036406
  H      18.960557     39.733772      8.036406
  H      21.624717     29.491420      8.036583
  H      21.624717     35.118580      8.036583
  H      13.229639     34.074980      5.908358
  H      11.029779     34.764941      5.566708
  H       8.986122     32.869606      5.753761
  H       9.862963     30.389750      5.791579
  H      12.344055     29.942614      5.856575
  H      13.950749     31.816094      5.898215
  H      13.542019     39.672439      5.831820
  H      10.857624     39.269518      5.742768
  H       8.062510     39.615643      5.800542
  H       6.072638     37.615062      5.836862
  H       5.259477     35.006284      5.775274
  H       3.489892     32.894511      5.879295
  H       4.178927     30.265489      5.860953
  H       6.011201     28.249734      5.806744
  H       6.938202     25.684417      5.875865
  H       9.580275     24.959717      5.855564
  H      12.235169     25.550039      5.780605
  H      14.940289     25.061841      5.844993
  H      16.936066     26.867045      5.834861
  H      17.784953     29.434437      5.742839
  H      19.522990     31.595803      5.835824
  H      18.909090     34.231337      5.823977
  H      17.167480     36.287295      5.770186
  H      16.086053     38.793655      5.850318
  P      15.753446     37.503040     12.554710
  O      16.627617     33.841388     13.115678
  O      19.347856     32.564186     12.670388
  O      17.782516     31.217149     11.064636
  O      17.147310     36.686846     12.819734
  O      15.094996     30.475690     11.453513
  O      15.504906     38.296566     13.765998
  O      14.744349     36.542552     11.990993
  O      16.218260     38.441033     11.301608
  N      14.952442     32.702578     11.950854
  N      13.152715     31.554815     11.047449
  N      11.277515     32.609912     10.223790
  C      18.544544     33.355771     11.829025
  C      17.371723     32.532809     11.303613
  C      17.858392     34.436278     12.644251
  C      16.356462     32.673637     12.447918
  C      17.587601     35.728834     11.904459
  C      14.243846     33.852100     11.867389
  C      14.456302     31.512008     11.492171
  C      12.993872     33.880359     11.331848
  C      12.438940     32.692635     10.849430
  H      19.133997     33.780450     11.009453
  H      16.967818     33.001399     10.397525
  H      18.450720     34.660080     13.533345
  H      16.412706     31.802305     13.111055
  H      16.851057     35.570148     11.107130
  H      18.521689     36.065508     11.435676
  H      19.309423     31.671965     12.300371
  H      16.993277     30.656558     11.095170
  H      14.702550     34.805547     12.187316
  H      12.493257     34.830081     11.225008
  H      10.857584     33.451413      9.833077
  H      10.961913     31.743086      9.816836
  H      15.530394     38.394549     10.631743
  H      12.861699     30.699493     10.590132
161
Coordinates from ORCA-job cmp_prot_al_frame02_dry E -13345.545088100898
  Si      3.483658     33.863069      7.863157
  Si      3.476765     30.770297      7.893285
  O       2.264489     34.786104      8.425910
  O       2.215852     29.911874      8.471294
  O       3.388254     32.317549      8.402193
  O       3.492283     33.801696      6.218131
  O       3.496864     30.836110      6.248441
  Si      6.135758     26.152888      7.882472
  Si      8.784166     24.553917      7.875801
  O       4.735746     25.551384      8.453390
  O       7.433514     25.307615      8.400473
  O       8.726375     23.025613      8.439270
  O       6.179126     26.166490      6.235728
  O       8.753838     24.618290      6.231947
  Si      6.125565     29.221168      7.798536
  Si      6.133277     35.427344      7.776410
  Si      8.896701     33.876354      7.722555
  Si      8.879593     30.792101      7.729563
  O       4.866834     30.066682      8.397523
  O       4.865985     34.565894      8.354378
  O       7.510923     34.653344      8.124804
  O       7.517468     29.993448      8.116952
  O       6.213745     27.703192      8.387277
  O       8.805429     32.310387      8.288854
  O       5.838222     29.123869      6.181517
  O       5.916870     35.601820      6.153350
  O       8.976318     33.775200      6.087104
  O       9.062701     30.842164      6.103596
  Si      6.176166     38.508128      7.852239
  Si      8.850988     40.073367      7.819111
  O       4.911752     39.358085      8.445166
  O       7.556598     39.217998      8.342894
  O       6.151224     36.948398      8.359651
  O       8.609234     41.594985      8.363923
  O       6.174918     38.505250      6.206934
  O       8.872095     39.991691      6.171087
  Si     11.461731     26.075283      7.790445
  Si     14.121832     24.540176      7.827842
  O      10.114498     25.366683      8.380269
  O      12.819229     25.377344      8.356104
  O      13.889593     23.007418      8.333828
  O      11.393975     25.833503      6.165864
  O      14.132584     24.648299      6.184724
  Si     11.531262     29.249188      7.774161
  Al     11.667834     35.423422      7.724423
  Si     14.295827     33.775725      7.787745
  Si     14.208257     30.725285      7.764734
  O      10.195743     30.009507      8.357085
  O      10.188769     34.598943      8.332636
  O      13.095469     34.619456      8.405607
  O      12.879172     29.948354      8.398637
  O      11.456697     27.666572      8.148412
  O      14.377786     32.212583      8.389286
  O      11.545389     29.459265      6.152386
  O      11.838992     35.017624      6.015606
  O      14.049693     33.562881      6.171636
  O      13.919439     30.863006      6.158137
  Si     11.631725     38.701295      7.753975
  Si     14.392688     40.065719      7.826216
  O      10.273069     39.461440      8.312937
  O      12.986119     39.431151      8.349774
  O      11.603039     37.138491      8.042820
  O      14.653789     41.596759      8.329715
  O      11.713314     39.059038      6.135808
  O      14.409451     39.943297      6.181969
  Si     16.853908     25.975030      7.851390
  O      15.503112     25.211600      8.371561
  O      18.101986     25.095717      8.421100
  O      16.782732     25.982832      6.206531
  Si     16.913462     29.049824      7.741654
  Si     17.079625     35.320942      7.758611
  Si     19.701431     33.721315      7.818684
  Si     19.547788     30.631979      7.822062
  O      15.503988     29.792883      8.059572
  O      15.769483     34.426383      8.081118
  O      18.394728     34.538091      8.359020
  O      18.156631     29.921324      8.307385
  O      16.872080     27.530554      8.350721
  O      19.684944     32.169576      8.348896
  O      17.119385     28.843455      6.120829
  O      17.357348     35.410732      6.137130
  O      19.600073     33.645525      6.177468
  O      19.493973     30.687616      6.175338
  Si     16.994131     38.386630      7.822182
  O      15.696523     39.222779      8.356059
  O      18.451876     38.949390      8.280263
  O      16.952353     36.831773      8.334456
  O      16.876632     38.335347      6.175765
  O      20.724489     29.635076      8.352325
  O      21.119612     34.345698      8.329585
  H       4.074657     24.986772      8.036591
  H       1.410409     29.602015      8.036749
  H       1.410409     35.007985      8.036749
  H       4.074657     39.623228      8.036591
  H       8.948181     22.173255      8.038302
  H       8.948181     42.436745      8.038302
  H      14.277762     22.173204      8.038282
  H      14.277762     42.436796      8.038282
  H      18.960557     24.876228      8.036406
  H      18.960557     39.733772      8.036406
  H      21.624717     29.491420      8.036583
  H      21.624717     35.118580      8.036583
  H      13.231815     34.075347      5.906695
  H      11.029969     34.764914      5.565462
  H       8.985619     32.869258      5.752319
  H       9.862804     30.389083      5.791302
  H      12.342387     29.943669      5.855198
  H      13.951981     31.816399      5.896797
  H      13.541926     39.674340      5.833753
  H      10.857829     39.270876      5.743131
  H       8.064155     39.614720      5.799972
  H       6.072162     37.615738      5.836347
  H       5.258295     35.006685      5.774666
  H       3.489571     32.894595      5.879158
  H       4.178311     30.264845      5.861611
  H       6.010134     28.249287      5.807023
  H       6.937919     25.684272      5.876293
  H       9.580064     24.959705      5.855530
  H      12.234787     25.550264      5.780024
  H      14.940659     25.062250      5.844712
  H      16.936445     26.867185      5.834935
  H      17.786668     29.434500      5.743836
  H      19.520655     31.595909      5.836145
  H      18.908435     34.230620      5.824053
  H      17.167465     36.287445      5.770875
  H      16.085572     38.793884      5.851054
  P      15.752093     37.504247     12.549602
  O      16.627239     33.841120     13.119443
  O      19.347599     32.564302     12.678420
  O      17.784974     31.216111     11.071835
  O      17.142719     36.684869     12.821454
  O      15.094738     30.477910     11.453037
  O      15.499008     38.297370     13.760280
  O      14.745120     36.545605     11.979510
  O      16.226717     38.442582     11.301073
  N      14.952812     32.704870     11.950092
  N      13.152987     31.557995     11.046311
  N      11.278453     32.613372     10.222486
  C      18.545603     33.355347     11.835409
  C      17.374179     32.532099     11.308134
  C      17.858152     34.436475     12.648384
  C      16.355741     32.674142     12.450383
  C      17.587354     35.728000     11.907188
  C      14.245368     33.854883     11.865481
  C      14.456496     31.514463     11.491485
  C      12.995498     33.884072     11.329605
  C      12.439968     32.696262     10.847798
  H      19.136432     33.780050     11.016692
  H      16.971566     32.999643     10.400771
  H      18.448745     34.662190     13.538134
  H      16.408872     31.802826     13.113726
  H      16.853148     35.568698     11.107778
  H      18.522465     36.065820     11.441183
  H      19.307654     31.671124     12.310929
  H      16.994739     30.656619     11.096982
  H      14.704606     34.808248     12.184011
  H      12.496366     34.834460     11.221665
  H      10.859344     33.454866      9.830802
  H      10.963941     31.747366      9.812767
  H      15.543383     38.402345     10.626307
  H      12.861311     30.702498     10.589757
161
Coordinates from ORCA-job cmp_prot_al_frame02_dry E -13345.545096068048
  Si      3.483303     33.862696      7.864002
  Si      3.476886     30.770011      7.894027
  O       2.263447     34.784537      8.427271
  O       2.215389     29.912296      8.471886
  O       3.389020     32.317190      8.403141
  O       3.491567     33.801557      6.218993
  O       3.497242     30.835662      6.249278
  Si      6.135881     26.152399      7.883337
  Si      8.784534     24.553987      7.876275
  O       4.736716     25.549359      8.454562
  O       7.433951     25.307601      8.401292
  O       8.727719     23.025709      8.439720
  O       6.179107     26.166188      6.236655
  O       8.753790     24.618273      6.232479
  Si      6.125463     29.220714      7.799394
  Si      6.132558     35.427249      7.776021
  Si      8.896278     33.876111      7.721485
  Si      8.879364     30.791732      7.729837
  O       4.866854     30.066306      8.398542
  O       4.865499     34.566009      8.355068
  O       7.510449     34.653222      8.123317
  O       7.517612     29.992661      8.117555
  O       6.213484     27.702781      8.388249
  O       8.805334     32.310373      8.288168
  O       5.837664     29.123386      6.182497
  O       5.915052     35.601838      6.153174
  O       8.975548     33.774422      6.086031
  O       9.061938     30.840349      6.103920
  Si      6.175824     38.508092      7.852025
  Si      8.850835     40.073224      7.819196
  O       4.912038     39.358958      8.445156
  O       7.556260     39.217875      8.342695
  O       6.150643     36.948327      8.359362
  O       8.608635     41.594985      8.363302
  O       6.174033     38.505118      6.206788
  O       8.872731     39.990825      6.171192
  Si     11.461796     26.075630      7.790156
  Si     14.121914     24.540197      7.827488
  O      10.114726     25.367090      8.380430
  O      12.819511     25.377908      8.355615
  O      13.889082     23.007449      8.333155
  O      11.393654     25.833432      6.165599
  O      14.133034     24.648143      6.184459
  Si     11.531077     29.249771      7.774025
  Al     11.667286     35.423657      7.722547
  Si     14.296191     33.776347      7.786221
  Si     14.208187     30.725542      7.763622
  O      10.196034     30.010234      8.358048
  O      10.188237     34.599362      8.330705
  O      13.094901     34.619616      8.403149
  O      12.879449     29.948608      8.398067
  O      11.456546     27.667065      8.147446
  O      14.377818     32.213093      8.387651
  O      11.544676     29.459761      6.152101
  O      11.838658     35.017725      6.013783
  O      14.051640     33.563835      6.169714
  O      13.918957     30.863281      6.157109
  Si     11.631239     38.701585      7.753655
  Si     14.392341     40.066101      7.827317
  O      10.272858     39.461600      8.313750
  O      12.985663     39.430921      8.349882
  O      11.601852     37.138654      8.041613
  O      14.652845     41.597003      8.331885
  O      11.713155     39.060554      6.135925
  O      14.409393     39.944881      6.182992
  Si     16.853799     25.975230      7.851295
  O      15.503148     25.211548      8.371607
  O      18.101950     25.096056      8.420768
  O      16.782287     25.983168      6.206564
  Si     16.913676     29.049962      7.741590
  Si     17.080093     35.320762      7.759268
  Si     19.701587     33.720816      7.818632
  Si     19.547782     30.631983      7.822236
  O      15.504035     29.793228      8.058387
  O      15.769537     34.426779      8.082053
  O      18.395727     34.538003      8.359353
  O      18.156372     29.921712      8.308033
  O      16.871898     27.530683      8.350871
  O      19.684503     32.169426      8.349570
  O      17.120596     28.843514      6.121027
  O      17.356868     35.410314      6.137583
  O      19.599283     33.644250      6.177561
  O      19.494019     30.687474      6.175579
  Si     16.994140     38.386770      7.822432
  O      15.696169     39.222689      8.356814
  O      18.452041     38.949219      8.279866
  O      16.952400     36.831724      8.334437
  O      16.876817     38.336520      6.175904
  O      20.724438     29.635082      8.352220
  O      21.120396     34.344687      8.328232
  H       4.074657     24.986772      8.036591
  H       1.410409     29.602015      8.036749
  H       1.410409     35.007985      8.036749
  H       4.074657     39.623228      8.036591
  H       8.948181     22.173255      8.038302
  H       8.948181     42.436745      8.038302
  H      14.277762     22.173204      8.038282
  H      14.277762     42.436796      8.038282
  H      18.960557     24.876228      8.036406
  H      18.960557     39.733772      8.036406
  H      21.624717     29.491420      8.036583
  H      21.624717     35.118580      8.036583
  H      13.233691     34.075845      5.904769
  H      11.029837     34.764789      5.563428
  H       8.984315     32.868516      5.751274
  H       9.862515     30.387815      5.791905
  H      12.341803     29.943225      5.854054
  H      13.952295     31.816445      5.895476
  H      13.541849     39.676424      5.834375
  H      10.857562     39.271768      5.743125
  H       8.064831     39.614307      5.799592
  H       6.070957     37.615577      5.836361
  H       5.256234     35.006640      5.774981
  H       3.489171     32.894523      5.879851
  H       4.178776     30.264377      5.862576
  H       6.010154     28.249095      5.807613
  H       6.937788     25.683853      5.877124
  H       9.579928     24.959537      5.855727
  H      12.234262     25.550318      5.779312
  H      14.940828     25.062676      5.844492
  H      16.936646     26.867328      5.834792
  H      17.788268     29.434398      5.744407
  H      19.519841     31.595889      5.836547
  H      18.907916     34.229679      5.824229
  H      17.167528     36.286997      5.771074
  H      16.085534     38.794468      5.850918
  P      15.748434     37.505378     12.547330
  O      16.627059     33.841303     13.122578
  O      19.347373     32.566996     12.681923
  O      17.786593     31.216961     11.075668
  O      17.136932     36.684192     12.823273
  O      15.095169     30.480354     11.450956
  O      15.491964     38.297697     13.757773
  O      14.743489     36.547696     11.972211
  O      16.229674     38.444891     11.302977
  N      14.952919     32.706660     11.950608
  N      13.153358     31.561001     11.045197
  N      11.278966     32.616950     10.222503
  C      18.545117     33.357113     11.838226
  C      17.374890     32.532841     11.310824
  C      17.856888     34.438146     12.650329
  C      16.355356     32.674936     12.452737
  C      17.584260     35.728928     11.908835
  C      14.246288     33.857031     11.865875
  C      14.456758     31.516773     11.490653
  C      12.996598     33.887188     11.329589
  C      12.440636     32.699698     10.847471
  H      19.136141     33.782150     11.019725
  H      16.970964     32.998769     10.403142
  H      18.447015     34.666065     13.539825
  H      16.406913     31.803510     13.115942
  H      16.851552     35.569344     11.108112
  H      18.519716     36.068113     11.444315
  H      19.307434     31.673243     12.315934
  H      16.995792     30.658033     11.096805
  H      14.705579     34.810155     12.184522
  H      12.498155     34.837919     11.221491
  H      10.859736     33.458100      9.830086
  H      10.965613     31.751317      9.811082
  H      15.551007     38.407532     10.623564
  H      12.861774     30.705900     10.587779
161
Coordinates from ORCA-job cmp_prot_al_frame02_dry E -13345.545104800884
  Si      3.482773     33.862187      7.865168
  Si      3.477292     30.769541      7.894596
  O       2.262079     34.782608      8.429155
  O       2.215559     29.911753      8.471968
  O       3.389560     32.316598      8.404120
  O       3.490669     33.801482      6.220162
  O       3.498098     30.835506      6.249961
  Si      6.135990     26.151980      7.884048
  Si      8.784846     24.554020      7.876662
  O       4.737502     25.547697      8.455563
  O       7.434323     25.307514      8.401992
  O       8.729220     23.025800      8.440302
  O       6.179179     26.165934      6.237433
  O       8.753628     24.618113      6.232938
  Si      6.125803     29.220367      7.800153
  Si      6.131653     35.427028      7.775818
  Si      8.895688     33.875908      7.720251
  Si      8.879338     30.791538      7.729994
  O       4.867125     30.065853      8.399390
  O       4.864856     34.566022      8.356034
  O       7.509686     34.652775      8.121907
  O       7.518051     29.992030      8.118411
  O       6.213506     27.702425      8.389024
  O       8.805204     32.310536      8.287546
  O       5.837874     29.123148      6.183334
  O       5.912928     35.601676      6.153230
  O       8.974563     33.773754      6.084824
  O       9.061230     30.839045      6.104118
  Si      6.175313     38.507856      7.851891
  Si      8.850581     40.073065      7.819260
  O       4.912145     39.359498      8.445279
  O       7.555786     39.217727      8.342296
  O       6.150053     36.948160      8.359311
  O       8.607924     41.594973      8.362563
  O       6.172645     38.504601      6.206713
  O       8.873148     39.990254      6.171185
  Si     11.461841     26.075833      7.789590
  Si     14.121949     24.540118      7.827299
  O      10.114934     25.367445      8.380442
  O      12.819696     25.378358      8.355143
  O      13.888781     23.007432      8.332802
  O      11.393453     25.832899      6.165112
  O      14.133432     24.647785      6.184373
  Si     11.530878     29.250383      7.773443
  Al     11.666638     35.423572      7.720864
  Si     14.296453     33.776558      7.784961
  Si     14.208306     30.725461      7.762513
  O      10.196537     30.011105      8.358476
  O      10.187606     34.599790      8.328851
  O      13.094138     34.619423      8.401086
  O      12.879789     29.948678      8.397125
  O      11.456252     27.667477      8.145929
  O      14.377835     32.213272      8.386088
  O      11.543855     29.460728      6.151417
  O      11.838519     35.017514      6.012143
  O      14.053192     33.564340      6.168225
  O      13.919080     30.862972      6.155927
  Si     11.630790     38.701725      7.753297
  Si     14.391803     40.066616      7.827804
  O      10.272592     39.461688      8.314288
  O      12.985124     39.430875      8.349770
  O      11.601257     37.138564      8.040542
  O      14.652012     41.597205      8.333732
  O      11.712703     39.061439      6.135985
  O      14.408822     39.947222      6.183321
  Si     16.853566     25.975380      7.851222
  O      15.503037     25.211595      8.371829
  O      18.101700     25.096022      8.420118
  O      16.781345     25.983626      6.206668
  Si     16.914198     29.050049      7.741670
  Si     17.080188     35.320649      7.759407
  Si     19.701354     33.720591      7.818878
  Si     19.548160     30.632309      7.823012
  O      15.504310     29.793391      8.057354
  O      15.769444     34.426997      8.083131
  O      18.396179     34.538473      8.359511
  O      18.156414     29.922198      8.308577
  O      16.872109     27.530744      8.351081
  O      19.683757     32.169681      8.350955
  O      17.121977     28.843383      6.121313
  O      17.356084     35.409428      6.137435
  O      19.598351     33.642988      6.177986
  O      19.495297     30.687514      6.176434
  Si     16.994120     38.387233      7.821827
  O      15.695692     39.222596      8.356609
  O      18.451870     38.949301      8.279635
  O      16.952167     36.831982      8.333547
  O      16.877376     38.338377      6.175190
  O      20.724948     29.635923      8.353402
  O      21.120833     34.344026      8.327177
  H       4.074657     24.986772      8.036591
  H       1.410409     29.602015      8.036749
  H       1.410409     35.007985      8.036749
  H       4.074657     39.623228      8.036591
  H       8.948181     22.173255      8.038302
  H       8.948181     42.436745      8.038302
  H      14.277762     22.173204      8.038282
  H      14.277762     42.436796      8.038282
  H      18.960557     24.876228      8.036406
  H      18.960557     39.733772      8.036406
  H      21.624717     29.491420      8.036583
  H      21.624717     35.118580      8.036583
  H      13.235300     34.076007      5.903080
  H      11.029969     34.765150      5.561036
  H       8.982870     32.867832      5.750184
  H       9.862487     30.387551      5.792176
  H      12.340623     29.944288      5.852742
  H      13.953341     31.815779      5.893684
  H      13.541607     39.678728      5.834062
  H      10.856879     39.271761      5.743177
  H       8.065190     39.614340      5.799204
  H       6.069569     37.614951      5.836519
  H       5.253719     35.006458      5.775672
  H       3.488631     32.894490      5.880856
  H       4.179730     30.264270      5.863309
  H       6.010728     28.249140      5.808007
  H       6.937694     25.683304      5.877912
  H       9.579701     24.959167      5.855840
  H      12.233798     25.549651      5.778459
  H      14.941012     25.062716      5.844385
  H      16.936529     26.867501      5.834614
  H      17.789720     29.434145      5.744687
  H      19.520172     31.595956      5.837334
  H      18.906925     34.228306      5.824572
  H      17.167387     36.285932      5.770312
  H      16.086057     38.795835      5.849798
  P      15.750071     37.506474     12.545720
  O      16.627536     33.841105     13.124125
  O      19.346921     32.566378     12.685369
  O      17.787236     31.216727     11.078124
  O      17.136642     36.683507     12.825274
  O      15.094828     30.483319     11.448468
  O      15.490401     38.297729     13.755999
  O      14.746771     36.549560     11.966170
  O      16.236017     38.447432     11.304746
  N      14.952855     32.709161     11.949975
  N      13.153372     31.564694     11.043092
  N      11.278988     32.620638     10.221641
  C      18.545736     33.356697     11.840742
  C      17.375946     32.532971     11.312453
  C      17.857415     34.437905     12.652234
  C      16.354962     32.675535     12.453489
  C      17.585325     35.728954     11.911001
  C      14.247245     33.860046     11.864711
  C      14.456567     31.519856     11.488557
  C      12.997705     33.890948     11.327849
  C      12.441003     32.703740     10.845997
  H      19.137870     33.781401     11.022827
  H      16.973297     32.998439     10.403981
  H      18.447079     34.666457     13.541898
  H      16.404482     31.803789     13.116340
  H      16.854310     35.570117     11.108617
  H      18.521793     36.067971     11.448114
  H      19.307430     31.672649     12.319310
  H      16.995352     30.659206     11.095328
  H      14.706665     34.813011     12.183406
  H      12.499685     34.841851     11.219271
  H      10.858678     33.460803      9.828282
  H      10.967023     31.754397      9.810387
  H      15.561386     38.410614     10.621314
  H      12.862089     30.710081     10.584495
161
Coordinates from ORCA-job cmp_prot_al_frame02_dry E -13345.545115626135
  Si      3.482050     33.861465      7.866822
  Si      3.477896     30.768825      7.895174
  O       2.260174     34.779920      8.431735
  O       2.216044     29.910639      8.471885
  O       3.390019     32.315710      8.405296
  O       3.489626     33.801492      6.221782
  O       3.499149     30.835455      6.250629
  Si      6.136384     26.151279      7.884649
  Si      8.785476     24.553961      7.877061
  O       4.738817     25.545338      8.456610
  O       7.435049     25.307312      8.402679
  O       8.731035     23.025862      8.441090
  O       6.179550     26.165500      6.238076
  O       8.753748     24.617792      6.233379
  Si      6.126448     29.219804      7.800997
  Si      6.130502     35.426712      7.776303
  Si      8.894794     33.875563      7.719607
  Si      8.879508     30.791230      7.730700
  O       4.867513     30.065035      8.400218
  O       4.863844     34.566136      8.357601
  O       7.508452     34.651855      8.121246
  O       7.518696     29.991134      8.119855
  O       6.213579     27.701759      8.389689
  O       8.804767     32.310517      8.287740
  O       5.838794     29.123073      6.184159
  O       5.910711     35.601369      6.153933
  O       8.973220     33.773050      6.084196
  O       9.060843     30.838061      6.104886
  Si      6.174815     38.507513      7.852046
  Si      8.850193     40.072907      7.819197
  O       4.912090     39.359774      8.445545
  O       7.555317     39.217630      8.341946
  O       6.149559     36.947961      8.359807
  O       8.607004     41.594956      8.361555
  O       6.171352     38.503726      6.206877
  O       8.873014     39.989607      6.170972
  Si     11.462152     26.075838      7.789040
  Si     14.122218     24.540139      7.827165
  O      10.115510     25.367555      8.380531
  O      12.820127     25.378768      8.354804
  O      13.888958     23.007539      8.332740
  O      11.393540     25.832214      6.164663
  O      14.133943     24.647558      6.184323
  Si     11.530885     29.250786      7.773314
  Al     11.665632     35.423277      7.719924
  Si     14.296349     33.776813      7.783512
  Si     14.208406     30.725451      7.761551
  O      10.197254     30.011658      8.359384
  O      10.186724     34.600005      8.327728
  O      13.093284     34.619143      8.399496
  O      12.880297     29.948700      8.396667
  O      11.456111     27.667597      8.144493
  O      14.377834     32.213582      8.384479
  O      11.543504     29.461749      6.151324
  O      11.837857     35.017026      6.011127
  O      14.053472     33.564869      6.166791
  O      13.918891     30.862780      6.154882
  Si     11.630233     38.701805      7.753008
  Si     14.391084     40.067052      7.827790
  O      10.272253     39.461959      8.314534
  O      12.984453     39.430918      8.349504
  O      11.600801     37.138423      8.039742
  O      14.651239     41.597298      8.335038
  O      11.711962     39.061818      6.135978
  O      14.407883     39.949295      6.183179
  Si     16.853420     25.975794      7.851074
  O      15.503173     25.211742      8.372051
  O      18.101633     25.096474      8.419591
  O      16.780452     25.984259      6.206682
  Si     16.914906     29.050366      7.741439
  Si     17.080086     35.320704      7.759052
  Si     19.700949     33.720571      7.819197
  Si     19.548849     30.632924      7.823946
  O      15.504742     29.793748      8.056135
  O      15.769075     34.427474      8.083475
  O      18.396196     34.539365      8.359331
  O      18.156566     29.923048      8.308826
  O      16.872484     27.531144      8.351122
  O      19.683099     32.170219      8.352584
  O      17.123485     28.843267      6.121259
  O      17.355629     35.408450      6.136879
  O      19.597702     33.641820      6.178415
  O      19.497434     30.687809      6.177468
  Si     16.993955     38.387995      7.820573
  O      15.695274     39.222699      8.355931
  O      18.451498     38.949468      8.279359
  O      16.951728     36.832532      8.332116
  O      16.877633     38.340711      6.174011
  O      20.725829     29.637338      8.355343
  O      21.120949     34.343699      8.326449
  H       4.074657     24.986772      8.036591
  H       1.410409     29.602015      8.036749
  H       1.410409     35.007985      8.036749
  H       4.074657     39.623228      8.036591
  H       8.948181     22.173255      8.038302
  H       8.948181     42.436745      8.038302
  H      14.277762     22.173204      8.038282
  H      14.277762     42.436796      8.038282
  H      18.960557     24.876228      8.036406
  H      18.960557     39.733772      8.036406
  H      21.624717     29.491420      8.036583
  H      21.624717     35.118580      8.036583
  H      13.235568     34.076404      5.901625
  H      11.029647     34.765696      5.558920
  H       8.981422     32.867126      5.749632
  H       9.862413     30.387162      5.792804
  H      12.340604     29.944516      5.852267
  H      13.953213     31.815329      5.892182
  H      13.541288     39.679996      5.833225
  H      10.855924     39.271232      5.743113
  H       8.064809     39.614068      5.799186
  H       6.068026     37.613945      5.837044
  H       5.251159     35.006167      5.776905
  H       3.487963     32.894566      5.882259
  H       4.180932     30.264437      5.863913
  H       6.011949     28.249414      5.808230
  H       6.937807     25.682377      5.878645
  H       9.579780     24.958577      5.855953
  H      12.233682     25.548892      5.777704
  H      14.941267     25.063006      5.844350
  H      16.936328     26.867812      5.834206
  H      17.791055     29.433933      5.744308
  H      19.521828     31.596243      5.838207
  H      18.906357     34.226899      5.824478
  H      17.166911     36.284366      5.768734
  H      16.086126     38.797653      5.848583
  P      15.748563     37.508092     12.543392
  O      16.629336     33.842025     13.123350
  O      19.348944     32.570186     12.680401
  O      17.788312     31.218337     11.076308
  O      17.134414     36.684404     12.824069
  O      15.096199     30.484417     11.446958
  O      15.485891     38.296440     13.754809
  O      14.746811     36.552041     11.959314
  O      16.237242     38.452709     11.306537
  N      14.953917     32.709894     11.949899
  N      13.154393     31.565567     11.042626
  N      11.279426     32.621354     10.222164
  C      18.545627     33.359446     11.836593
  C      17.375714     32.534319     11.310680
  C      17.857741     34.440042     12.649302
  C      16.356447     32.676562     12.452990
  C      17.583602     35.731136     11.908824
  C      14.248379     33.860765     11.864306
  C      14.457584     31.520764     11.487750
  C      12.998856     33.891689     11.327397
  C      12.441814     32.704657     10.845981
  H      19.136271     33.784299     11.017712
  H      16.970271     32.998193     10.402760
  H      18.448707     34.669347     13.537916
  H      16.406458     31.804660     13.115553
  H      16.852762     35.572175     11.106348
  H      18.519704     36.071167     11.445761
  H      19.310828     31.676539     12.314076
  H      16.996662     30.660480     11.092964
  H      14.707619     34.813973     12.182428
  H      12.500689     34.842484     11.218469
  H      10.858057     33.460629      9.828173
  H      10.968609     31.754310      9.811930
  H      15.567238     38.414815     10.618710
  H      12.863609     30.711250     10.583056
161
Coordinates from ORCA-job cmp_prot_al_frame02_dry E -13345.545122788915
  Si      3.481069     33.860543      7.868579
  Si      3.478797     30.767862      7.895187
  O       2.257625     34.776154      8.435008
  O       2.217517     29.908092      8.470938
  O       3.390439     32.314460      8.406176
  O       3.488084     33.801809      6.223455
  O       3.500364     30.835860      6.250703
  Si      6.136928     26.150325      7.885100
  Si      8.786302     24.553850      7.877577
  O       4.740370     25.542635      8.457717
  O       7.435985     25.307048      8.403407
  O       8.733502     23.025922      8.442238
  O       6.179975     26.164506      6.238547
  O       8.753891     24.617218      6.233895
  Si      6.127371     29.219039      7.801148
  Si      6.129069     35.426323      7.776761
  Si      8.893652     33.875166      7.718704
  Si      8.879801     30.790923      7.730522
  O       4.868291     30.064155      8.400288
  O       4.862483     34.566290      8.359128
  O       7.506776     34.650527      8.120279
  O       7.519621     29.990073      8.120613
  O       6.213730     27.700927      8.389814
  O       8.804357     32.310385      8.287429
  O       5.840147     29.122696      6.184263
  O       5.908045     35.601151      6.154631
  O       8.971903     33.772472      6.083346
  O       9.060664     30.837475      6.104713
  Si      6.174476     38.507043      7.852514
  Si      8.849787     40.072571      7.819453
  O       4.911800     39.359419      8.445899
  O       7.554914     39.217380      8.342220
  O       6.149259     36.947584      8.360451
  O       8.606107     41.594911      8.360560
  O       6.170845     38.502943      6.207324
  O       8.872527     39.988562      6.171127
  Si     11.462655     26.075730      7.788495
  Si     14.122568     24.540141      7.827300
  O      10.116221     25.367786      8.380666
  O      12.820645     25.379142      8.354757
  O      13.889240     23.007617      8.332848
  O      11.394029     25.831048      6.164280
  O      14.134623     24.647263      6.184509
  Si     11.531117     29.251196      7.772575
  Al     11.664661     35.422718      7.719964
  Si     14.296169     33.776738      7.784098
  Si     14.208806     30.725350      7.761456
  O      10.198070     30.012257      8.359105
  O      10.185384     34.600301      8.326909
  O      13.092180     34.618426      8.399605
  O      12.880764     29.948633      8.396100
  O      11.456033     27.667732      8.142611
  O      14.377774     32.213497      8.384408
  O      11.543796     29.463124      6.150687
  O      11.837992     35.016547      6.011188
  O      14.054121     33.565477      6.167329
  O      13.919594     30.862804      6.154600
  Si     11.629771     38.701727      7.753394
  Si     14.390320     40.067424      7.827740
  O      10.271840     39.461998      8.315281
  O      12.983998     39.430885      8.349631
  O      11.600778     37.138074      8.039811
  O      14.650490     41.597325      8.336155
  O      11.711010     39.061729      6.136501
  O      14.406615     39.951418      6.182984
  Si     16.853266     25.976140      7.851206
  O      15.503281     25.211973      8.372612
  O      18.101461     25.096526      8.419011
  O      16.779360     25.985036      6.206920
  Si     16.915797     29.050630      7.741824
  Si     17.079267     35.320978      7.759180
  Si     19.700091     33.720847      7.819969
  Si     19.549688     30.633688      7.825571
  O      15.505316     29.793863      8.055597
  O      15.768496     34.427883      8.085631
  O      18.395514     34.540677      8.359536
  O      18.156916     29.923925      8.309565
  O      16.873151     27.531455      8.351562
  O      19.682350     32.171011      8.354856
  O      17.125022     28.843181      6.121710
  O      17.354145     35.407040      6.136725
  O      19.596409     33.640869      6.179261
  O      19.500089     30.688338      6.179169
  Si     16.993634     38.388874      7.819177
  O      15.694925     39.222869      8.355015
  O      18.451001     38.949731      8.279182
  O      16.951074     36.833427      8.330940
  O      16.877399     38.342547      6.172782
  O      20.727031     29.639039      8.358085
  O      21.120653     34.343763      8.325986
  H       4.074657     24.986772      8.036591
  H       1.410409     29.602015      8.036749
  H       1.410409     35.007985      8.036749
  H       4.074657     39.623228      8.036591
  H       8.948181     22.173255      8.038302
  H       8.948181     42.436745      8.038302
  H      14.277762     22.173204      8.038282
  H      14.277762     42.436796      8.038282
  H      18.960557     24.876228      8.036406
  H      18.960557     39.733772      8.036406
  H      21.624717     29.491420      8.036583
  H      21.624717     35.118580      8.036583
  H      13.236344     34.076963      5.901775
  H      11.030295     34.766917      5.557229
  H       8.980517     32.866491      5.748968
  H       9.862592     30.387217      5.792485
  H      12.341233     29.945564      5.851888
  H      13.953790     31.815143      5.891689
  H      13.540547     39.681280      5.832586
  H      10.854766     39.270461      5.743713
  H       8.063957     39.613431      5.799740
  H       6.066991     37.613177      5.837582
  H       5.247924     35.006174      5.778160
  H       3.486735     32.895022      5.883478
  H       4.182011     30.264965      5.863604
  H       6.013333     28.249252      5.807929
  H       6.937984     25.680877      5.879231
  H       9.579940     24.957532      5.856075
  H      12.234034     25.547463      5.777268
  H      14.941669     25.063346      5.844618
  H      16.936097     26.868291      5.834156
  H      17.792251     29.433793      5.744283
  H      19.523581     31.596745      5.839703
  H      18.904821     34.225382      5.824882
  H      17.165040     36.282230      5.767289
  H      16.085839     38.799448      5.847537
  P      15.745390     37.508924     12.541905
  O      16.627937     33.842864     13.123316
  O      19.348265     32.572832     12.681634
  O      17.788955     31.220314     11.076904
  O      17.131006     36.685656     12.825956
  O      15.096296     30.486570     11.444505
  O      15.477763     38.295377     13.753328
  O      14.746338     36.552212     11.953733
  O      16.236496     38.455771     11.307493
  N      14.952986     32.711668     11.948751
  N      13.153946     31.566788     11.040929
  N      11.277953     32.621425     10.221700
  C      18.545051     33.361835     11.837394
  C      17.375581     32.536288     11.310734
  C      17.856118     34.441621     12.650424
  C      16.355479     32.677966     12.452051
  C      17.581684     35.733150     11.910673
  C      14.247055     33.862295     11.863233
  C      14.457093     31.522567     11.485710
  C      12.997467     33.892625     11.326310
  C      12.440701     32.705527     10.844957
  H      19.135995     33.786737     11.018850
  H      16.972510     33.000113     10.401741
  H      18.446788     34.670482     13.539364
  H      16.404994     31.805542     13.113956
  H      16.851552     35.573709     11.107659
  H      18.517721     36.074014     11.448022
  H      19.312359     31.679737     12.313695
  H      16.997394     30.662364     11.092098
  H      14.705873     34.815705     12.181371
  H      12.498672     34.843094     11.217429
  H      10.855524     33.460063      9.827476
  H      10.968638     31.753465      9.812202
  H      15.570732     38.414341     10.615687
  H      12.863717     30.712625     10.580732
161
Coordinates from ORCA-job cmp_prot_al_frame02_dry E -13345.545132236346
  Si      3.480409     33.859964      7.869658
  Si      3.479408     30.767203      7.894902
  O       2.255849     34.773498      8.437247
  O       2.218741     29.906105      8.470040
  O       3.390573     32.313584      8.406436
  O       3.486986     33.802232      6.224423
  O       3.500988     30.836289      6.250391
  Si      6.137462     26.149549      7.885088
  Si      8.787027     24.553712      7.877856
  O       4.741584     25.540768      8.458245
  O       7.436786     25.306825      8.403682
  O       8.735165     23.025933      8.443067
  O       6.180424     26.163502      6.238499
  O       8.754161     24.616685      6.234102
  Si      6.128081     29.218456      7.800894
  Si      6.128266     35.426050      7.777381
  Si      8.892967     33.874907      7.718722
  Si      8.880057     30.790791      7.730472
  O       4.868816     30.063443      8.399834
  O       4.861499     34.566469      8.360108
  O       7.505642     34.649487      8.120308
  O       7.520224     29.989397      8.121128
  O       6.213852     27.700237      8.389402
  O       8.804005     32.310123      8.287765
  O       5.841424     29.122514      6.183900
  O       5.906756     35.600935      6.155317
  O       8.970988     33.772319      6.083408
  O       9.060739     30.837780      6.104640
  Si      6.174441     38.506719      7.852913
  Si      8.849585     40.072305      7.819332
  O       4.911481     39.358762      8.446089
  O       7.554818     39.217244      8.342452
  O       6.149369     36.947318      8.361017
  O       8.605411     41.594850      8.359635
  O       6.170947     38.502471      6.207658
  O       8.871968     39.987644      6.170928
  Si     11.463174     26.075524      7.788087
  Si     14.122919     24.540255      7.827303
  O      10.116905     25.367806      8.380695
  O      12.821140     25.379369      8.354749
  O      13.889743     23.007777      8.333056
  O      11.394616     25.830003      6.164027
  O      14.135140     24.647158      6.184473
  Si     11.531452     29.251268      7.771973
  Al     11.664063     35.422253      7.720664
  Si     14.295904     33.776777      7.784619
  Si     14.209156     30.725397      7.761296
  O      10.198583     30.012182      8.358722
  O      10.184703     34.600106      8.327151
  O      13.091636     34.617920      8.400217
  O      12.881137     29.948569      8.395663
  O      11.456158     27.667651      8.141241
  O      14.377845     32.213428      8.384385
  O      11.544240     29.464008      6.150271
  O      11.838009     35.016184      6.011854
  O      14.053917     33.566085      6.167906
  O      13.920038     30.863146      6.154338
  Si     11.629631     38.701565      7.753855
  Si     14.389866     40.067413      7.828062
  O      10.271592     39.462004      8.315403
  O      12.983700     39.430938      8.350129
  O      11.601025     37.137830      8.040061
  O      14.650210     41.597324      8.336456
  O      11.710586     39.061477      6.136894
  O      14.406033     39.951572      6.183335
  Si     16.853260     25.976432      7.851063
  O      15.503495     25.212219      8.372723
  O      18.101404     25.096703      8.418666
  O      16.778857     25.985480      6.206762
  Si     16.916426     29.050825      7.741552
  Si     17.078594     35.321293      7.759203
  Si     19.699535     33.721111      7.820335
  Si     19.550356     30.634217      7.826431
  O      15.505772     29.793950      8.054820
  O      15.767989     34.428312      8.086613
  O      18.394827     34.541540      8.359517
  O      18.157176     29.924546      8.309405
  O      16.873669     27.531781      8.351424
  O      19.682030     32.171577      8.356083
  O      17.126087     28.842945      6.121465
  O      17.353567     35.406299      6.136658
  O      19.595727     33.640541      6.179586
  O      19.502417     30.688853      6.180047
  Si     16.993313     38.389440      7.818474
  O      15.694841     39.223013      8.355009
  O      18.450710     38.949876      8.279104
  O      16.950701     36.834070      8.330281
  O      16.876602     38.343470      6.172345
  O      20.727968     29.640307      8.360146
  O      21.120255     34.344018      8.325909
  H       4.074657     24.986772      8.036591
  H       1.410409     29.602015      8.036749
  H       1.410409     35.007985      8.036749
  H       4.074657     39.623228      8.036591
  H       8.948181     22.173255      8.038302
  H       8.948181     42.436745      8.038302
  H      14.277762     22.173204      8.038282
  H      14.277762     42.436796      8.038282
  H      18.960557     24.876228      8.036406
  H      18.960557     39.733772      8.036406
  H      21.624717     29.491420      8.036583
  H      21.624717     35.118580      8.036583
  H      13.235908     34.077331      5.902312
  H      11.030682     34.768004      5.556532
  H       8.980542     32.866307      5.749105
  H       9.862717     30.387837      5.792137
  H      12.341544     29.947194      5.852086
  H      13.954154     31.815549      5.891603
  H      13.540114     39.681027      5.832927
  H      10.854281     39.269913      5.744043
  H       8.063440     39.611614      5.800280
  H       6.066595     37.612747      5.837948
  H       5.246334     35.006171      5.779035
  H       3.485812     32.895547      5.884142
  H       4.182526     30.265547      5.862954
  H       6.014497     28.249141      5.807406
  H       6.938382     25.679604      5.879406
  H       9.580285     24.956584      5.856077
  H      12.234700     25.546258      5.777255
  H      14.942103     25.063632      5.844784
  H      16.936051     26.868613      5.833912
  H      17.793009     29.433597      5.743686
  H      19.525340     31.597323      5.840598
  H      18.903873     34.224582      5.824931
  H      17.163457     36.280780      5.766281
  H      16.085024     38.800772      5.847725
  P      15.744832     37.509419     12.539767
  O      16.628443     33.843568     13.122136
  O      19.349812     32.574212     12.678710
  O      17.789458     31.220459     11.076304
  O      17.130252     36.685730     12.825344
  O      15.096907     30.485284     11.446699
  O      15.474225     38.293231     13.752281
  O      14.746993     36.553624     11.947876
  O      16.237946     38.459052     11.308000
  N      14.953604     32.710934     11.948694
  N      13.154505     31.564896     11.042045
  N      11.278331     32.618672     10.221541
  C      18.545303     33.362699     11.835172
  C      17.375403     32.536323     11.309811
  C      17.856671     34.442154     12.649171
  C      16.356315     32.678210     12.451455
  C      17.582248     35.733947     11.909824
  C      14.247306     33.861290     11.862131
  C      14.457706     31.521312     11.486800
  C      12.997624     33.890845     11.325413
  C      12.441061     32.703369     10.844976
  H      19.135083     33.787598     11.015854
  H      16.971426     32.999497     10.400955
  H      18.447958     34.669912     13.537982
  H      16.406689     31.805960     13.113606
  H      16.852352     35.574048     11.106682
  H      18.518154     36.075759     11.447703
  H      19.314898     31.681340     12.310144
  H      16.998574     30.661648     11.093244
  H      14.706121     34.815276     12.178548
  H      12.498741     34.841168     11.215603
  H      10.855958     33.457042      9.826829
  H      10.969675     31.750004      9.813090
  H      15.575752     38.415180     10.612846
  H      12.864411     30.710316     10.582565
161
Coordinates from ORCA-job cmp_prot_al_frame02_dry E -13345.545135206074
  Si      3.479542     33.859120      7.870599
  Si      3.480215     30.766263      7.894144
  O       2.253580     34.769815      8.439825
  O       2.220784     29.902869      8.468465
  O       3.390715     32.312341      8.406348
  O       3.485489     33.802797      6.225230
  O       3.501670     30.836902      6.249579
  Si      6.138185     26.148376      7.885098
  Si      8.788060     24.553508      7.878411
  O       4.743215     25.538195      8.458988
  O       7.437870     25.306524      8.404147
  O       8.737491     23.025907      8.444286
  O       6.180883     26.161757      6.238464
  O       8.754704     24.615891      6.234546
  Si      6.128865     29.217491      7.800059
  Si      6.127338     35.425632      7.777945
  Si      8.892158     33.874531      7.718887
  Si      8.880324     30.790533      7.729920
  O       4.869669     30.062661      8.398739
  O       4.860211     34.566620      8.360816
  O       7.504278     34.648153      8.120359
  O       7.520955     29.988372      8.120932
  O       6.213870     27.699260      8.388621
  O       8.803726     32.309561      8.287900
  O       5.842841     29.121734      6.182949
  O       5.905426     35.600727      6.155906
  O       8.970111     33.772214      6.083626
  O       9.061090     30.838281      6.104047
  Si      6.174646     38.506275      7.853492
  Si      8.849383     40.071879      7.819334
  O       4.910914     39.357355      8.446285
  O       7.554827     39.216965      8.343317
  O       6.149662     36.946825      8.361557
  O       8.604909     41.594724      8.358792
  O       6.172141     38.502216      6.208154
  O       8.871227     39.986274      6.170971
  Si     11.463921     26.075360      7.787996
  Si     14.123378     24.540438      7.827571
  O      10.117749     25.368016      8.380985
  O      12.821782     25.379615      8.355186
  O      13.890343     23.007942      8.333383
  O      11.395582     25.828942      6.164106
  O      14.135684     24.647159      6.184664
  Si     11.532139     29.251321      7.771230
  Al     11.663496     35.421761      7.722041
  Si     14.295574     33.776905      7.786580
  Si     14.209676     30.725709      7.761843
  O      10.199071     30.011975      8.357779
  O      10.183680     34.599961      8.327774
  O      13.090983     34.617349      8.402056
  O      12.881534     29.948575      8.395479
  O      11.456603     27.667681      8.140037
  O      14.377968     32.213350      8.385642
  O      11.545423     29.464685      6.149707
  O      11.838465     35.015987      6.013269
  O      14.054087     33.567062      6.169779
  O      13.920778     30.864260      6.154842
  Si     11.629570     38.701294      7.754686
  Si     14.389560     40.067131      7.828724
  O      10.271315     39.461781      8.315745
  O      12.983594     39.430767      8.351051
  O      11.601409     37.137558      8.040791
  O      14.649973     41.597247      8.336519
  O      11.710395     39.061134      6.137528
  O      14.405665     39.950810      6.184081
  Si     16.853376     25.976662      7.851161
  O      15.503817     25.212505      8.373063
  O      18.101423     25.096754      8.418592
  O      16.778602     25.985785      6.206779
  Si     16.916961     29.050984      7.741537
  Si     17.077742     35.321600      7.760020
  Si     19.699087     33.721331      7.820729
  Si     19.550944     30.634537      7.827156
  O      15.506214     29.793998      8.054430
  O      15.767401     34.428859      8.088794
  O      18.394106     34.541999      8.359829
  O      18.157481     29.925009      8.309345
  O      16.874185     27.532069      8.351463
  O      19.682035     32.171958      8.356988
  O      17.126871     28.842801      6.121427
  O      17.352349     35.405664      6.137367
  O      19.594920     33.640529      6.179914
  O      19.504555     30.689181      6.180762
  Si     16.992932     38.389714      7.818363
  O      15.694917     39.223163      8.355515
  O      18.450551     38.949975      8.279141
  O      16.950579     36.834594      8.330613
  O      16.875279     38.343299      6.172549
  O      20.728783     29.641224      8.362006
  O      21.119774     34.344399      8.325974
  H       4.074657     24.986772      8.036591
  H       1.410409     29.602015      8.036749
  H       1.410409     35.007985      8.036749
  H       4.074657     39.623228      8.036591
  H       8.948181     22.173255      8.038302
  H       8.948181     42.436745      8.038302
  H      14.277762     22.173204      8.038282
  H      14.277762     42.436796      8.038282
  H      18.960557     24.876228      8.036406
  H      18.960557     39.733772      8.036406
  H      21.624717     29.491420      8.036583
  H      21.624717     35.118580      8.036583
  H      13.235831     34.078043      5.904022
  H      11.031636     34.769254      5.556372
  H       8.981128     32.866153      5.749439
  H       9.862886     30.388191      5.791359
  H      12.342985     29.948100      5.852380
  H      13.954493     31.816929      5.892841
  H      13.539560     39.680233      5.834024
  H      10.854215     39.269973      5.744642
  H       8.062718     39.609244      5.801161
  H       6.066706     37.612728      5.838207
  H       5.244716     35.006229      5.779716
  H       3.484327     32.896329      5.884360
  H       4.182723     30.266097      5.861508
  H       6.015467     28.248204      5.806649
  H       6.938848     25.677751      5.879509
  H       9.580911     24.955257      5.856235
  H      12.235874     25.545072      5.777793
  H      14.942447     25.064235      5.845162
  H      16.935871     26.868946      5.833994
  H      17.793603     29.433449      5.743407
  H      19.526698     31.597703      5.841343
  H      18.902663     34.224097      5.825289
  H      17.161126     36.279560      5.766248
  H      16.083620     38.801224      5.848745
  P      15.737728     37.508480     12.539223
  O      16.625123     33.844340     13.122543
  O      19.348654     32.577081     12.679616
  O      17.789315     31.221941     11.077389
  O      17.123618     36.685856     12.827632
  O      15.096819     30.483861     11.448414
  O      15.463355     38.291013     13.751823
  O      14.742179     36.552160     11.944460
  O      16.232881     38.459280     11.308875
  N      14.952041     32.709729     11.949192
  N      13.153778     31.562069     11.042914
  N      11.277268     32.614627     10.221148
  C      18.543289     33.364976     11.836437
  C      17.373991     32.537394     11.310660
  C      17.853546     34.443526     12.650942
  C      16.354615     32.678533     12.451825
  C      17.578544     35.735336     11.912037
  C      14.244688     33.859465     11.862527
  C      14.456999     31.519481     11.488114
  C      12.994955     33.887932     11.326030
  C      12.439609     32.699977     10.845277
  H      19.132328     33.790630     11.017002
  H      16.970338     33.000232     10.401438
  H      18.444377     34.670162     13.540328
  H      16.406080     31.806419     13.114130
  H      16.849175     35.574248     11.108602
  H      18.514077     36.079239     11.450929
  H      19.315107     31.684425     12.310381
  H      16.999514     30.661687     11.096262
  H      14.703038     34.813851     12.178316
  H      12.495593     34.837984     11.216166
  H      10.855565     33.453429      9.826626
  H      10.969276     31.745918      9.812213
  H      15.574558     38.411119     10.610340
  H      12.863996     30.707006     10.584222
161
Coordinates from ORCA-job cmp_prot_al_frame02_dry E -13345.545141680685
  Si      3.478998     33.858550      7.870976
  Si      3.480737     30.765609      7.893488
  O       2.252184     34.767416      8.441313
  O       2.222338     29.900434      8.467234
  O       3.390731     32.311486      8.406034
  O       3.484519     33.803165      6.225527
  O       3.502102     30.837300      6.248877
  Si      6.138644     26.147554      7.885112
  Si      8.788761     24.553342      7.878846
  O       4.744223     25.536595      8.459459
  O       7.438573     25.306321      8.404456
  O       8.739056     23.025857      8.445167
  O       6.181113     26.160367      6.238456
  O       8.755157     24.615228      6.234900
  Si      6.129378     29.216816      7.799371
  Si      6.126963     35.425254      7.778307
  Si      8.891815     33.874281      7.719278
  Si      8.880454     30.790409      7.729564
  O       4.870284     30.062205      8.397783
  O       4.859437     34.566596      8.360987
  O       7.503615     34.647296      8.120746
  O       7.521396     29.987744      8.120714
  O       6.213865     27.698606      8.387975
  O       8.803710     32.309102      8.288119
  O       5.843874     29.121035      6.182176
  O       5.905009     35.600501      6.156241
  O       8.969513     33.772236      6.084052
  O       9.061283     30.838827      6.103648
  Si      6.174856     38.505888      7.853836
  Si      8.849303     40.071561      7.819220
  O       4.910378     39.355923      8.446405
  O       7.554845     39.216775      8.343962
  O       6.149992     36.946381      8.361829
  O       8.604676     41.594607      8.358245
  O       6.173181     38.502074      6.208449
  O       8.870951     39.985309      6.170945
  Si     11.464419     26.075308      7.787985
  Si     14.123648     24.540559      7.827821
  O      10.118260     25.368254      8.381200
  O      12.822175     25.379758      8.355582
  O      13.890793     23.008034      8.333701
  O      11.396300     25.828217      6.164214
  O      14.135950     24.647135      6.184843
  Si     11.532705     29.251348      7.770495
  Al     11.663266     35.421499      7.722848
  Si     14.295434     33.777112      7.787826
  Si     14.210071     30.726053      7.761930
  O      10.199322     30.011693      8.356944
  O      10.183285     34.599674      8.328345
  O      13.090685     34.617079      8.403212
  O      12.881846     29.948586      8.395095
  O      11.457071     27.667792      8.139258
  O      14.378195     32.213323      8.386423
  O      11.546106     29.464939      6.149043
  O      11.838880     35.015988      6.014113
  O      14.054387     33.567753      6.170893
  O      13.921251     30.865266      6.154973
  Si     11.629694     38.701032      7.755249
  Si     14.389549     40.066746      7.829703
  O      10.271181     39.461463      8.315737
  O      12.983542     39.430676      8.352070
  O      11.601825     37.137379      8.041085
  O      14.650046     41.597233      8.336328
  O      11.710748     39.061029      6.137957
  O      14.405963     39.949207      6.185175
  Si     16.853512     25.976694      7.851215
  O      15.504014     25.212715      8.373243
  O      18.101441     25.096666      8.418657
  O      16.778672     25.985713      6.206756
  Si     16.917191     29.050975      7.741305
  Si     17.077395     35.321662      7.760696
  Si     19.699087     33.721329      7.820772
  Si     19.551286     30.634526      7.827248
  O      15.506464     29.794018      8.053902
  O      15.767114     34.429219      8.090018
  O      18.393932     34.541784      8.359981
  O      18.157717     29.925041      8.308838
  O      16.874436     27.532157      8.351304
  O      19.682168     32.171998      8.357052
  O      17.127214     28.842527      6.121205
  O      17.351674     35.405505      6.137977
  O      19.594666     33.640706      6.179928
  O      19.505979     30.689115      6.180824
  Si     16.992761     38.389594      7.818779
  O      15.695035     39.223084      8.356681
  O      18.450596     38.949980      8.279208
  O      16.950832     36.834644      8.331209
  O      16.874291     38.342729      6.173141
  O      20.729222     29.641639      8.363031
  O      21.119568     34.344592      8.326074
  H       4.074657     24.986772      8.036591
  H       1.410409     29.602015      8.036749
  H       1.410409     35.007985      8.036749
  H       4.074657     39.623228      8.036591
  H       8.948181     22.173255      8.038302
  H       8.948181     42.436745      8.038302
  H      14.277762     22.173204      8.038282
  H      14.277762     42.436796      8.038282
  H      18.960557     24.876228      8.036406
  H      18.960557     39.733772      8.036406
  H      21.624717     29.491420      8.036583
  H      21.624717     35.118580      8.036583
  H      13.235861     34.078406      5.905108
  H      11.032374     34.770124      5.556231
  H       8.981712     32.866131      5.749944
  H       9.862880     30.388547      5.790806
  H      12.343400     29.949118      5.852183
  H      13.954996     31.818223      5.893663
  H      13.539451     39.679212      5.835487
  H      10.854714     39.270266      5.744969
  H       8.062685     39.607247      5.801554
  H       6.067043     37.612759      5.838312
  H       5.244162     35.006169      5.780054
  H       3.483346     32.896866      5.884223
  H       4.182730     30.266377      5.860343
  H       6.016017     28.247249      5.806252
  H       6.939185     25.676491      5.879550
  H       9.581410     24.954228      5.856376
  H      12.236789     25.544177      5.778365
  H      14.942674     25.064419      5.845439
  H      16.936058     26.868929      5.834108
  H      17.794060     29.433037      5.743183
  H      19.527552     31.597680      5.841468
  H      18.902109     34.224126      5.825628
  H      17.159924     36.279206      5.766656
  H      16.082562     38.801077      5.849897
  P      15.735436     37.507466     12.538279
  O      16.623281     33.844598     13.122702
  O      19.348085     32.576637     12.681172
  O      17.788989     31.221379     11.078911
  O      17.120887     36.684542     12.829329
  O      15.096618     30.482077     11.451239
  O      15.458783     38.288882     13.751175
  O      14.741328     36.551740     11.940514
  O      16.233159     38.459342     11.309853
  N      14.951368     32.708479     11.949595
  N      13.153679     31.559818     11.043756
  N      11.277728     32.611475     10.219699
  C      18.542691     33.364571     11.838199
  C      17.373713     32.536842     11.311830
  C      17.852774     34.443033     12.652683
  C      16.353658     32.678126     12.452512
  C      17.578751     35.735078     11.914031
  C      14.243761     33.858028     11.861979
  C      14.456797     31.517703     11.489678
  C      12.994108     33.885927     11.325330
  C      12.439449     32.697460     10.844841
  H      19.131537     33.790648     11.018783
  H      16.970284     32.999436     10.402367
  H      18.443005     34.668429     13.542779
  H      16.405555     31.806473     13.115432
  H      16.850863     35.573797     11.109252
  H      18.514931     36.080156     11.455201
  H      19.314361     31.683910     12.312122
  H      16.999525     30.660707     11.099394
  H      14.702105     34.812676     12.176708
  H      12.494903     34.835961     11.214642
  H      10.856593     33.450488      9.825009
  H      10.970058     31.742690      9.810606
  H      15.578550     38.408322     10.608014
  H      12.863993     30.704234     10.586037
161
Coordinates from ORCA-job cmp_prot_al_frame02_dry E -13345.545149515254
  Si      3.478365     33.857713      7.871323
  Si      3.481382     30.764712      7.892853
  O       2.250622     34.764563      8.442822
  O       2.224193     29.897381      8.465836
  O       3.390774     32.310367      8.405764
  O       3.483488     33.803233      6.225841
  O       3.502819     30.837541      6.248229
  Si      6.139109     26.146536      7.885379
  Si      8.789592     24.553134      7.879416
  O       4.745408     25.534528      8.460236
  O       7.439359     25.306039      8.404910
  O       8.740971     23.025794      8.446230
  O       6.181181     26.158803      6.238721
  O       8.755791     24.614385      6.235421
  Si      6.129910     29.215905      7.798767
  Si      6.126529     35.424720      7.778557
  Si      8.891418     33.873941      7.719615
  Si      8.880581     30.790133      7.729274
  O       4.871081     30.061692      8.396950
  O       4.858579     34.566398      8.361000
  O       7.502944     34.646388      8.121157
  O       7.521905     29.986860      8.120343
  O       6.213858     27.697797      8.387546
  O       8.803685     32.308541      8.288199
  O       5.844803     29.119871      6.181526
  O       5.904539     35.600128      6.156470
  O       8.968843     33.772152      6.084392
  O       9.061565     30.839109      6.103342
  Si      6.174993     38.505387      7.854113
  Si      8.849152     40.071275      7.819195
  O       4.909720     39.354218      8.446574
  O       7.554715     39.216601      8.344615
  O       6.150217     36.945796      8.361990
  O       8.604613     41.594488      8.357933
  O       6.174149     38.501822      6.208706
  O       8.870800     39.984554      6.171058
  Si     11.464957     26.075374      7.788099
  Si     14.123958     24.540637      7.828252
  O      10.118764     25.368659      8.381513
  O      12.822580     25.379878      8.356117
  O      13.891255     23.008086      8.334151
  O      11.397036     25.827776      6.164397
  O      14.136205     24.647068      6.185219
  Si     11.533356     29.251402      7.769974
  Al     11.662950     35.421279      7.723425
  Si     14.295298     33.777438      7.788799
  Si     14.210451     30.726491      7.762008
  O      10.199599     30.011483      8.356332
  O      10.182760     34.599400      8.328734
  O      13.090294     34.616830      8.404152
  O      12.882203     29.948653      8.394892
  O      11.457745     27.667982      8.138844
  O      14.378505     32.213445      8.387159
  O      11.546768     29.464968      6.148518
  O      11.839115     35.016080      6.014724
  O      14.054758     33.568328      6.171683
  O      13.921665     30.866247      6.155136
  Si     11.629704     38.700733      7.755599
  Si     14.389558     40.066335      7.830214
  O      10.271012     39.461070      8.315674
  O      12.983485     39.430476      8.352706
  O      11.602126     37.137197      8.041291
  O      14.650096     41.597107      8.335906
  O      11.711149     39.060860      6.138201
  O      14.406144     39.947693      6.185726
  Si     16.853751     25.976702      7.851534
  O      15.504256     25.212901      8.373606
  O      18.101582     25.096571      8.419013
  O      16.779012     25.985576      6.207017
  Si     16.917323     29.050961      7.741358
  Si     17.077313     35.321541      7.761330
  Si     19.699330     33.721242      7.820834
  Si     19.551529     30.634387      7.827280
  O      15.506648     29.794086      8.053638
  O      15.766881     34.429668      8.091101
  O      18.394039     34.541195      8.360121
  O      18.157994     29.924899      8.308600
  O      16.874594     27.532203      8.351422
  O      19.682448     32.171898      8.356855
  O      17.127370     28.842356      6.121281
  O      17.351036     35.405408      6.138555
  O      19.594865     33.640896      6.179988
  O      19.506780     30.688703      6.180823
  Si     16.992701     38.389297      7.819023
  O      15.695131     39.222953      8.357370
  O      18.450638     38.949969      8.279182
  O      16.951275     36.834495      8.331792
  O      16.873720     38.341977      6.173437
  O      20.729496     29.641807      8.363726
  O      21.119460     34.344806      8.326392
  H       4.074657     24.986772      8.036591
  H       1.410409     29.602015      8.036749
  H       1.410409     35.007985      8.036749
  H       4.074657     39.623228      8.036591
  H       8.948181     22.173255      8.038302
  H       8.948181     42.436745      8.038302
  H      14.277762     22.173204      8.038282
  H      14.277762     42.436796      8.038282
  H      18.960557     24.876228      8.036406
  H      18.960557     39.733772      8.036406
  H      21.624717     29.491420      8.036583
  H      21.624717     35.118580      8.036583
  H      13.236080     34.078788      5.905903
  H      11.032898     34.770688      5.556120
  H       8.981961     32.866044      5.750288
  H       9.862986     30.388599      5.790432
  H      12.343793     29.949615      5.851772
  H      13.955465     31.819452      5.894409
  H      13.539213     39.678290      5.836416
  H      10.855264     39.270533      5.745147
  H       8.062690     39.606032      5.801746
  H       6.067316     37.612658      5.838414
  H       5.243617     35.005859      5.780324
  H       3.482359     32.897117      5.884053
  H       4.182862     30.266333      5.859183
  H       6.016351     28.245729      5.806143
  H       6.939263     25.675043      5.879697
  H       9.581991     24.953189      5.856626
  H      12.237673     25.543540      5.778950
  H      14.942905     25.064412      5.845810
  H      16.936201     26.868917      5.834541
  H      17.794452     29.432680      5.743380
  H      19.528051     31.597240      5.841416
  H      18.902027     34.224184      5.826038
  H      17.159341     36.279203      5.767339
  H      16.081801     38.800395      5.850497
  P      15.729884     37.506024     12.538589
  O      16.620412     33.844569     13.123797
  O      19.346520     32.577595     12.682649
  O      17.788198     31.221862     11.080069
  O      17.115177     36.683544     12.831989
  O      15.096281     30.480790     11.452527
  O      15.451588     38.287558     13.751064
  O      14.737387     36.549891     11.939166
  O      16.229440     38.457935     11.311261
  N      14.949824     32.707152     11.950643
  N      13.153112     31.557960     11.044057
  N      11.277440     32.609015     10.218817
  C      18.540693     33.365394     11.840097
  C      17.372469     32.537133     11.313130
  C      17.850207     34.443321     12.654746
  C      16.351899     32.677710     12.453761
  C      17.575720     35.735448     11.916641
  C      14.241764     33.856442     11.863054
  C      14.456071     31.516179     11.490713
  C      12.992283     33.884035     11.326103
  C      12.438551     32.695332     10.844931
  H      19.129194     33.792446     11.020865
  H      16.968521     32.999193     10.403562
  H      18.439890     34.668379     13.545291
  H      16.404475     31.806249     13.116882
  H      16.849129     35.573829     11.110736
  H      18.512171     36.082068     11.459512
  H      19.312638     31.684742     12.313923
  H      16.999077     30.660697     11.101793
  H      14.699767     34.811064     12.177958
  H      12.493005     34.834029     11.215436
  H      10.856542     33.448348      9.824537
  H      10.970233     31.740532      9.808683
  H      15.578914     38.402923     10.606001
  H      12.863776     30.702206     10.586460
161
Coordinates from ORCA-job cmp_prot_al_frame02_dry E -13345.545146169799
  Si      3.478012     33.857086      7.871389
  Si      3.481822     30.764052      7.892544
  O       2.249834     34.762937      8.443458
  O       2.225508     29.895123      8.464911
  O       3.390677     32.309597      8.405592
  O       3.483036     33.802966      6.225940
  O       3.503515     30.837554      6.247937
  Si      6.139321     26.145912      7.885732
  Si      8.790074     24.552966      7.879831
  O       4.746021     25.533320      8.460817
  O       7.439771     25.305826      8.405249
  O       8.742085     23.025718      8.446929
  O       6.181082     26.157922      6.239095
  O       8.756285     24.613770      6.235847
  Si      6.130259     29.215321      7.798618
  Si      6.126453     35.424237      7.778699
  Si      8.891287     33.873669      7.719881
  Si      8.880684     30.789894      7.729259
  O       4.871667     30.061456      8.396654
  O       4.858191     34.566035      8.360777
  O       7.502762     34.645848      8.121739
  O       7.522246     29.986308      8.120209
  O       6.213910     27.697311      8.387536
  O       8.803778     32.308165      8.288235
  O       5.845364     29.118958      6.181370
  O       5.904635     35.599728      6.156586
  O       8.968343     33.772075      6.084629
  O       9.061739     30.839102      6.103315
  Si      6.174999     38.504938      7.854222
  Si      8.848996     40.071169      7.819149
  O       4.909117     39.352699      8.446781
  O       7.554475     39.216590      8.344927
  O       6.150389     36.945306      8.362054
  O       8.604744     41.594418      8.357955
  O       6.174582     38.501475      6.208829
  O       8.870752     39.984420      6.171133
  Si     11.465249     26.075461      7.788327
  Si     14.124124     24.540598      7.828694
  O      10.118971     25.368968      8.381793
  O      12.822759     25.379829      8.356609
  O      13.891607     23.008059      8.334652
  O      11.397454     25.827748      6.164621
  O      14.136197     24.646972      6.185641
  Si     11.533789     29.251374      7.769789
  Al     11.662769     35.421203      7.723385
  Si     14.295215     33.777647      7.788792
  Si     14.210591     30.726784      7.761740
  O      10.199783     30.011344      8.356098
  O      10.182649     34.599042      8.328855
  O      13.090086     34.616747      8.404259
  O      12.882445     29.948697      8.394765
  O      11.458330     27.668102      8.139038
  O      14.378781     32.213578      8.387283
  O      11.547019     29.464599      6.148245
  O      11.839046     35.016203      6.014690
  O      14.054790     33.568287      6.171579
  O      13.921635     30.866690      6.154993
  Si     11.629743     38.700551      7.755596
  Si     14.389690     40.066003      7.830340
  O      10.270901     39.460719      8.315341
  O      12.983400     39.430488      8.352990
  O      11.602414     37.137086      8.041082
  O      14.650457     41.596988      8.335071
  O      11.711604     39.060765      6.138171
  O      14.406460     39.946189      6.185849
  Si     16.853981     25.976636      7.851872
  O      15.504408     25.212976      8.373916
  O      18.101786     25.096546      8.419515
  O      16.779528     25.985261      6.207334
  Si     16.917255     29.050911      7.741372
  Si     17.077497     35.321340      7.761254
  Si     19.699663     33.721179      7.820764
  Si     19.551645     30.634195      7.827107
  O      15.506663     29.794166      8.053461
  O      15.766791     34.429925      8.090872
  O      18.394246     34.540529      8.359932
  O      18.158220     29.924569      8.308261
  O      16.874535     27.532178      8.351528
  O      19.682628     32.171752      8.356333
  O      17.127161     28.842212      6.121305
  O      17.350972     35.405562      6.138494
  O      19.595601     33.641165      6.179923
  O      19.506970     30.688152      6.180621
  Si     16.992807     38.388969      7.818974
  O      15.695201     39.222697      8.357801
  O      18.450685     38.949912      8.278992
  O      16.951682     36.834207      8.331900
  O      16.873674     38.341502      6.173333
  O      20.729574     29.641814      8.363957
  O      21.119406     34.345015      8.326885
  H       4.074657     24.986772      8.036591
  H       1.410409     29.602015      8.036749
  H       1.410409     35.007985      8.036749
  H       4.074657     39.623228      8.036591
  H       8.948181     22.173255      8.038302
  H       8.948181     42.436745      8.038302
  H      14.277762     22.173204      8.038282
  H      14.277762     42.436796      8.038282
  H      18.960557     24.876228      8.036406
  H      18.960557     39.733772      8.036406
  H      21.624717     29.491420      8.036583
  H      21.624717     35.118580      8.036583
  H      13.236132     34.078778      5.905866
  H      11.032915     34.770848      5.555912
  H       8.981806     32.865982      5.750466
  H       9.862929     30.388208      5.790370
  H      12.343975     29.949063      5.851162
  H      13.955370     31.820016      5.894525
  H      13.539284     39.677237      5.836718
  H      10.855757     39.270482      5.745067
  H       8.062713     39.605966      5.801594
  H       6.067393     37.612352      5.838524
  H       5.243789     35.005382      5.780432
  H       3.481999     32.896938      5.883916
  H       4.183130     30.266056      5.858616
  H       6.016476     28.244517      5.806465
  H       6.939124     25.674286      5.879857
  H       9.582373     24.952644      5.856890
  H      12.238149     25.543368      5.779379
  H      14.942939     25.064118      5.846100
  H      16.936485     26.868698      5.834950
  H      17.794568     29.432278      5.743547
  H      19.528565     31.596604      5.841071
  H      18.902776     34.224569      5.826142
  H      17.159710     36.279624      5.767609
  H      16.081492     38.799523      5.850400
  P      15.728505     37.505343     12.538597
  O      16.619547     33.844237     13.124113
  O      19.346208     32.577133     12.683269
  O      17.787999     31.221532     11.080572
  O      17.113242     36.682469     12.833297
  O      15.096542     30.480199     11.452754
  O      15.449770     38.286614     13.751096
  O      14.736835     36.549368     11.937747
  O      16.228850     38.458008     11.312552
  N      14.949421     32.706482     11.950869
  N      13.153394     31.557154     11.043451
  N      11.278213     32.607813     10.217086
  C      18.540274     33.365087     11.841025
  C      17.372459     32.536909     11.313664
  C      17.849720     34.442821     12.655708
  C      16.351375     32.677212     12.454245
  C      17.575373     35.735213     11.918050
  C      14.241304     33.855745     11.863000
  C      14.456113     31.515470     11.490711
  C      12.992059     33.883259     11.325513
  C      12.438778     32.694409     10.844028
  H      19.128765     33.792756     11.022049
  H      16.968468     32.998650     10.403977
  H      18.439088     34.667801     13.546493
  H      16.404035     31.805818     13.117428
  H      16.850145     35.573775     11.110877
  H      18.512411     36.082356     11.462388
  H      19.311527     31.684118     12.314995
  H      16.998683     30.660617     11.102644
  H      14.699168     34.810233     12.178121
  H      12.492827     34.833237     11.214552
  H      10.856811     33.447089      9.823222
  H      10.971226     31.739333      9.806750
  H      15.581930     38.399404     10.604271
  H      12.864367     30.701373     10.585697
161
Coordinates from ORCA-job cmp_prot_al_frame02_dry E -13345.545146554225
  Si      3.477487     33.856095      7.871611
  Si      3.482491     30.763054      7.892158
  O       2.248649     34.760517      8.444410
  O       2.227330     29.891905      8.463636
  O       3.390562     32.308419      8.405525
  O       3.482405     33.802391      6.226218
  O       3.504560     30.837539      6.247595
  Si      6.139641     26.144995      7.886158
  Si      8.790821     24.552740      7.880186
  O       4.747041     25.531368      8.461704
  O       7.440429     25.305498      8.405532
  O       8.743740     23.025679      8.447803
  O       6.180851     26.156840      6.239530
  O       8.756976     24.612854      6.236229
  Si      6.130736     29.214427      7.798395
  Si      6.126139     35.423598      7.778893
  Si      8.890924     33.873278      7.719964
  Si      8.880886     30.789446      7.729075
  O       4.872529     30.061051      8.396388
  O       4.857585     34.565506      8.360623
  O       7.502321     34.645088      8.122326
  O       7.522780     29.985367      8.119777
  O       6.214052     27.696555      8.387574
  O       8.803682     32.307653      8.287985
  O       5.845866     29.117612      6.181173
  O       5.904393     35.599190      6.156781
  O       8.967666     33.771984      6.084648
  O       9.062074     30.838925      6.103139
  Si      6.174861     38.504360      7.854420
  Si      8.848689     40.071099      7.819272
  O       4.908311     39.350893      8.447165
  O       7.554006     39.216675      8.345253
  O       6.150474     36.944680      8.362204
  O       8.604901     41.594385      8.358132
  O       6.174745     38.500935      6.209052
  O       8.870470     39.984393      6.171369
  Si     11.465712     26.075580      7.788388
  Si     14.124442     24.540517      7.829129
  O      10.119335     25.369398      8.381923
  O      12.823075     25.379779      8.356972
  O      13.892069     23.008049      8.335255
  O      11.398003     25.827804      6.164658
  O      14.136407     24.646764      6.186060
  Si     11.534289     29.251327      7.769638
  Al     11.662333     35.421083      7.723391
  Si     14.294986     33.777885      7.788408
  Si     14.210786     30.727066      7.761335
  O      10.200120     30.011238      8.355907
  O      10.182233     34.598622      8.328848
  O      13.089661     34.616486      8.404241
  O      12.882738     29.948818      8.394654
  O      11.459143     27.668181      8.139264
  O      14.379129     32.213791      8.387132
  O      11.547243     29.464257      6.148018
  O      11.838578     35.016351      6.014667
  O      14.054446     33.568152      6.171138
  O      13.921783     30.866890      6.154685
  Si     11.629599     38.700389      7.755596
  Si     14.389693     40.065727      7.829807
  O      10.270647     39.460352      8.315115
  O      12.983233     39.430563      8.352870
  O      11.602633     37.136950      8.041050
  O      14.650842     41.596756      8.333886
  O      11.711705     39.060475      6.138130
  O      14.406299     39.945027      6.185240
  Si     16.854342     25.976658      7.852363
  O      15.504672     25.213056      8.374269
  O      18.102146     25.096668      8.420256
  O      16.780367     25.985048      6.207809
  Si     16.917267     29.050940      7.741612
  Si     17.077629     35.321247      7.760892
  Si     19.699880     33.721321      7.820935
  Si     19.551787     30.634158      7.827223
  O      15.506720     29.794281      8.053468
  O      15.766521     34.430419      8.090295
  O      18.394233     34.540050      8.359736
  O      18.158513     29.924289      8.308300
  O      16.874505     27.532224      8.351875
  O      19.682770     32.171767      8.355970
  O      17.127057     28.842188      6.121540
  O      17.351107     35.405814      6.138220
  O      19.596657     33.641530      6.180059
  O      19.506850     30.687650      6.180698
  Si     16.992899     38.388807      7.818436
  O      15.695200     39.222489      8.357438
  O      18.450586     38.949904      8.278663
  O      16.951912     36.834092      8.331700
  O      16.873858     38.341274      6.172705
  O      20.729698     29.641928      8.364258
  O      21.119194     34.345487      8.327773
  H       4.074657     24.986772      8.036591
  H       1.410409     29.602015      8.036749
  H       1.410409     35.007985      8.036749
  H       4.074657     39.623228      8.036591
  H       8.948181     22.173255      8.038302
  H       8.948181     42.436745      8.038302
  H      14.277762     22.173204      8.038282
  H      14.277762     42.436796      8.038282
  H      18.960557     24.876228      8.036406
  H      18.960557     39.733772      8.036406
  H      21.624717     29.491420      8.036583
  H      21.624717     35.118580      8.036583
  H      13.235861     34.078792      5.905584
  H      11.032493     34.770904      5.555860
  H       8.981408     32.865985      5.750273
  H       9.863253     30.388045      5.790178
  H      12.343769     29.949072      5.850510
  H      13.955510     31.820244      5.894188
  H      13.538980     39.676257      5.836300
  H      10.855813     39.270015      5.745055
  H       8.062462     39.606216      5.801538
  H       6.067252     37.611824      5.838795
  H       5.243587     35.004759      5.780682
  H       3.481595     32.896441      5.883952
  H       4.183566     30.265606      5.857905
  H       6.016496     28.242844      5.806771
  H       6.938671     25.673156      5.879949
  H       9.582865     24.951943      5.857048
  H      12.238695     25.543189      5.779571
  H      14.943258     25.063544      5.846375
  H      16.937055     26.868574      5.835495
  H      17.794779     29.432001      5.743929
  H      19.529053     31.595967      5.840917
  H      18.903876     34.224870      5.826143
  H      17.160367     36.280193      5.767717
  H      16.081366     38.798775      5.849723
  P      15.723620     37.504999     12.539768
  O      16.618223     33.843854     13.125156
  O      19.345758     32.579442     12.682298
  O      17.787861     31.222803     11.080339
  O      17.108437     36.682544     12.834825
  O      15.097042     30.480069     11.451813
  O      15.444777     38.286385     13.752070
  O      14.732913     36.548205     11.938605
  O      16.223132     38.458331     11.314256
  N      14.948534     32.705828     11.951597
  N      13.153461     31.556370     11.042615
  N      11.278220     32.606808     10.216180
  C      18.538617     33.366997     11.840815
  C      17.371419     32.537949     11.313772
  C      17.847499     34.443827     12.656171
  C      16.350585     32.677069     12.454882
  C      17.571378     35.736273     11.919190
  C      14.239873     33.854807     11.864378
  C      14.455993     31.514984     11.490197
  C      12.990880     33.882174     11.326357
  C      12.438357     32.693423     10.843797
  H      19.126433     33.795754     11.021909
  H      16.966419     32.999002     10.404194
  H      18.437034     34.669602     13.546652
  H      16.403821     31.805306     13.117510
  H      16.846608     35.574477     11.111680
  H      18.508139     36.084372     11.463523
  H      19.310867     31.686332     12.314245
  H      16.998695     30.661616     11.102458
  H      14.697146     34.809114     12.180583
  H      12.491237     34.832001     11.215900
  H      10.855874     33.446067      9.823371
  H      10.971659     31.738520      9.805149
  H      15.580492     38.393811     10.602651
  H      12.865061     30.700848     10.583937
161
Coordinates from ORCA-job cmp_prot_al_frame02_dry E -13345.545150153346
  Si      3.477246     33.855448      7.871626
  Si      3.482938     30.762426      7.891937
  O       2.248179     34.759351      8.444660
  O       2.228563     29.889701      8.462790
  O       3.390316     32.307693      8.405502
  O       3.482261     33.801787      6.226298
  O       3.505386     30.837520      6.247423
  Si      6.139747     26.144528      7.886456
  Si      8.791199     24.552585      7.880316
  O       4.747511     25.530360      8.462266
  O       7.440730     25.305274      8.405592
  O       8.744529     23.025648      8.448242
  O       6.180542     26.156450      6.239820
  O       8.757398     24.612293      6.236402
  Si      6.131030     29.213940      7.798397
  Si      6.126071     35.423132      7.779079
  Si      8.890775     33.873019      7.720063
  Si      8.881120     30.789099      7.728958
  O       4.873120     30.060930      8.396444
  O       4.857382     34.564984      8.360461
  O       7.502211     34.644690      8.122961
  O       7.523154     29.984814      8.119443
  O       6.214237     27.696155      8.387793
  O       8.803654     32.307353      8.287736
  O       5.845979     29.116782      6.181222
  O       5.904546     35.598728      6.156957
  O       8.967319     33.772032      6.084684
  O       9.062385     30.838630      6.103029
  Si      6.174648     38.503936      7.854559
  Si      8.848409     40.071158      7.819417
  O       4.907707     39.349644      8.447545
  O       7.553556     39.216857      8.345307
  O       6.150544     36.944257      8.362374
  O       8.605093     41.594417      8.358487
  O       6.174457     38.500441      6.209221
  O       8.870122     39.984690      6.171562
  Si     11.465966     26.075611      7.788545
  Si     14.124643     24.540384      7.829408
  O      10.119476     25.369603      8.381994
  O      12.823233     25.379608      8.357192
  O      13.892400     23.008009      8.335747
  O      11.398272     25.828058      6.164767
  O      14.136471     24.646555      6.186338
  Si     11.534534     29.251153      7.769781
  Al     11.662063     35.421063      7.723430
  Si     14.294783     33.777924      7.787989
  Si     14.210810     30.727128      7.761061
  O      10.200384     30.011161      8.355909
  O      10.182110     34.598262      8.328918
  O      13.089382     34.616290      8.404160
  O      12.882875     29.948863      8.394724
  O      11.459692     27.668098      8.139878
  O      14.379313     32.213874      8.386922
  O      11.547423     29.463677      6.148089
  O      11.838028     35.016480      6.014669
  O      14.053943     33.567865      6.170738
  O      13.921689     30.866769      6.154499
  Si     11.629461     38.700391      7.755648
  Si     14.389673     40.065594      7.829300
  O      10.270381     39.460111      8.314996
  O      12.983026     39.430866      8.352734
  O      11.602792     37.136910      8.041203
  O      14.651321     41.596612      8.332795
  O      11.711551     39.060173      6.138149
  O      14.406100     39.944214      6.184694
  Si     16.854621     25.976697      7.852656
  O      15.504850     25.213081      8.374416
  O      18.102467     25.096889      8.420872
  O      16.781118     25.984870      6.208104
  Si     16.917227     29.051009      7.741756
  Si     17.077640     35.321329      7.760500
  Si     19.699845     33.721650      7.821218
  Si     19.551821     30.634262      7.827370
  O      15.506711     29.794358      8.053671
  O      15.766265     34.430746      8.089508
  O      18.393957     34.539964      8.359728
  O      18.158672     29.924101      8.308404
  O      16.874434     27.532283      8.352088
  O      19.682717     32.171913      8.355760
  O      17.126856     28.842349      6.121637
  O      17.351467     35.406179      6.137951
  O      19.597481     33.642101      6.180281
  O      19.506436     30.687531      6.180808
  Si     16.992964     38.388839      7.818016
  O      15.695131     39.222306      8.357078
  O      18.450444     38.949933      8.278422
  O      16.951845     36.834165      8.331559
  O      16.874119     38.341223      6.172222
  O      20.729722     29.642029      8.364275
  O      21.118899     34.346015      8.328717
  H       4.074657     24.986772      8.036591
  H       1.410409     29.602015      8.036749
  H       1.410409     35.007985      8.036749
  H       4.074657     39.623228      8.036591
  H       8.948181     22.173255      8.038302
  H       8.948181     42.436745      8.038302
  H      14.277762     22.173204      8.038282
  H      14.277762     42.436796      8.038282
  H      18.960557     24.876228      8.036406
  H      18.960557     39.733772      8.036406
  H      21.624717     29.491420      8.036583
  H      21.624717     35.118580      8.036583
  H      13.235478     34.078690      5.905309
  H      11.031851     34.770679      5.556197
  H       8.980984     32.866122      5.750079
  H       9.863411     30.387456      5.790077
  H      12.344172     29.947791      5.850152
  H      13.954995     31.820074      5.893859
  H      13.538836     39.675308      5.835804
  H      10.855543     39.269320      5.745113
  H       8.062122     39.606833      5.801439
  H       6.066936     37.611284      5.839062
  H       5.243856     35.004186      5.780824
  H       3.481706     32.895830      5.884011
  H       4.183983     30.265223      5.857565
  H       6.016294     28.241825      5.807098
  H       6.938144     25.672687      5.879936
  H       9.583122     24.951671      5.857139
  H      12.238925     25.543385      5.779651
  H      14.943387     25.063026      5.846484
  H      16.937443     26.868452      5.835763
  H      17.794734     29.432063      5.744125
  H      19.529436     31.595741      5.840854
  H      18.904849     34.225418      5.826070
  H      17.160864     36.280710      5.767696
  H      16.081375     38.798128      5.849091
  P      15.722848     37.505244     12.540827
  O      16.618913     33.842944     13.125761
  O      19.346609     32.580198     12.681110
  O      17.788564     31.223026     11.079956
  O      17.107578     36.682380     12.835144
  O      15.097893     30.480188     11.450532
  O      15.444803     38.286283     13.753438
  O      14.732066     36.548314     11.939765
  O      16.220691     38.459619     11.315507
  N      14.948879     32.705571     11.951706
  N      13.154102     31.556189     11.041868
  N      11.278907     32.606633     10.215520
  C      18.538703     33.367543     11.840077
  C      17.371628     32.538096     11.313500
  C      17.847375     34.443838     12.655953
  C      16.351080     32.676628     12.454901
  C      17.570156     35.736327     11.919273
  C      14.240071     33.854477     11.864768
  C      14.456500     31.514893     11.489516
  C      12.991220     33.881846     11.326389
  C      12.438864     32.693227     10.843390
  H      19.126136     33.796732     11.021149
  H      16.966369     32.998988     10.404005
  H      18.437316     34.670264     13.546006
  H      16.404299     31.804410     13.116924
  H      16.845236     35.574307     11.111936
  H      18.506608     36.084531     11.462934
  H      19.311467     31.687061     12.313114
  H      16.999362     30.661867     11.101335
  H      14.697162     34.808673     12.181459
  H      12.491370     34.831587     11.216057
  H      10.855526     33.445686      9.823469
  H      10.972558     31.738264      9.804522
  H      15.580958     38.390138     10.601712
  H      12.866023     30.700922     10.582466
161
Coordinates from ORCA-job cmp_prot_al_frame02_dry E -13345.545152278550
  Si      3.477037     33.854793      7.871692
  Si      3.483396     30.761831      7.891770
  O       2.247777     34.758310      8.444814
  O       2.229800     29.887445      8.461946
  O       3.389969     32.306990      8.405608
  O       3.482215     33.801089      6.226417
  O       3.506270     30.837563      6.247309
  Si      6.139866     26.144076      7.886752
  Si      8.791609     24.552479      7.880362
  O       4.748052     25.529221      8.462879
  O       7.441070     25.305065      8.405583
  O       8.745286     23.025657      8.448587
  O       6.180201     26.156196      6.240076
  O       8.757789     24.611830      6.236484
  Si      6.131245     29.213449      7.798446
  Si      6.125929     35.422715      7.779397
  Si      8.890555     33.872776      7.720188
  Si      8.881389     30.788718      7.728788
  O       4.873701     30.060851      8.396677
  O       4.857196     34.564439      8.360455
  O       7.502045     34.644355      8.123620
  O       7.523534     29.984171      8.118939
  O       6.214395     27.695736      8.388115
  O       8.803519     32.307064      8.287451
  O       5.845778     29.115978      6.181346
  O       5.904599     35.598355      6.157271
  O       8.967063     33.772140      6.084743
  O       9.062791     30.838366      6.102883
  Si      6.174387     38.503554      7.854851
  Si      8.848072     40.071236      7.819690
  O       4.907106     39.348591      8.448043
  O       7.553075     39.217078      8.345411
  O       6.150560     36.943890      8.362705
  O       8.605287     41.594493      8.358936
  O       6.174070     38.500003      6.209529
  O       8.869475     39.984923      6.171835
  Si     11.466273     26.075682      7.788686
  Si     14.124901     24.540276      7.829508
  O      10.119686     25.369799      8.381998
  O      12.823470     25.379483      8.357213
  O      13.892661     23.008005      8.336080
  O      11.398492     25.828477      6.164862
  O      14.136709     24.646374      6.186432
  Si     11.534705     29.251007      7.770104
  Al     11.661719     35.421125      7.723646
  Si     14.294458     33.777925      7.787494
  Si     14.210875     30.727131      7.760937
  O      10.200667     30.011114      8.356071
  O      10.181885     34.598009      8.329086
  O      13.089055     34.616063      8.404099
  O      12.882942     29.949087      8.394944
  O      11.460286     27.668002      8.140655
  O      14.379489     32.213992      8.386615
  O      11.547529     29.463215      6.148387
  O      11.837154     35.016637      6.014824
  O      14.053039     33.567627      6.170342
  O      13.921832     30.866393      6.154402
  Si     11.629233     38.700531      7.755834
  Si     14.389558     40.065507      7.828719
  O      10.270031     39.459974      8.315116
  O      12.982772     39.431266      8.352544
  O      11.602812     37.136958      8.041630
  O      14.651865     41.596473      8.331672
  O      11.711048     39.059899      6.138276
  O      14.405626     39.943661      6.184104
  Si     16.854937     25.976812      7.852912
  O      15.505095     25.213051      8.374428
  O      18.102869     25.097283      8.421543
  O      16.782015     25.984847      6.208360
  Si     16.917221     29.051121      7.742012
  Si     17.077485     35.321612      7.760016
  Si     19.699602     33.722137      7.821498
  Si     19.551742     30.634475      7.827576
  O      15.506719     29.794423      8.054108
  O      15.765857     34.431175      8.088486
  O      18.393385     34.540171      8.359738
  O      18.158737     29.924047      8.308816
  O      16.874377     27.532387      8.352391
  O      19.682599     32.172177      8.355580
  O      17.126745     28.842615      6.121834
  O      17.352001     35.406769      6.137648
  O      19.598162     33.642855      6.180463
  O      19.505637     30.687653      6.180965
  Si     16.992923     38.389035      7.817521
  O      15.695023     39.222158      8.356487
  O      18.450268     38.949935      8.278068
  O      16.951521     36.834430      8.331461
  O      16.874237     38.341281      6.171720
  O      20.729657     29.642088      8.364027
  O      21.118463     34.346650      8.329697
  H       4.074657     24.986772      8.036591
  H       1.410409     29.602015      8.036749
  H       1.410409     35.007985      8.036749
  H       4.074657     39.623228      8.036591
  H       8.948181     22.173255      8.038302
  H       8.948181     42.436745      8.038302
  H      14.277762     22.173204      8.038282
  H      14.277762     42.436796      8.038282
  H      18.960557     24.876228      8.036406
  H      18.960556     39.733772      8.036406
  H      21.624717     29.491420      8.036583
  H      21.624717     35.118580      8.036583
  H      13.234612     34.078585      5.905115
  H      11.030764     34.770375      5.556942
  H       8.980663     32.866350      5.749875
  H       9.863902     30.387351      5.789953
  H      12.344029     29.947556      5.850203
  H      13.954917     31.819574      5.893378
  H      13.538414     39.674643      5.835259
  H      10.854915     39.268633      5.745302
  H       8.061577     39.606947      5.801655
  H       6.066607     37.610805      5.839436
  H       5.244044     35.003725      5.781051
  H       3.481953     32.895095      5.884189
  H       4.184491     30.264884      5.857348
  H       6.015848     28.240899      5.807384
  H       6.937548     25.672299      5.879892
  H       9.583330     24.951566      5.857164
  H      12.239070     25.543811      5.779608
  H      14.943741     25.062465      5.846457
  H      16.938080     26.868437      5.835961
  H      17.794667     29.432354      5.744417
  H      19.529334     31.595770      5.840868
  H      18.905707     34.226070      5.825788
  H      17.161199     36.281345      5.767563
  H      16.081318     38.797812      5.848524
  P      15.720326     37.505814     12.542981
  O      16.619426     33.841944     13.127190
  O      19.347439     32.582447     12.680032
  O      17.789717     31.224017     11.079891
  O      17.105384     36.682783     12.835788
  O      15.098870     30.480482     11.449049
  O      15.443425     38.286513     13.755996
  O      14.729283     36.548455     11.942694
  O      16.215621     38.461149     11.317239
  N      14.949134     32.705360     11.952168
  N      13.154634     31.555999     11.041395
  N      11.279272     32.606661     10.215503
  C      18.538357     33.369179     11.839437
  C      17.371562     32.538730     11.313532
  C      17.846381     34.444634     12.655960
  C      16.351511     32.676335     12.455266
  C      17.567067     35.736854     11.919436
  C      14.239943     33.854064     11.865991
  C      14.457073     31.514923     11.488785
  C      12.991199     33.881410     11.327379
  C      12.439123     32.693028     10.843580
  H      19.125117     33.798826     11.020330
  H      16.965745     32.999394     10.404203
  H      18.436900     34.672054     13.545371
  H      16.404797     31.803505     13.116450
  H      16.841090     35.574124     11.113156
  H      18.502558     36.085436     11.461385
  H      19.312689     31.689329     12.311944
  H      17.000803     30.662417     11.099946
  H      14.696563     34.808201     12.183553
  H      12.490966     34.831022     11.217603
  H      10.855150     33.445698      9.824279
  H      10.973094     31.738391      9.804180
  H      15.578591     38.385687     10.601626
  H      12.866907     30.701075     10.581101
161
Coordinates from ORCA-job cmp_prot_al_frame02_dry E -13345.545155112377
  Si      3.476978     33.854468      7.871642
  Si      3.483652     30.761563      7.891609
  O       2.247703     34.757944      8.444740
  O       2.230531     29.886155      8.461417
  O       3.389678     32.306658      8.405640
  O       3.482253     33.800719      6.226376
  O       3.506760     30.837659      6.247182
  Si      6.139907     26.143856      7.886892
  Si      8.791832     24.552450      7.880316
  O       4.748389     25.528501      8.463286
  O       7.441287     25.305014      8.405488
  O       8.745634     23.025681      8.448703
  O       6.179903     26.156113      6.240164
  O       8.757974     24.611628      6.236448
  Si      6.131291     29.213194      7.798397
  Si      6.125876     35.422494      7.779578
  Si      8.890468     33.872654      7.720243
  Si      8.881548     30.788490      7.728467
  O       4.874006     30.060871      8.396819
  O       4.857169     34.564085      8.360456
  O       7.502004     34.644226      8.123967
  O       7.523737     29.983772      8.118411
  O       6.214416     27.695518      8.388293
  O       8.803412     32.306892      8.287151
  O       5.845439     29.115536      6.181364
  O       5.904676     35.598166      6.157446
  O       8.967064     33.772312      6.084768
  O       9.063019     30.838201      6.102583
  Si      6.174186     38.503347      7.855041
  Si      8.847868     40.071298      7.819852
  O       4.906772     39.348106      8.448402
  O       7.552806     39.217186      8.345347
  O       6.150579     36.943699      8.362915
  O       8.605353     41.594568      8.359209
  O       6.173615     38.499830      6.209720
  O       8.869055     39.985072      6.171951
  Si     11.466480     26.075722      7.788745
  Si     14.125105     24.540225      7.829410
  O      10.119855     25.369851      8.381935
  O      12.823677     25.379439      8.357037
  O      13.892809     23.008029      8.336185
  O      11.398590     25.828788      6.164910
  O      14.136975     24.646209      6.186323
  Si     11.534757     29.250895      7.770235
  Al     11.661551     35.421236      7.723936
  Si     14.294226     33.777897      7.787439
  Si     14.210923     30.727111      7.761011
  O      10.200811     30.011066      8.355981
  O      10.181791     34.597923      8.329254
  O      13.088855     34.615963      8.404232
  O      12.882919     29.949284      8.395052
  O      11.460625     27.667930      8.141156
  O      14.379525     32.214052      8.386510
  O      11.547812     29.462835      6.148513
  O      11.836597     35.016758      6.015066
  O      14.052476     33.567676      6.170374
  O      13.921991     30.866210      6.154465
  Si     11.629080     38.700695      7.756115
  Si     14.389421     40.065473      7.828677
  O      10.269761     39.459961      8.315343
  O      12.982561     39.431597      8.352649
  O      11.602730     37.137049      8.042142
  O      14.652230     41.596460      8.331132
  O      11.710623     39.059798      6.138516
  O      14.405337     39.943335      6.184125
  Si     16.855145     25.976958      7.852957
  O      15.505290     25.213033      8.374261
  O      18.103189     25.097766      8.421985
  O      16.782641     25.984883      6.208410
  Si     16.917236     29.051253      7.742118
  Si     17.077275     35.321912      7.759998
  Si     19.699329     33.722524      7.821681
  Si     19.551589     30.634676      7.827682
  O      15.506743     29.794495      8.054460
  O      15.765542     34.431467      8.088065
  O      18.392885     34.540455      8.359952
  O      18.158669     29.924157      8.309215
  O      16.874332     27.532517      8.352486
  O      19.682471     32.172408      8.355490
  O      17.126828     28.842927      6.121914
  O      17.352340     35.407275      6.137739
  O      19.598278     33.643565      6.180590
  O      19.504994     30.687957      6.181031
  Si     16.992798     38.389232      7.817434
  O      15.694903     39.222037      8.356370
  O      18.450154     38.949945      8.277885
  O      16.951202     36.834718      8.331760
  O      16.874102     38.341266      6.171699
  O      20.729548     29.642125      8.363671
  O      21.118132     34.347083      8.330292
  H       4.074657     24.986772      8.036591
  H       1.410409     29.602015      8.036749
  H       1.410409     35.007985      8.036749
  H       4.074657     39.623228      8.036591
  H       8.948181     22.173255      8.038302
  H       8.948181     42.436745      8.038302
  H      14.277762     22.173204      8.038282
  H      14.277762     42.436796      8.038282
  H      18.960557     24.876228      8.036406
  H      18.960557     39.733772      8.036406
  H      21.624717     29.491420      8.036583
  H      21.624717     35.118580      8.036583
  H      13.234003     34.078598      5.905223
  H      11.030009     34.770042      5.557753
  H       8.980586     32.866579      5.749747
  H       9.864050     30.387051      5.789645
  H      12.344583     29.946746      5.850339
  H      13.954597     31.819329      5.893291
  H      13.538181     39.674200      5.835276
  H      10.854469     39.268482      5.745562
  H       8.061280     39.606793      5.801824
  H       6.066284     37.610626      5.839608
  H       5.244218     35.003499      5.781122
  H       3.482205     32.894689      5.884212
  H       4.184766     30.264720      5.857211
  H       6.015417     28.240423      5.807428
  H       6.937112     25.672147      5.879808
  H       9.583430     24.951540      5.857115
  H      12.239125     25.544262      5.779485
  H      14.944014     25.062197      5.846283
  H      16.938534     26.868448      5.835901
  H      17.794709     29.432807      5.744606
  H      19.529011     31.596038      5.840893
  H      18.905942     34.226771      5.825688
  H      17.161108     36.281744      5.767624
  H      16.081095     38.797643      5.848523
  P      15.718537     37.506354     12.544503
  O      16.619538     33.841435     13.128363
  O      19.347836     32.584034     12.680200
  O      17.790688     31.224664     11.080492
  O      17.103726     36.682958     12.836593
  O      15.099356     30.480712     11.448454
  O      15.441979     38.286327     13.758051
  O      14.727436     36.549056     11.944025
  O      16.212687     38.462680     11.318903
  N      14.949209     32.705362     11.952475
  N      13.154819     31.555858     11.041435
  N      11.279409     32.606476     10.215604
  C      18.538159     33.370272     11.839650
  C      17.371617     32.539091     11.313995
  C      17.845631     34.445233     12.656420
  C      16.351604     32.676248     12.455671
  C      17.565188     35.737232     11.919907
  C      14.239828     33.853942     11.866523
  C      14.457299     31.514947     11.488767
  C      12.991120     33.881219     11.327818
  C      12.439218     32.692889     10.843736
  H      19.124557     33.800044     11.020380
  H      16.965709     32.999643     10.404655
  H      18.436398     34.673048     13.545556
  H      16.404770     31.803131     13.116478
  H      16.838519     35.574017     11.114319
  H      18.500083     36.086252     11.461005
  H      19.313723     31.690937     12.312009
  H      17.002085     30.662628     11.099211
  H      14.696134     34.808193     12.184214
  H      12.490725     34.830763     11.218160
  H      10.855034     33.445455      9.824564
  H      10.973474     31.738167      9.804208
  H      15.577867     38.382998     10.601764
  H      12.867294     30.701061     10.580785
161
Coordinates from ORCA-job cmp_prot_al_frame02_dry E -13345.545158242268
  Si      3.476991     33.854282      7.871586
  Si      3.483811     30.761439      7.891487
  O       2.247782     34.757909      8.444545
  O       2.231057     29.885228      8.461022
  O       3.389370     32.306483      8.405691
  O       3.482372     33.800486      6.226305
  O       3.507090     30.837800      6.247083
  Si      6.139935     26.143701      7.887034
  Si      8.792032     24.552488      7.880264
  O       4.748742     25.527756      8.463693
  O       7.441519     25.305068      8.405405
  O       8.745877     23.025729      8.448721
  O       6.179621     26.156058      6.240244
  O       8.758093     24.611606      6.236383
  Si      6.131214     29.213002      7.798336
  Si      6.125854     35.422362      7.779799
  Si      8.890454     33.872597      7.720455
  Si      8.881623     30.788361      7.728179
  O       4.874181     30.060939      8.396971
  O       4.857203     34.563800      8.360553
  O       7.502029     34.644221      8.124271
  O       7.523846     29.983414      8.117848
  O       6.214283     27.695356      8.388466
  O       8.803283     32.306756      8.287006
  O       5.844954     29.115189      6.181376
  O       5.904753     35.598077      6.157654
  O       8.967258     33.772527      6.084963
  O       9.063217     30.838253      6.102332
  Si      6.174022     38.503219      7.855259
  Si      8.847731     40.071336      7.820023
  O       4.906551     39.347910      8.448727
  O       7.552652     39.217206      8.345293
  O       6.150564     36.943590      8.363147
  O       8.605364     41.594648      8.359424
  O       6.173227     38.499787      6.209924
  O       8.868782     39.985137      6.172057
  Si     11.466691     26.075832      7.788765
  Si     14.125323     24.540240      7.829204
  O      10.120073     25.369887      8.381842
  O      12.823927     25.379506      8.356726
  O      13.892857     23.008081      8.336100
  O      11.398653     25.829163      6.164929
  O      14.137359     24.646112      6.186105
  Si     11.534775     29.250893      7.770334
  Al     11.661469     35.421427      7.724405
  Si     14.294024     33.777914      7.787621
  Si     14.211027     30.727143      7.761317
  O      10.200862     30.011023      8.355891
  O      10.181751     34.597950      8.329602
  O      13.088758     34.615988      8.404543
  O      12.882844     29.949608      8.395190
  O      11.460927     27.667960      8.141565
  O      14.379559     32.214169      8.386558
  O      11.548096     29.462670      6.148630
  O      11.836073     35.016901      6.015475
  O      14.051932     33.567881      6.170658
  O      13.922384     30.866093      6.154697
  Si     11.628932     38.700877      7.756505
  Si     14.389282     40.065413      7.828894
  O      10.269526     39.460046      8.315722
  O      12.982381     39.431866      8.352914
  O      11.602522     37.137205      8.042821
  O      14.652576     41.596494      8.330804
  O      11.710232     39.059766      6.138859
  O      14.405118     39.943008      6.184442
  Si     16.855344     25.977140      7.853024
  O      15.505519     25.212979      8.374046
  O      18.103561     25.098394      8.422443
  O      16.783224     25.985030      6.208483
  Si     16.917252     29.051391      7.742361
  Si     17.077127     35.322184      7.760214
  Si     19.699134     33.722778      7.821762
  Si     19.551312     30.634809      7.827724
  O      15.506780     29.794592      8.054959
  O      15.765294     34.431739      8.087830
  O      18.392519     34.540659      8.360242
  O      18.158504     29.924369      8.309855
  O      16.874269     27.532656      8.352665
  O      19.682436     32.172557      8.355384
  O      17.127040     28.843250      6.122176
  O      17.352686     35.407821      6.138034
  O      19.598100     33.644179      6.180661
  O      19.504112     30.688263      6.181042
  Si     16.992619     38.389341      7.817502
  O      15.694791     39.221881      8.356448
  O      18.450119     38.949894      8.277664
  O      16.950951     36.834945      8.332315
  O      16.873780     38.341092      6.171873
  O      20.729330     29.642015      8.363075
  O      21.117903     34.347366      8.330648
  H       4.074657     24.986772      8.036591
  H       1.410409     29.602015      8.036749
  H       1.410409     35.007985      8.036749
  H       4.074657     39.623228      8.036591
  H       8.948181     22.173255      8.038302
  H       8.948181     42.436745      8.038302
  H      14.277762     22.173204      8.038282
  H      14.277762     42.436796      8.038282
  H      18.960557     24.876228      8.036406
  H      18.960557     39.733772      8.036406
  H      21.624717     29.491420      8.036583
  H      21.624717     35.118580      8.036583
  H      13.233339     34.078677      5.905575
  H      11.029229     34.769688      5.558849
  H       8.980747     32.866839      5.749839
  H       9.864304     30.387254      5.789375
  H      12.344774     29.946905      5.850680
  H      13.954762     31.819167      5.893401
  H      13.537935     39.673974      5.835582
  H      10.854131     39.268573      5.745861
  H       8.061150     39.606374      5.802098
  H       6.065984     37.610605      5.839751
  H       5.244386     35.003405      5.781198
  H       3.482482     32.894428      5.884206
  H       4.184890     30.264568      5.857158
  H       6.014895     28.240070      5.807431
  H       6.936759     25.672073      5.879779
  H       9.583496     24.951630      5.857047
  H      12.239149     25.544842      5.779297
  H      14.944392     25.062083      5.846069
  H      16.939151     26.868533      5.835879
  H      17.794812     29.433377      5.745010
  H      19.528074     31.596337      5.840907
  H      18.905814     34.227436      5.825736
  H      17.160937     36.282141      5.767827
  H      16.080711     38.797477      5.848801
  P      15.715303     37.506726     12.545946
  O      16.618929     33.841277     13.129963
  O      19.347847     32.586246     12.681431
  O      17.791801     31.225708     11.081849
  O      17.100607     36.683180     12.838153
  O      15.099707     30.480905     11.448345
  O      15.438420     38.286083     13.759833
  O      14.724592     36.549437     11.944774
  O      16.209191     38.463793     11.320693
  N      14.949070     32.705401     11.952956
  N      13.154906     31.555743     11.041613
  N      11.279404     32.606217     10.215786
  C      18.537608     33.371837     11.840814
  C      17.371612     32.539731     11.315127
  C      17.844297     34.446247     12.657669
  C      16.351323     32.676355     12.456556
  C      17.562628     35.737931     11.921174
  C      14.239493     33.853837     11.867167
  C      14.457491     31.514996     11.488896
  C      12.990849     33.881078     11.328316
  C      12.439187     32.692735     10.843974
  H      19.123618     33.801853     11.021401
  H      16.965495     33.000022     10.405728
  H      18.435055     34.674343     13.546726
  H      16.404391     31.803098     13.117163
  H      16.835536     35.574086     11.116065
  H      18.496960     36.087870     11.461906
  H      19.314781     31.693163     12.313150
  H      17.003676     30.663013     11.099239
  H      14.695357     34.808237     12.185047
  H      12.490372     34.830597     11.218808
  H      10.855260     33.445259      9.824591
  H      10.973735     31.737928      9.804145
  H      15.576715     38.380106     10.601931
  H      12.867533     30.700978     10.580815
