161
Coordinates from ORCA-job cmp_prot_al_frame03 E -13345.783294761095
  Si          3.45339068197482     33.83953694645061      7.83916326856255
  Si          3.48141197140956     30.74000321146087      7.83723782795358
  O           2.20259004624220     34.66199649381154      8.47607498272605
  O           2.22193761455081     29.92148415084049      8.46601562202326
  O           3.45631046954189     32.28982409925948      8.36898228038519
  O           3.44619949221021     33.84039738527295      6.20004769425192
  O           3.45580368975194     30.81691901347188      6.20193897379150
  Si          6.15714025773779     26.09350367038714      7.82279707916835
  Si          8.84827267780497     24.53720703679720      7.80915734845177
  O           4.84991986794634     25.37551588559349      8.47253605934967
  O           7.51178458466520     25.33038760734003      8.32893415521304
  O           8.81706270052552     23.04255627019251      8.45543226665343
  O           6.12316739023621     26.12308620380836      6.18550955282107
  O           8.80284842590316     24.52089368021888      6.17415129427132
  Si          6.13721689033171     29.17672857645224      7.73222540920444
  Si          6.10268432033310     35.39753199851300      7.69588570120986
  Si          8.86187250055663     33.84514870408698      7.71200752079794
  Si          8.86286960501693     30.76425254190452      7.69188266634618
  O           4.87125711088088     30.01883324721673      8.33113754978572
  O           4.82208674149523     34.59849797482016      8.32682022961462
  O           7.46572034471269     34.61900368532086      8.10582112466946
  O           7.51913337223864     29.95153000371573      8.11950813790350
  O           6.18578769283546     27.65748987258838      8.32463047806180
  O           8.76014143458488     32.28427866707478      8.25673734813420
  O           5.92380516207705     29.12587766749357      6.11106124812224
  O           5.92247422123810     35.48851307319242      6.06870713926247
  O           8.98465817138241     33.77485450481720      6.07446885269977
  O           9.00808160167968     30.83356156102681      6.06607754855635
  Si          6.12411629718401     38.49195411124616      7.67777919815717
  Si          8.85644240353120     40.11052099310383      7.67276283422463
  O           4.94525580597539     39.37014772474507      8.39236695054562
  O           7.54753167355062     39.21020860061757      8.05018718345672
  O           6.16014307044484     36.94206920923965      8.23193029078284
  O           8.58607818700958     41.58276317124415      8.32540311427030
  O           5.92051504861391     38.45047830330601      6.05967188560232
  O           9.11129716943701     40.15422374127664      6.05428529565845
  Si         11.51797124520853     26.08998492834694      7.70890823321748
  Si         14.18310971297874     24.53247871500913      7.78762610996699
  O          10.17772118103879     25.36838322161524      8.30138449620569
  O          12.87338675035653     25.39078825601879      8.28736169928404
  O          13.99761602889659     23.03357440527927      8.39422309081378
  O          11.45987443428166     25.91246175596089      6.08366910072492
  O          14.18576673137154     24.53880096803478      6.14980694525737
  Si         11.54282901679198     29.24986274463325      7.71430211543491
  Al         11.60935644926675     35.38759294200602      7.79412952664746
  Si         14.26500419271461     33.80741487368775      7.81688977731681
  Si         14.21469370572193     30.75246987973924      7.73897829551108
  O          10.18921776782759     29.98812247482276      8.30317434190221
  O          10.10965871578168     34.62433376350454      8.33708532530451
  O          13.06191795430980     34.63146305750087      8.47453254601606
  O          12.89528113685115     29.94814147190582      8.30583646100824
  O          11.49015901934076     27.67358743139771      8.11402007547708
  O          14.35372464746930     32.24625480140663      8.37030567052670
  O          11.51120103528540     29.44042901810690      6.09015807447674
  O          11.78265275130468     35.09034679677697      6.05667319581500
  O          14.04705136942824     33.68921328317710      6.18979531913988
  O          14.01780049654263     30.87980252223553      6.11733039900308
  Si         11.59487456042129     38.64850740532011      7.75054353214126
  Si         14.32452116429258     40.07544571783589      7.85223924150080
  O          10.22807371865975     39.42581899665189      8.23661914367515
  O          12.93255763464482     39.39523809152353      8.39679507545569
  O          11.58548421615219     37.11045131340576      8.16100614335028
  O          14.54174496996680     41.58493613013289      8.42627557672975
  O          11.73886472245209     38.87995752040267      6.12252246530195
  O          14.34097325966509     40.01285645873600      6.21653196090019
  Si         16.90256426763747     26.02841298082870      7.81392908889162
  O          15.54371798527968     25.26641903852197      8.32409352421448
  O          18.17698547025871     25.25513834465836      8.46763432977365
  O          16.88736535004967     25.98750525440392      6.17792758809462
  Si         16.92265284584257     29.11534718358726      7.71542748543982
  Si         17.03221420705108     35.35297195419657      7.70272184089655
  Si         19.68732784717132     33.77685254355052      7.78479326765346
  Si         19.58271153092360     30.67221317563961      7.80630754486243
  O          15.53141337788993     29.86695345991399      8.10344080341056
  O          15.72117349507459     34.50449896573437      8.13710638309657
  O          18.35816872870694     34.59430762641399      8.28981043571052
  O          18.18937918445489     29.95869329192019      8.30687654608447
  O          16.87296215135233     27.59350787579355      8.31053591565300
  O          19.62210484345014     32.22699502316384      8.31882695625106
  O          17.07856726597691     28.97049576393088      6.09259546777492
  O          17.21315173980571     35.39075068634836      6.07572839469969
  O          19.68147038426934     33.72569442620072      6.14816919063026
  O          19.58268675622217     30.64997064434133      6.16842791573651
  Si         16.96379775251674     38.45790500024930      7.79706903011940
  O          15.61540487364744     39.19559272879956      8.38471615597881
  O          18.33420811458075     39.08864259746868      8.40635953976897
  O          16.93507726067509     36.88460236443296      8.27272866512258
  O          16.92438300524853     38.50316846304754      6.16410747162143
  O          20.79810003010606     29.79773221641702      8.44309044802561
  O          21.06143499054158     34.40870027421013      8.38961521108378
  H           4.07465759351475     24.98677207647156      8.03659117768951
  H           1.41040896905136     29.60201497012432      8.03674925619181
  H           1.41040890432870     35.00798504441465      8.03674924592385
  H           4.07465743799669     39.62322796977762      8.03659115956589
  H           8.94818084279555     22.17325470217398      8.03830168761700
  H           8.94818088713391     42.43674527055368      8.03830168438977
  H          14.27776167098843     22.17320386527167      8.03828217677915
  H          14.27776172998697     42.43679616458834      8.03828219143116
  H          18.96055659814288     24.87622775597865      8.03640577630248
  H          18.96055649953152     39.73377215705846      8.03640578291370
  H          21.62471722908722     29.49141993050204      8.03658340814664
  H          21.62471723469085     35.11858007525692      8.03658340987375
  H          13.20356216324721     34.16205139125493      5.94545733782496
  H          11.00029598618835     34.68984951532405      5.66265877431499
  H           8.97353209417449     32.87531525895218      5.71755122182883
  H           9.80310990000050     30.39822373739540      5.71707177680968
  H          12.28634129865994     29.91416631194449      5.74293640163763
  H          14.00276407452113     31.81478387395829      5.83128986447487
  H          13.50883361517242     39.67162283388577      5.84406601265542
  H          10.96404817610333     39.29472749163375      5.71606120223685
  H           8.38649325058443     40.40800384662477      5.47616275967349
  H           5.88400284952768     37.55450596790672      5.69436187202306
  H           5.20177933787919     34.94692207383923      5.71538403225497
  H           3.43440702964657     32.95836645413029      5.80125987510821
  H           4.11621204131364     30.26253638823480      5.76237687631652
  H           6.03802163236646     28.25125155646754      5.71356479579927
  H           6.84204942924698     25.64416945944403      5.75241996650823
  H           9.59452038043357     24.87702763900922      5.74638963576470
  H          12.26700394754676     25.56488122053516      5.68023938258925
  H          14.94971490927842     24.97707829241075      5.75005896506033
  H          17.02091182891252     26.84778696222565      5.75430626772399
  H          17.78623912724700     29.50361518634927      5.70364828074060
  H          19.60931322552058     31.52279519280769      5.75246792958010
  H          18.98177332753601     34.25195688424304      5.73454429031341
  H          17.06907327516640     36.24837225134313      5.65605790658882
  H          16.13018252104185     38.91840087364643      5.79604252484682
  P          10.95067634406045     31.36619277208275     11.98501073100057
  O           9.48226641323242     35.07240821270874     13.17639887382725
  O           6.67684681411082     35.86837987977047     12.61724951083587
  O           8.06203648314657     37.53510746884079     11.13742346941127
  O           9.80862353244411     32.34492922259636     12.59876460759712
  O          10.69899611596062     38.46783146338977     11.33339960181869
  O          11.58973768649461     30.73624913325217     13.16956306486104
  O          11.75398912556117     32.11404778901957     10.97507130245795
  O          10.06160213156575     30.24434186585566     11.22664598444832
  N          11.07923085667935     36.32483627527553     12.00108004659591
  N          12.76384147748134     37.59243829108444     11.04122626564209
  N          14.86602334520425     36.76591625467022     10.63390716167848
  C           7.62048397336265     35.26510948641215     11.76325709682062
  C           8.66598336744441     36.28545537904277     11.31586857795340
  C           8.45041168134243     34.27795652514681     12.55937962336350
  C           9.67433872340379     36.25135333692305     12.47933125200959
  C           9.04212627793816     33.15964773495225     11.73443801451888
  C          11.93848559511977     35.28603330977134     12.10016941699227
  C          11.45749488790402     37.52345431733075     11.45333829882300
  C          13.21943314142072     35.36823345453667     11.67597975233641
  C          13.65492901447981     36.57923608956127     11.10118736678979
  H           7.13028204528384     34.79125004644523     10.90642365721493
  H           9.15137833850605     35.93669048221854     10.39704979585883
  H           7.86205266024292     33.85408413082315     13.37520792338575
  H           9.53686146588160     37.11462697931249     13.13627096831349
  H           9.66743750784742     33.55006038813659     10.92455469062982
  H           8.22648941294196     32.58128830365004     11.28612336154728
  H           6.58309397398672     36.78348783456238     12.31768957933100
  H           8.77763807689688     38.18816552603028     11.09575766007556
  H          11.52996722377420     34.38349773497777     12.53252031797922
  H          13.88626130498183     34.52260034971881     11.74012263562535
  H          15.52495245147858     36.00489860197806     10.64167403424375
  H          15.13804801947822     37.62138858656028     10.17218559951191
  H          10.19284427383503     30.27194540162311     10.26814998157571
  H          13.01351069562110     38.45967712694205     10.57598130202619
