161
Coordinates from ORCA-job cmp_prot_al_frame03_dry E -13345.546667293951
  Si          3.46077202721341     33.85086495448686      7.88089733200789
  Si          3.47546722195116     30.76223213656627      7.91508809080754
  O           2.23288509232879     34.75104194175192      8.46580706897922
  O           2.19591768974732     29.92872494008321      8.49320835938306
  O           3.39632593306560     32.31053132930457      8.42582797612219
  O           3.43762945875435     33.78971568310673      6.23497693437969
  O           3.48815352860541     30.82734810778580      6.26914663718512
  Si          6.14005326605556     26.14904389293330      7.88787793119872
  Si          8.78970532391745     24.55158055726150      7.88497194356155
  O           4.74471958815210     25.53317984376830      8.46343215507853
  O           7.44087708143940     25.31032216372984      8.40763111838511
  O           8.70583322156764     23.01850682864890      8.44137581539443
  O           6.17738938039784     26.14897158456055      6.24031341436710
  O           8.76290210244476     24.61463634504138      6.23985151351374
  Si          6.12778939067264     29.22439383850178      7.80773292991132
  Si          6.09379364473037     35.42899250980778      7.73773948800037
  Si          8.87657500545247     33.87077649090293      7.67346386604128
  Si          8.88700427041558     30.79672963905575      7.73867880917778
  O           4.85564633073263     30.05026207812850      8.41728573963085
  O           4.83403625260515     34.58345164184782      8.34697838119797
  O           7.45769356127080     34.63569582298678      8.03848379625527
  O           7.50513401084773     30.00545483673570      8.11793653841280
  O           6.20983843051778     27.69993997087765      8.38461724559374
  O           8.74196839873334     32.32600864058919      8.24235859515226
  O           5.81363332937155     29.13098400406544      6.19186808647337
  O           5.82513687390330     35.64878305643069      6.12595449213627
  O           9.00424989453328     33.74362526836391      6.03753181833410
  O           9.07660120930969     30.83177112681395      6.10800698347298
  Si          6.17442830170257     38.50573424112537      7.85659627896474
  Si          8.83465082529472     40.07710117466832      7.82849086406853
  O           4.92290938099912     39.38406361976636      8.43774639781165
  O           7.55379593415410     39.22236599711979      8.36153248459356
  O           6.13365324868809     36.94825025097712      8.34111165328414
  O           8.62543513774227     41.59877068775172      8.38678883777057
  O           6.20579944833536     38.52456376176445      6.20979127113933
  O           8.86735840202067     40.00173728277226      6.18264583470026
  Si         11.46747159638713     26.07283198951541      7.79881508078149
  Si         14.14068210676697     24.54318426771879      7.84826382582910
  O          10.12852398426327     25.34236866612233      8.39107262241328
  O          12.83271560630786     25.37361726852672      8.35677626723826
  O          13.92358026546249     23.00990463379744      8.36627946852666
  O          11.39338686417262     25.80047465235839      6.17467940076367
  O          14.17762625518425     24.62445514416256      6.20353306940031
  Si         11.52851547246441     29.25558382866858      7.80172209204596
  Al         11.63627327807172     35.38441580629015      7.77173817751223
  Si         14.27362163284790     33.78774668795229      7.84658843880165
  Si         14.18846394168974     30.74609937117339      7.83728936507609
  O          10.14959620533170     29.94380919757085      8.35851253285417
  O          10.07525146396381     34.73998508941841      8.25748078748077
  O          13.13916747137800     34.73232954992451      8.44693156210524
  O          12.90511024306690     29.89280221340344      8.38400541549674
  O          11.45483560940245     27.65496181147261      8.13694877245326
  O          14.39387006140712     32.24794545927331      8.41630914797700
  O          11.53284643182566     29.47866091504129      6.17133860524502
  O          11.84996685967153     35.05634165353234      6.04824852169470
  O          14.08249760181839     33.64110215717176      6.21889517434380
  O          13.96161922679911     30.87672485495092      6.20972261049330
  Si         11.60262043094474     38.67774478217782      7.80969573380331
  Si         14.34783734396975     40.06502652296989      7.89747370577585
  O          10.25783524098473     39.46292099521922      8.32789354171955
  O          12.97162314369892     39.39145525453142      8.46903827132422
  O          11.61461945106506     37.13156880741029      8.13341043344490
  O          14.58647308012002     41.59888994785481      8.41359196355948
  O          11.75839560297456     39.05604518285474      6.20337044120346
  O          14.35160813411273     39.96550378410037      6.26058098583000
  Si         16.86511327591959     26.00367981049515      7.89257756929757
  O          15.52032419773816     25.22297031464748      8.39702531429929
  O          18.13368026192506     25.14445549379340      8.45844256122905
  O          16.81072232247215     26.02240173181653      6.24706886962026
  Si         16.90388665269631     29.08200688375259      7.81331938683886
  Si         17.06889116764420     35.32169454443867      7.74107973973732
  Si         19.70561674571373     33.73404441783014      7.83122145425240
  Si         19.55656564908192     30.64431190164887      7.86130833175526
  O          15.52504498086385     29.84771524979528      8.14204272640129
  O          15.76129576048397     34.48798326095835      8.16506720854260
  O          18.41164464873152     34.59827554320274      8.33388786423456
  O          18.17786629855301     29.94098140558392      8.37098997490430
  O          16.87775968256010     27.55499692748149      8.40720619383590
  O          19.66240326994831     32.19520068180523      8.37664765540632
  O          17.12180906337134     28.87128656648284      6.19169977121315
  O          17.33051644852547     35.37777245298665      6.11979862494574
  O          19.63857726439464     33.65246514779911      6.18805991691573
  O          19.52778965908795     30.68102305002229      6.21540892037595
  Si         16.96988883567536     38.43516865071624      7.81524449313451
  O          15.64682117037620     39.19794244123087      8.43265859341194
  O          18.37932574230704     39.03856039624983      8.37240450553120
  O          16.93751208738496     36.86863903641900      8.28975891105885
  O          16.86796134538813     38.50191622606764      6.18366876198404
  O          20.76828761137356     29.70805325316737      8.42335767207024
  O          21.12060858115344     34.35796802260320      8.35687330855514
  H           4.07465761009900     24.98677208234025      8.03659117622443
  H           1.41040898121988     29.60201497785645      8.03674925537474
  H           1.41040908138311     35.00798502199606      8.03674924929294
  H           4.07465745148331     39.62322796519566      8.03659115859509
  H           8.94818084431285     22.17325472314320      8.03830168445793
  H           8.94818105076995     42.43674502441388      8.03830168938736
  H          14.27776166734372     22.17320387552114      8.03828217546778
  H          14.27776174067543     42.43679616701330      8.03828218914783
  H          18.96055647262563     24.87622791150874      8.03640578012023
  H          18.96055638547042     39.73377208489568      8.03640577680550
  H          21.62471706115423     29.49142006688131      8.03658341266576
  H          21.62471725071127     35.11858008140621      8.03658340928512
  H          13.26010739755395     34.14478345811205      5.95204806951559
  H          11.05314996141507     34.72247298089505      5.62562372947569
  H           8.98490318286992     32.82470759765067      5.73487194857722
  H           9.88657010589002     30.37511701757289      5.82143321089853
  H          12.33870671173972     29.95022160395789      5.88603447168538
  H          14.00176052013368     31.81683655638144      5.93423471089224
  H          13.48865779546744     39.66295897932760      5.91548651406718
  H          10.91830742886330     39.25982725371477      5.77354456286631
  H           8.07061028893134     39.59569082272778      5.81360705918912
  H           6.06504130509670     37.64238323869141      5.83120476616206
  H           5.18280468467571     35.03707318623847      5.74607311592297
  H           3.45125214418782     32.87993706691950      5.90163592701771
  H           4.18111343228070     30.26360094343543      5.88851009726844
  H           6.00256339444851     28.26475180281225      5.80829484765110
  H           6.94654952902750     25.67799343589174      5.88752943954849
  H           9.59248477178943     24.96104685709321      5.87308743028943
  H          12.23622201613920     25.53533101047709      5.78427800805728
  H          14.97577447496351     25.06257151551578      5.87220909032491
  H          16.94705374632468     26.91515504429669      5.88830499854650
  H          17.76892086956441     29.47255290475012      5.80122923547286
  H          19.56004002420434     31.58278807477321      5.86272881156370
  H          18.93695024181855     34.20618565768146      5.81163451627307
  H          17.00664913134160     36.16419558081035      5.66870668089388
  H          16.06031237522046     38.94268804983450      5.87380304540603
  P          11.56658478503540     31.92291880921957     11.24728624115208
  O           9.43468135458378     35.00321224685668     13.10860897013798
  O           6.65009599782097     35.62802332175161     12.45213279030589
  O           7.98473778086002     37.47282632971537     11.16757219863360
  O          10.29463114949453     32.56808205738331     12.09957586071940
  O          10.75666662817080     38.34979912255439     11.21806462071966
  O          12.75543246641610     32.16531984854088     12.09651062333710
  O          11.45639961237999     32.41247708444331      9.84708176349518
  O          11.20306359137673     30.34511044630078     11.29146377392298
  N          11.07157113676640     36.21617797428780     11.95852475339464
  N          12.78212022678433     37.37811406938973     10.92081420472872
  N          14.82669178947326     36.44138280731524     10.44310331614634
  C           7.65951605501922     35.13903725132145     11.60584752897995
  C           8.65595775299698     36.24852943491608     11.25119876060996
  C           8.53813855460285     34.15987095171888     12.35782801345079
  C           9.65464692858518     36.17481411962539     12.42762742671280
  C           9.27530233041134     33.23084060348157     11.41025654470061
  C          11.89332440957282     35.15327408064768     12.08312826012154
  C          11.47379244463330     37.38099934232661     11.35932720928795
  C          13.16461926154418     35.15678924814763     11.60751934870015
  C          13.61552083159199     36.31437324948201     10.96909158799154
  H           7.23496218327680     34.68983284056178     10.70122679034794
  H           9.15997955769885     36.00369512946585     10.31012323490796
  H           7.97579356731938     33.59685954391492     13.10290156176059
  H           9.53069860835361     37.03844042395349     13.08693857028150
  H           9.69397173596159     33.77995585463795     10.55930764376190
  H           8.53969392596445     32.52877779278510     10.99451022124351
  H           6.47646304734430     36.53334556986817     12.16593701354978
  H           8.64365883157066     38.14557032916167     10.95669354518997
  H          11.47457201095030     34.27338156298996     12.56002174098084
  H          13.72855931637591     34.23380459705930     11.66237140348119
  H          15.32806409233048     35.58885133827543     10.25162837654265
  H          15.04204506297813     37.20405496343126      9.81944680037086
  H          10.65928475954512     30.14560107377817     10.52160431481001
  H          13.02169474335415     38.18637543981580     10.35489214364605
