163
8 Eopt=-23.7324788104 (Eh) Einter=-35.608100 (kcal/mol)
Si 3.55619755661535119629 33.84476441832983084623 7.82276357906559116628
Si 3.55590021878978745917 30.76676464610647698805 7.82284080001643644664
O  2.14725498857336027925 34.47991502280193287788 8.40973852699062973670
O  2.14683493691396343195 30.13191591116947165574 8.40984764455308919651
O  3.71004511188435692759 32.30576445379311678607 8.41280327177722853094
O  3.55520841178463253840 33.84672284761781924090 6.16676352326143017990
O  3.55491063246499727768 30.76472336606896007538 6.16684084242588426150
Si 6.21945438231781722038 26.15150720271167372744 7.82297310009905544348
Si 8.88330597051177406343 24.61424975868971287696 7.82302829431938562266
O  4.81038915050434034981 25.51665845212352579097 8.40997995286066668541
O  7.47536349897745999726 25.24940036884339633616 8.41000349531554292071
O  9.03815422905385190688 23.07524947067784282240 8.41306749231443617987
O  6.21946466330533276334 26.14946602889291327187 6.16697313072611130735
O  8.88331681860640642867 24.61620854781009626322 6.16702821765891417982
Si 6.21975165462365175983 29.22950712357580016487 7.82289630532410917851
Si 6.22034606211154095234 35.38150692778354766688 7.82274214918923682660
Si 8.88419744668372146634 33.84424965363081128089 7.82279787257099723519
Si 8.88390001367546844335 30.76624965853153526041 7.82287494321490584070
O  4.81080926272357611850 29.86465799920168251447 8.40987141287105899323
O  4.81128092750509139819 34.74665786579569726200 8.40974902179855376971
O  7.47625510902891932119 34.47940035286755744437 8.40977287669626427657
O  7.47583501325153321204 30.13140047215097183653 8.40988178600057878498
O  6.37359924844121472631 27.69050700839158807298 8.41293571864333777910
O  9.03904510717166687073 32.30524948668428919518 8.41283741434641285650
O  6.21976243251451599292 29.23146574711260115009 6.16689624428698301983
O  6.22035653984877079381 35.37946534352045802052 6.16674219849465465870
O  8.88420831715801284645 33.84620807794144070613 6.16679779332273003689
O  8.88391051772055995173 30.76420830573997022839 6.16687499503543268276
Si 6.22064342879518417107 38.45950675834437504363 7.82266469655536944572
Si 8.88479196188812103685 39.99624949559968456470 7.82264304854363601294
O  4.81170078685238244987 39.09465713664337016553 8.40963963063507868867
O  7.47672682463173288170 39.36140026735910879552 8.40965003365781704758
O  6.37449096691471961407 36.92050681867221584298 8.41270448560576866726
O  9.03993732918913472929 41.53524933347498659941 8.41260523928812986583
O  6.22065423100549352853 38.46146494236126756050 6.16666464583334139604
O  8.88480247162051384180 39.99420773139710405530 6.16664310109491875522
Si 11.54845425185725993344 26.15099234366346792058 7.82300714946861219801
Si 14.21330584814763398072 24.61373496667212634748 7.82306254160610947679
O  10.13938923588133356191 25.51614299199391311390 8.41001392085842169877
O  12.80436340718073751077 25.24888564905948840078 8.41003767606107111021
O  14.36715408701930485336 23.07473485300152304944 8.41310182164048114828
O  11.54846468573804862956 26.14895110994263305315 6.16700719384172657556
O  14.21231681005729896583 24.61569388600393892830 6.16706248805094148224
Si 11.54875148790892147588 29.22899234872280160857 7.82293028826942915543
Al 11.54934564690833909140 35.38099191961639888859 7.82277622298505104226
Si 14.21419697278938620855 33.84373463396188697061 7.82283192501488944259
Si 14.21389966207937938236 30.76573493275166271133 7.82290910837189201743
O  10.13980915889847622680 29.86414305263768298460 8.40990558632898732583
O  10.14028087653166210202 34.74614300287959167690 8.40978324970134138994
O  12.80525523549605004803 34.47888592386531314560 8.40980713598169060674
O  12.80483486525712422122 30.13088554333415913788 8.40991595880707976107
O  11.70259912253994372122 27.68999209390225857419 8.41296984031981232022
O  14.36804503883618799875 32.30473468644215273571 8.41287137533464246530
O  11.54876230227327482680 29.23095089670318103003 6.16693041378371997752
O  11.54935629728103485547 35.37895058032813011550 6.16677638580037346117
O  14.21320805243716911548 33.84569332972110800029 6.16683184532870942718
O  14.21291028266707101579 30.76369350921534717713 6.16690906580487130384
Si 11.54964335451726498150 38.45899209636268523127 7.82269887463610213985
Si 14.21479182726286438765 39.99573457521935182513 7.82267713164278166715
O  10.14070098467692204736 39.09414297324735798611 8.40967387207525973736
O  12.80572672802918532398 39.36088552936490003731 8.40968416266189677799
O  11.70349091794645346454 36.91999212413570319313 8.41273863148142453383
O  14.36893717998439257144 41.53473451356177292837 8.41263927818611101372
O  11.54965410964486594025 38.46095035134456452397 6.16669881925391738520
O  14.21380227416151953435 39.99369288880158279653 6.16667717620090893860
Si 16.87745391112958870394 26.15047761178526641856 7.82304130710530998272
O  15.46838900001501926340 25.51562837424119578600 8.41004824165001885206
O  18.13336275240978778811 25.24837058574590642479 8.41007176963993785535
O  16.87746415412193456973 26.14843622901996056385 6.16704135713897994009
Si 16.87775124847657437499 29.22847754750856807959 7.82296443432247823324
Si 16.87834565122425445338 35.38047741523624978299 7.82281019317585446515
Si 19.54219697870262706374 33.84322009400005981661 7.82286558160466505285
Si 19.54189955300060788090 30.76522002314728254646 7.82294275396027316560
O  15.46880890839025823880 29.86362827304559885988 8.40993959345881059164
O  15.46928068735317118865 34.74562828011146109475 8.40981725905723820347
O  18.13425471213363593392 34.47837083196134244645 8.40984083311106189740
O  18.13383458491241384536 30.13037081984026599457 8.40994983991122779798
O  17.03159883913689398582 27.68947742560585112415 8.41300387143170702586
O  19.69704456506877576771 32.30421987242491610459 8.41290517238606128103
O  16.87776192511595851897 29.23043613001141238783 6.16696437144224951510
O  16.87835594165050423499 35.37843578664628552133 6.16681025343921174198
O  19.54220750771412795643 33.84517861483028866587 6.16686553297284323349
O  19.54190971173036217579 30.76317844995440609068 6.16694281299868052315
Si 16.87864312820548207128 38.45847738298817120040 7.82273276736777045670
O  15.46970084966589986664 39.09362819624737994673 8.40970792180644721725
O  18.13472626881042870650 39.36037113426564104657 8.40971799181038903725
O  17.03249066669562949983 36.91947736412372194081 8.41277248859975657069
O  16.87865370837173628615 38.46043573972941231887 6.16673271718990800849
O  20.79780841371023569764 29.86311286690655819598 8.40997323975353694436
O  20.79828007413729196173 34.74511392482472871279 8.40985083190676796505
H  4.07465727542028677277 24.98677181953422987704 8.03659113299561589372
H  1.41040896886830857682 29.60201496961763112381 8.03674925613335666696
H  1.41040904608891182193 35.00798497580923651640 8.03674926870394301659
H  4.07465743703328886482 39.62322797166618215670 8.03659115990991956835
H  8.94818084487713427677 22.17325470676118470692 8.03830169185851417524
H  8.94818091687013250635 42.43674533643984148057 8.03830167836516373825
H  14.27776174716493429173 22.17320383821490281662 8.03828218733493926607
H  14.27776172956587785734 42.43679616165211143652 8.03828219224306295132
H  18.96055658482223194028 24.87622777343388236204 8.03640577881718343178
H  18.96055672432705208053 39.73377235802060170045 8.03640575123407963076
H  21.62471702193294120775 29.49141999405568270731 8.03658343663025220849
H  21.62471723316587457475 35.11858007565768957647 8.03658341025977129846
H  13.39922794032049679913 34.28531246584631730911 5.85463177287146052663
H  10.85603169949052393406 34.89218232664707386448 5.71721596417302002635
H  8.79316677387245704267 32.97374190064909527109 5.76219940741846770038
H  9.66357961366325923791 30.35160701515792780469 5.76895568075457099155
H  12.30629749632898395362 29.68608882599507836630 5.77123879985080723287
H  14.17430143508839535116 31.65300280004105815124 5.78286317283309614368
H  13.45700859276813154963 39.52750482842847645770 5.78093078881153843440
H  10.82185198280415505678 38.95872177180827833354 5.76976940753622713487
H  8.14980839549680347034 39.50861002791282317048 5.76627385394599922819
H  6.23194667491543796700 37.58116492068931790982 5.76471310413330773059
H  5.44704955355845488185 34.95093754191222501504 5.77257540971507676630
H  3.60664936325145468743 32.96826993060026467219 5.76388710723013097947
H  4.32819223202043268373 30.34484056075171665157 5.76402041663406894401
H  6.20754699014507416166 28.34935900086891535921 5.76818373955326535452
H  7.00943285892127398995 25.75772182663777698508 5.76748914521046351922
H  9.64047061007246774977 25.06526887584568896727 5.76511829406523812480
H  12.31477063153944939700 25.70825778212070389372 5.77188275757748314732
H  14.95393929743346461692 25.09100721810057876837 5.76597661923425519603
H  16.85170393382130527016 27.02666099270740218685 5.76146800073107367979
H  17.64768340457227324691 29.66420704310305467288 5.77142433894008810569
H  19.48180900502089940574 31.64168672067429000094 5.76490010395505159124
H  18.77140968623845296293 34.27358367920621873282 5.76790924677776040141
H  16.89481965065630220124 36.26079389625920867957 5.76914703365493952703
H  16.09152696943542792951 38.86028470096503184550 5.76951241507950474130
P  12.70450489893951306897 33.88995315121372442491 11.55413193377422942376
O  12.29127173130353689601 33.44048256692255449707 12.94407871990458502864
O  14.20039777414476489525 34.11941189598869783595 11.53028691905740643620
O  12.36351373407624620882 32.74587131784607407781 10.50055149408130716893
O  11.94092103529122361749 35.27605989704021993703 11.20586253609664240116
C  10.78854574660652865248 35.45604109448350982348 11.98508841670524205369
C  9.54857920032463702853 34.94665912657924877749 11.25180109705747355520
O  9.71666071147804188968 33.56973964299939439115 10.88943749022359419598
C  8.20894921437915314755 35.05732108322471418660 12.03688380731947304980
O  7.21454530120703729779 35.63619725861617837381 11.22106958921003716512
C  7.83944890209830980154 33.58975408990099964512 12.37820550750895165493
O  6.44515967443898496470 33.38950730599027849621 12.35779313416473179643
C  8.57351093972334865612 32.79879505817238793952 11.27772828167970153856
N  8.97238201881806318738 31.43359193249546734705 11.65101070716875319988
C  10.25115894821369089129 30.95793966158259280519 11.40184167865412590004
N  10.27161548879287877867 29.67004232922429451946 11.19865577849055426896
C  8.98359232263617890624 29.25026461603566829695 11.30006868229403593773
C  8.40748454998559324736 28.03541177630821223943 10.88680710726953293488
N  9.12573300691888533720 27.08164698245618851047 10.23973428081668402001
N  7.04849751032156568442 28.01042105379396218723 10.96075301746427577143
C  6.30847211071342695021 29.11296551675588517583 11.32471649047224815376
N  6.78361458759093327586 30.28159914328284685325 11.61859312085431916728
C  8.13604338517651370921 30.33509982838561214180 11.60117850358119184762
H  13.10094716547794391204 32.62421580548517852094 9.86910354233339148777
H  10.92121966958874779152 34.92630100090428868498 12.94226522956189739944
H  10.70269747059563592018 36.53276877181282600304 12.20246933924255827719
H  9.46156431055591440327 35.49090185061496072194 10.30070003865453287517
H  8.30633492103033610476 35.67690298769736756412 12.93903917768425948509
H  7.27924245152021498484 35.26481059492425629287 10.30594427789274902807
H  8.21013008942968092185 33.28054674142005353588 13.36578289958754695022
H  6.06489222301664998582 33.84115765993036006876 11.57203580296156530949
H  7.93521161486446313660 32.72056816864662209809 10.38860412320310899759
H  11.09456452802934656177 31.60244191735755237005 11.18931897561171773248
H  10.01477912813870574382 27.29826523212712885424 9.78353845028212809609
H  8.61956221979941261679 26.39539446255544774544 9.67707591174655235022
H  5.23324859871470327022 29.02627552438547553493 11.30459058875811528821
H  6.57645279633608570435 27.21609777041247468787 10.52422442079054754061
