161
14 Eopt=-24.3697190355 (Eh) Einter=-41.901564 (kcal/mol)
Si 3.55619756253392971246 33.84476442300800869134 7.82276357758943241549
Si 3.55590021671380807078 30.76676464397139199036 7.82284079890792138912
O  2.14725494289737284248 34.47991501558220761581 8.40973852803459465122
O  2.14683493724141349901 30.13191591116179068877 8.40984764412493568386
O  3.71004511187246865944 32.30576445453743872349 8.41280327377719494564
O  3.55520841112727836730 33.84672284580431522727 6.16676352323562326774
O  3.55491063268075446757 30.76472336592820155943 6.16684084266317711354
Si 6.21945436474992785492 26.15150721327550797923 7.82297308169857696925
Si 8.88330593264755030702 24.61424963621604433683 7.82302826900726344661
O  4.81038912277284946839 25.51665837301717232322 8.40997994709514351541
O  7.47536351701421519778 25.24940040143477304468 8.41000351554944458599
O  9.03815422367067178300 23.07524947371515722239 8.41306749493760008818
O  6.21946467024913562938 26.14946602835512834417 6.16697313213102127349
O  8.88331682238426623144 24.61620855166422572324 6.16702822325970601014
Si 6.21975165436255483797 29.22950712086567648385 7.82289629931664887152
Si 6.22034606924598154620 35.38150693717785344461 7.82274215160853714224
Si 8.88419746884338756843 33.84424966932495237870 7.82279783301571551846
Si 8.88390008715996160049 30.76624971166888400376 7.82287489346509001820
O  4.81080926540998188301 29.86465800434736905800 8.40987141347800815083
O  4.81128092749835278852 34.74665786623575058911 8.40974902246607136647
O  7.47625510628431655391 34.47940033233738432727 8.40977288504795694735
O  7.47583499660497174943 30.13140045482823836664 8.40988180808417240542
O  6.37359925353318423902 27.69050701127958546977 8.41293571973973541844
O  9.03904502898580020087 32.30524944047145652348 8.41283746406163324139
O  6.21976243181675325644 29.23146574726824198365 6.16689624571723804536
O  6.22035653901506435659 35.37946534230552231293 6.16674219847761495572
O  8.88420830049554766106 33.84620807700108002791 6.16679778926973565234
O  8.88391050787400615718 30.76420829335134143889 6.16687500716187386729
Si 6.22064342767157096858 38.45950675852931510690 7.82266469550603993355
Si 8.88479196178237273784 39.99624949894455028243 7.82264305381004021456
O  4.81170078718379468086 39.09465713671547604235 8.40963963074811537979
O  7.47672682109998554267 39.36140026592264717920 8.40965003270618716158
O  6.37449096754918986818 36.92050681932953182240 8.41270448526390346444
O  9.03993734202606979977 41.53524933959636200598 8.41260523347429689522
O  6.22065423082594826099 38.46146494239799551451 6.16666464609926023854
O  8.88480247315562188248 39.99420772960091596815 6.16664310168953377911
Si 11.54845426638251026930 26.15099233027887493108 7.82300714458465762391
Si 14.21330584615846603924 24.61373496907176416926 7.82306254371988440965
O  10.13938923250571733092 25.51614300355226561123 8.41001392926936652827
O  12.80436339708280790717 25.24888564576271932083 8.41003767379367772605
O  14.36715410296616113328 23.07473485817428837663 8.41310182032619202630
O  11.54846468150154237264 26.14895111134401162190 6.16700719704469157989
O  14.21231681093867749155 24.61569388577251160655 6.16706248806898038595
Si 11.54875150574985553931 29.22899225030751679810 7.82293041678785350257
Al 11.54934586414122144049 35.38099201647321478958 7.82277628001573521743
Si 14.21419713960501240990 33.84373445153374859729 7.82283201182647669469
Si 14.21389991373703054478 30.76573489859397270152 7.82290905961150784265
O  10.13980915144597538813 29.86414305652512979350 8.40990556439748537798
O  10.14028079766746870405 34.74614297745557678354 8.40978324438249913442
O  12.80525521472568506454 34.47888614098103232664 8.40980703366890303130
O  12.80483481236620768584 30.13088563597162305996 8.40991595329808028225
O  11.70259912166168980718 27.68999213132241266067 8.41296980433131125210
O  14.36804482029347340699 32.30473474619077478565 8.41287141151511086434
O  11.54876229905786821917 29.23095091455281391291 6.16693036781033843141
O  11.54935627282991994491 35.37895055984628811530 6.16677640667684645592
O  14.21320803758836959219 33.84569338750233669089 6.16683181342447195306
O  14.21291020169217489411 30.76369351813030306175 6.16690908509417834438
Si 11.54964334019624239147 38.45899208151099202269 7.82269887978089251135
Si 14.21479182196757307111 39.99573458534221970240 7.82267713008238185779
O  10.14070099510526823394 39.09414297407350602498 8.40967387414473499518
O  12.80572674230432106413 39.36088552290925690613 8.40968415105687583377
O  11.70349084112619664211 36.91999209278972671200 8.41273864506796797968
O  14.36893717653387625433 41.53473451210445688275 8.41263927685602652673
O  11.54965410643679923908 38.46095034282688374105 6.16669881339225423034
O  14.21380227628132075779 39.99369288467278238386 6.16667717588167985099
Si 16.87745391936807237698 26.15047761582235352762 7.82304130250869356189
O  15.46838899694574465116 25.51562837203665878860 8.41004824326121891431
O  18.13336275683377607493 25.24837057886276525664 8.41007176689262614389
O  16.87746415374654063157 26.14843622620064778062 6.16704135746297765763
Si 16.87775119366661158438 29.22847756694757137552 7.82296446355376939863
Si 16.87834570335293093990 35.38047743569047298706 7.82281016652877170259
Si 19.54219714846448496814 33.84322009678013642997 7.82286548830330019655
Si 19.54189965288007613253 30.76522003141900540868 7.82294271024367926515
O  15.46880883823421726220 29.86362821571556480649 8.40993955018731931261
O  15.46928065796119255992 34.74562827524818686697 8.40981725174663452549
O  18.13425473693015277377 34.47837083902046373396 8.40984084939206510967
O  18.13383472614904690090 30.13037081184189602823 8.40994983824710651277
O  17.03159883700789833938 27.68947743778051062691 8.41300387902668767026
O  19.69704429103407505863 32.30421986106804865813 8.41290526679089722961
O  16.87776193485039399889 29.23043613635202575551 6.16696436548441351277
O  16.87835593829626645856 35.37843578747518336058 6.16681025435350349539
O  19.54220748427287190907 33.84517863944766702389 6.16686554383790674905
O  19.54190965772304977577 30.76317844034545601062 6.16694281227704621529
Si 16.87864319422081393895 38.45847739202625348298 7.82273272772455907642
O  15.46970085511859771543 39.09362819411135347991 8.40970794408229593841
O  18.13472632749071777880 39.36037114557215943478 8.40971796655408176946
O  17.03249052514578565365 36.91947734690795357437 8.41277253701761296156
O  16.87865370702815326354 38.46043574299664413729 6.16673271967824909723
O  20.79780835996960064449 29.86311291400618728176 8.40997326383086374335
O  20.79828008546051876237 34.74511389885202561345 8.40985084558082185424
H  4.07465742959387267064 24.98677204039422861115 8.03659115474521890121
H  1.41040896893832901071 29.60201496964024414638 8.03674925616851254517
H  1.41040901525895989721 35.00798499173458111500 8.03674926444097614819
H  4.07465743709771732739 39.62322797154638465145 8.03659115993602490846
H  8.94818084938687619001 22.17325471032526706949 8.03830169008047512591
H  8.94818087951241558642 42.43674530215186990745 8.03830168100142827825
H  14.27776169781495774203 22.17320385320795139705 8.03828218843477770861
H  14.27776173164955153538 42.43679616133444909565 8.03828219219245276861
H  18.96055660364744355206 24.87622773804005049669 8.03640578031338748133
H  18.96055651950104703474 39.73377223803318258888 8.03640577788969956430
H  21.62471721413575309612 29.49141990394139867249 8.03658340127766557259
H  21.62471721412540048846 35.11858009309113981544 8.03658340323773501268
H  13.39922793413854940070 34.28531244406607214614 5.85463176648844996208
H  10.85603170601538813855 34.89218232998874213990 5.71721595114611425004
H  8.79316677794245649125 32.97374190270510041501 5.76219940870560876078
H  9.66357961550070676537 30.35160701600080557228 5.76895568267551528407
H  12.30629749900545810704 29.68608881958113343558 5.77123880486185658611
H  14.17430146069822072263 31.65300279908428748854 5.78286316866289862304
H  13.45700859269764038118 39.52750483074603948808 5.78093078824482731193
H  10.82185198544167192836 38.95872177822950277459 5.76976940868676635432
H  8.14980839581562399587 39.50861002879829442236 5.76627385328660047037
H  6.23194667488688835988 37.58116492060331381708 5.76471310412679915913
H  5.44704955328568107831 34.95093754128048857410 5.77257540919713996175
H  3.60664936267957170202 32.96826993050191134671 5.76388710718490493434
H  4.32819223178458134527 30.34484056096369286593 5.76402041658681962844
H  6.20754699041716051511 28.34935899971413064691 5.76818373949925433664
H  7.00943285692391260255 25.75772182372012508722 5.76748914522835587348
H  9.64047061043303976646 25.06526887822401761241 5.76511829255459051780
H  12.31477063307286989868 25.70825778279059647957 5.77188275801103056750
H  14.95393929855410597440 25.09100721843329395710 5.76597661945317341292
H  16.85170393312532510777 27.02666098902964719741 5.76146800030532624248
H  17.64768340415656311393 29.66420704495347493435 5.77142433765439566429
H  19.48180902624230625975 31.64168672182255548364 5.76490010382649220588
H  18.77140967551040517947 34.27358366204546058498 5.76790924702641660815
H  16.89481965397521179284 36.26079389381096262923 5.76914703503947379204
H  16.09152696897684720057 38.86028470106099774739 5.76951241543747883611
P  11.42050100874044105126 32.11523036423702848197 11.17312150974328766040
O  12.80467925314843036233 35.45291757649992092638 12.93236400820578069215
O  11.96454613477776973696 38.24411509025108557580 12.02701920317984196629
O  14.41526816533122712372 37.93003521864640248396 11.03299368867821250717
O  11.27952541516107665132 33.44782838832673377283 12.06703790674703213881
O  16.63781269076543267715 36.19266383630952077510 11.53251348783120988628
O  12.45550252588321171743 31.21225340461847608253 11.80744912792026823922
O  11.80422729410978277542 32.47533710160964659508 9.75585863295479427393
O  9.95496649928971777399 31.48396122741214853136 11.08099834018923779411
N  14.86403410921334078409 34.78163385187145451027 11.86377305781380542271
N  16.88669021354113652933 34.00433045009799570835 10.93500529543335986205
N  17.03766872196838022546 31.80383599486503953813 10.08353474319336839926
C  12.12082349460941621544 37.04979773613423077450 11.30000825509567619065
C  13.61983866473865312230 36.76803473053949744553 11.06663713670155857471
C  11.67532401836559330377 35.81633472486703340110 12.13418473288873755678
C  14.00905167931057349051 35.88544099599629078057 12.28066047788038162025
C  11.26129280934910426026 34.60467552656655954024 11.28085202915794837963
C  14.33293905463466444417 33.53205594682383861027 11.74555643723027209546
C  16.17083224288289500237 35.06679347303423099902 11.45794192042932735376
C  15.04473635481608617681 32.51925272379272513490 11.19680767911678742621
C  16.35006787156692098506 32.75620132172213772037 10.75677248744787561918
H  11.55845516865216637825 37.15062958970182904750 10.36136374139101690162
H  13.77334610249763713341 36.21326798193888407695 10.12654050155958884716
H  10.88017496440754072751 36.09446601295548617827 12.84044719584570515281
H  14.55946645264841521339 36.48902079189393532488 13.01391775366932890279
H  11.98353242620083491943 34.44863847988447247417 10.46163138997478370129
H  10.26165876754908268254 34.72016534215490679571 10.83141712878848750279
H  12.62546389561411075420 38.88995450805968800978 11.69140496097711690027
H  15.34390657126927592913 37.61408965753945210508 11.09865262000196928227
H  13.31891618984691660899 33.38489981222113556214 12.07406105775843840888
H  14.58675613362395218076 31.55557204283821448598 11.04545964805540947395
H  16.54553982193686323399 31.03672069532835564587 9.62250692334812285367
H  17.91493668180969223158 31.98985376342454145515 9.59548316364976372483
H  9.61064903803477399435 31.71104348848544418615 10.19154326433003454611
H  17.78409151258426490472 34.21386547131579902725 10.50759441350690437389
