161
8 Eopt=-24.3699022310 (Eh) Einter=-42.016521 (kcal/mol)
Si 3.55619755863203934609 33.84476441890983267058 7.82276357945060496490
Si 3.55590021722260729575 30.76676464326036963826 7.82284079857577996364
O  2.14725499619943605012 34.47991502070209435260 8.40973852945348632204
O  2.14683493715932627310 30.13191591101904620587 8.40984764412454310900
O  3.71004511094804900750 32.30576445336239999051 8.41280327247078218988
O  3.55520841133318388216 33.84672284734259051220 6.16676352337528577152
O  3.55491063267015849902 30.76472336585200650916 6.16684084264686838139
Si 6.21945436131795137413 26.15150720516619387013 7.82297308153352499716
Si 8.88330595010823387270 24.61424971117101989648 7.82302827306830916854
O  4.81038912292875053822 25.51665837095051259098 8.40997994593657693940
O  7.47536352398720005397 25.24940041182381378349 8.41000351787840116913
O  9.03815422688385616823 23.07524947551650029709 8.41306749373446116635
O  6.21946467118774481975 26.14946602951944498727 6.16697313197058338829
O  8.88331682572123426667 24.61620855339188551625 6.16702822417225782203
Si 6.21975164933630075836 29.22950713422944346576 7.82289629830005761590
Si 6.22034606748314988778 35.38150693539473934379 7.82274214860917371794
Si 8.88419746491674011679 33.84424964832817295246 7.82279782569667503367
Si 8.88390010031347898689 30.76624971232021366063 7.82287493449650739308
O  4.81080926564083632968 29.86465800467266618057 8.40987141348396249896
O  4.81128092633962900493 34.74665786542141177051 8.40974902231628185234
O  7.47625510271101845206 34.47940034169405976172 8.40977289228607816085
O  7.47583500630162678391 30.13140043787080557536 8.40988180407301477715
O  6.37359925288094775198 27.69050701010930737311 8.41293572127763056301
O  9.03904501302054264045 32.30524948280952202140 8.41283744031895786009
O  6.21976243107551240996 29.23146574670271036211 6.16689624609075348616
O  6.22035653828978141178 35.37946534288037270244 6.16674219821515912088
O  8.88420829792274346914 33.84620807243987883339 6.16679780484127437745
O  8.88391050795921266570 30.76420830358343039279 6.16687499465606858706
Si 6.22064342844105677699 38.45950675796345308299 7.82266469578648759864
Si 8.88479196222388090121 39.99624951765031966033 7.82264309529682844158
O  4.81170078709550530505 39.09465713699484723520 8.40963963095747146781
O  7.47672681906010261343 39.36140026960430304825 8.40965003280668987884
O  6.37449096687471428169 36.92050681813254442432 8.41270448530613101923
O  9.03993734148703964593 41.53524934077036334656 8.41260523013254335467
O  6.22065423097579639489 38.46146494233296664333 6.16666464596865449010
O  8.88480247636406517131 39.99420772679463453869 6.16664310223622802454
Si 11.54845426820354248321 26.15099232497467340863 7.82300714552538423163
Si 14.21330584697013144080 24.61373497043885194557 7.82306254412718349300
O  10.13938923365706834545 25.51614300795914402897 8.41001392865869412674
O  12.80436339680842827704 25.24888564408477265033 8.41003767266387747270
O  14.36715410305020412807 23.07473485840372973144 8.41310182043080523329
O  11.54846468088808464358 26.14895111124269178049 6.16700719654479101450
O  14.21231681096411847420 24.61569388565984795036 6.16706248837670223395
Si 11.54875151503051178281 29.22899229161833645207 7.82293042136477634330
Al 11.54934603540427850987 35.38099218078379237795 7.82277612547309431079
Si 14.21419723088713027437 33.84373491672867828584 7.82283189246759835811
Si 14.21389987453050274269 30.76573487487084435088 7.82290902576824009884
O  10.13980913532466487936 29.86414302122386033034 8.40990554911803478433
O  10.14028080548215271506 34.74614299947553064385 8.40978334028470264627
O  12.80525490584970249586 34.47888554235966296346 8.40980702592881179669
O  12.80483482527375116433 30.13088560543354788024 8.40991593827245509374
O  11.70259911719639767114 27.68999213072613940767 8.41296981186169290368
O  14.36804481147563805621 32.30473469931097696417 8.41287150377657511058
O  11.54876230012337678943 29.23095091265750511411 6.16693036977795827625
O  11.54935625562413825662 35.37895056399509741141 6.16677642854345897661
O  14.21320800267741901735 33.84569329612700272492 6.16683185965549540697
O  14.21291019218848283856 30.76369351727725387491 6.16690907972135171633
Si 11.54964292652381807613 38.45899215807946802670 7.82269968524553060973
Si 14.21479134758522810955 39.99573498830023510209 7.82267700305485025325
O  10.14070106562208550827 39.09414293700753262328 8.40967358342719428776
O  12.80572718792317843395 39.36088523292873730952 8.40968394240974248532
O  11.70349094905061804184 36.91999215626035635296 8.41273849021354180877
O  14.36893732245069621456 41.53473444815718806922 8.41263931666652453600
O  11.54965416470534478321 38.46095035149241425643 6.16669857547116162522
O  14.21380241141846134667 39.99369274421323439128 6.16667725672220878863
Si 16.87745391209199397053 26.15047761211658183811 7.82304130646464201959
O  15.46838899843423575931 25.51562837299112374012 8.41004824142527418473
O  18.13336275204827074958 25.24837058556847324553 8.41007177002618000472
O  16.87746415398294175247 26.14843622896680130907 6.16704135710582601604
Si 16.87775122915904546517 29.22847752382655528436 7.82296442133537262009
Si 16.87834586148402848949 35.38047760205074609985 7.82281000017857408579
Si 19.54219700074079568708 33.84322013987110011612 7.82286559652049007241
Si 19.54189956705631203704 30.76522001777290427071 7.82294276095017249162
O  15.46880890561343235845 29.86362830794945466550 8.40993960610092727848
O  15.46928068838153969011 34.74562810969649717663 8.40981735451956069483
O  18.13425466616483205939 34.47837076006763368241 8.40984080634792796616
O  18.13383458963271976927 30.13037082421566736912 8.40994984820277657889
O  17.03159884080756825142 27.68947742963855418452 8.41300387075141564708
O  19.69704457111051354445 32.30421987580781717497 8.41290517268786786076
O  16.87776192955042731114 29.23043612874505114974 6.16696437390293183967
O  16.87835592338966961279 35.37843574049038153362 6.16681028735615122116
O  19.54220750100330761256 33.84517860518794662994 6.16686552815880251188
O  19.54190970924294390443 30.76317845037942788622 6.16694281202301919365
Si 16.87864343996303162498 38.45847742532794200088 7.82273258382974301384
O  15.46970091171740513403 39.09362809191915744123 8.40970803697387481179
O  18.13472630363966331402 39.36037109863541161303 8.40971796961445328122
O  17.03249023171715847980 36.91947736413028735569 8.41277269868263388730
O  16.87865366330297689501 38.46043571220580048475 6.16673274998456655283
O  20.79780834029147484898 29.86311288070275082873 8.40997325107481685791
O  20.79828007139001755377 34.74511392315253033303 8.40985082805873496170
H  4.07465742946577869077 24.98677204211078972662 8.03659115486739672463
H  1.41040896899484913263 29.60201496974809032281 8.03674925621111491125
H  1.41040900969541738164 35.00798498589069396303 8.03674926231058250892
H  4.07465743697257831712 39.62322797153935027836 8.03659115984984495640
H  8.94818084739162600272 22.17325470675985599200 8.03830168963732027976
H  8.94818088060886829282 42.43674530200595285123 8.03830167982129140114
H  14.27776169774009495939 22.17320385312009989320 8.03828218836939711878
H  14.27776166157824278002 42.43679617710320428614 8.03828216910738291290
H  18.96055658745384420172 24.87622777050335542981 8.03640577870167227559
H  18.96055651435242950242 39.73377225995225359156 8.03640576397105022011
H  21.62471722961079834135 29.49141993064534261748 8.03658340864679665572
H  21.62471723411741564291 35.11858007523747460255 8.03658341111227692011
H  13.39922796202325550041 34.28531247407957494033 5.85463176812987740050
H  10.85603171065517180693 34.89218232715580114700 5.71721595174765528924
H  8.79316677831883630745 32.97374190366603130542 5.76219940598976698709
H  9.66357961338108495397 30.35160701027398388874 5.76895568280961512642
H  12.30629750350871809417 29.68608882193746367761 5.77123880577427605942
H  14.17430146428681148052 31.65300279190562449116 5.78286317013078665639
H  13.45700854380636535268 39.52750486539162011468 5.78093078522602965563
H  10.82185197475531168720 38.95872176733782765723 5.76976943592904412128
H  8.14980839647493304767 39.50861002806309585367 5.76627385298785810619
H  6.23194667479382946595 37.58116492075328807232 5.76471310411715975874
H  5.44704955409644764330 34.95093754152175336003 5.77257540962825110853
H  3.60664936332348329273 32.96826993084730617056 5.76388710717230701164
H  4.32819223175886413912 30.34484056097151949416 5.76402041661728770094
H  6.20754699139457333246 28.34935900027751998209 5.76818373920147386968
H  7.00943285663111925743 25.75772182338807425594 5.76748914514110566643
H  9.64047060874938566144 25.06526887692936611529 5.76511829262485875347
H  12.31477063356954460005 25.70825778338914702204 5.77188275798632233204
H  14.95393929820231804229 25.09100721816516355034 5.76597661929644811352
H  16.85170393377745057251 27.02666099273565691874 5.76146800080749432738
H  17.64768340225583287406 29.66420704514192507872 5.77142433807907995202
H  19.48180900589228770059 31.64168672139481230943 5.76490010412633768766
H  18.77140968988767966152 34.27358367956119167275 5.76790924693256634725
H  16.89481965692982257110 36.26079390342557928761 5.76914703617864610408
H  16.09152697684962163294 38.86028473404174121697 5.76951241169220274685
P  13.86614455526904166049 37.18434791662982519256 11.17759542444036213737
O  16.23690184761074561948 34.47600826984490396399 12.93802004849151288113
O  19.12880339543470853414 34.01858811834541285180 12.00683497689341372450
O  17.75274274598894663768 31.96958066032723522198 11.00106517696699626185
O  15.13874991263675084952 36.79187301379305097271 12.09469116877776784236
O  15.18890359298525005727 30.74574737543296620856 11.46215502608394487538
O  12.61913254385715887906 36.60260079187788306854 11.80007155043576361209
O  14.08715415853072094876 36.66690049194949807543 9.77322509272760342469
O  13.80247918245523308656 38.77636458306063360624 11.07822529443247283609
N  14.72558824285926526443 32.95403524165239161903 11.83227305017425479150
N  13.10598193289813906404 31.50617909464957122623 10.90877256296132458147
N  11.06518999426159588495 32.39275799195835503497 10.07936131857417549895
C  17.97478447598539830210 34.41636663460603529074 11.30528398291662206532
C  17.06196058578166940833 33.19654295067459059965 11.05088527217004390479
C  17.06923778117290169121 35.34280869102453692676 12.16269531894029753971
C  16.09281083470768436428 33.21730966348690827772 12.26042381054266883211
C  16.18257276646446740642 36.27322748565095622553 11.31811936256344708340
C  13.84911621714947926876 33.99071752448828220849 11.73438770263096131430
C  14.38656244117629157131 31.66461075190371232679 11.41282346308070927421
C  12.61961606059469431784 33.81655356556110803012 11.19485639333400506246
C  12.23324554859414803332 32.55115765883014233850 10.74685263067305207585
H  18.29456791527691805754 34.90540026782585414367 10.37442129921870304088
H  16.50233989612956975179 33.31563711216298884210 10.10858653138116380887
H  17.67098969084739223945 35.91406084521045727342 12.88316702086357423696
H  16.38356928047562632855 32.44098452360361761748 12.98017234668317243518
H  15.72304623570357406948 35.70275661684414103547 10.49254195712189563494
H  16.74265928144725634752 37.10996043133616240084 10.87028315217609630849
H  19.39545453351997750246 33.13541925149959155306 11.66722751017476333857
H  17.06015824568723360244 31.27329233008869380228 11.04409870274379201760
H  14.17458260235772726787 34.95795864651005047108 12.07587170064880410791
H  11.96472345739780429597 34.66200747917841340495 11.06021472403034167087
H  10.61583058755271835594 33.19484436965583995516 9.63355665784152215281
H  10.79399466658496464788 31.53610229068466352942 9.59752524262970929669
H  13.44303056926574946317 38.99168570579556103439 10.19305999554384634109
H  12.88069552919930060852 30.61115816527032151839 10.48409076994644806291
