126
Coordinates from ORCA-job flower_ring_al_geom E -11887.665655751709
  Si          3.56128208225376     33.84466141701748      8.35017481210873
  Si          3.69332291039914     30.83473670802184      8.44025113828879
  O           2.28225929665463     34.52339534634179      9.07788908588936
  O           2.50522758707097     30.10230065410077      9.26390113329123
  O           3.69890379856428     32.36007461554885      8.98707060781926
  O           3.41592370661099     33.73864122223343      6.72029459329723
  O           3.41928592772696     30.86257071874833      6.82501906388410
  Si          6.24192869963391     26.36857088202325      7.41856968150043
  Si          8.95101552566889     25.02046356572816      7.28502238084165
  O           4.84597785836645     25.62294764676809      7.76479511331404
  O           7.51711419114337     25.47822297039928      7.88571642047916
  O           9.22755304436612     23.44976422518550      7.58149634374542
  O           6.37847173548291     26.73049695561651      5.82716924335502
  O           8.89578547497410     25.39945020145866      5.69268680169113
  Si          6.24472404628969     29.32672191688755      7.87583455803654
  Si          6.21352222286606     35.11245364736172      7.78290190201365
  Si          8.89207615345371     33.62625663795331      7.76106407380906
  Si          9.05437577421169     30.61784941262314      7.76726232141963
  O           5.13559467754612     30.14162206229661      8.72677658540960
  O           4.88948537167376     34.73296039842606      8.64354651602267
  O           7.35664520098049     34.03743304701720      8.13128796752799
  O           7.69617026307440     29.90519491215280      8.26650728598635
  O           6.19371369168646     27.75454288643007      8.26257099010305
  O           9.09367778484806     32.11859862096053      8.36121189110790
  O           5.88246573497238     29.54381556086022      6.29569623613646
  O           5.85593109951387     35.16028834872105      6.18757633423666
  O           9.07640150825131     33.57402662341231      6.12835265442560
  O           9.10388033875078     30.66838878763040      6.13300089380818
  Si          6.55612928201125     38.04074307814226      7.46563792941655
  Si          8.94043150814310     39.91686467897443      7.36820453016280
  O           5.07174763594270     38.56187184802784      7.87112261796016
  O           7.69583974393656     39.06737411275034      7.98523751429339
  O           6.72918520724819     36.59860752553776      8.19025290265131
  O           8.73353096317645     41.50734227672044      7.61979917905593
  O           6.78895309041789     37.91765638525874      5.84770251704780
  O           9.10503342411286     39.54329710502061      5.78027129094311
  Si         11.65427187707749     26.23025102579794      7.59036754315420
  Si         14.16964863047977     24.63515219067247      7.89863790341658
  O          10.14781109241203     25.82626909129716      8.02941217256688
  O          12.72665761603026     25.25693970193421      8.31784100415588
  O          14.27002523298816     23.10035244271106      8.40878009157475
  O          11.74101854113349     26.07648266463717      5.96764821952138
  O          14.29539080214827     24.80346874624389      6.27332214966562
  Si         11.74514184831940     29.30497424785230      7.74743244276047
  Al         11.38587512868798     35.42088182662012      7.86428027303906
  Si         14.03317641504159     33.97837435944360      8.01126382499731
  Si         14.20967049159899     30.99953559913001      7.91632807679510
  O          10.31303049668321     29.77262366748922      8.34563144020514
  O           9.91113228301440     34.65970271381769      8.40136254364629
  O          12.78615513080323     34.72306795047621      8.65958073498819
  O          12.94686314017846     30.12584112219512      8.45396787719210
  O          11.94198273565000     27.74012928906409      8.08226207699311
  O          14.21044113310072     32.45770426865128      8.60478573508306
  O          11.73122323677527     29.58168414698050      6.13560518536140
  O          11.60983724409584     35.10850541800121      6.13515587733812
  O          13.87176660813406     33.84030262039271      6.38144563417302
  O          14.08791368582517     31.12972387491624      6.28983704577897
  Si         11.58270886248133     38.58805353303354      7.74835688592972
  Si         14.28755562474455     39.91495916919243      7.97335794464273
  O          10.32028048052890     39.55566066842785      8.12869955568989
  O          12.91182637179135     39.21321016948824      8.46047747240399
  O          11.31848098957227     37.11082255507863      8.24593924379227
  O          14.45020648140162     41.40754422476502      8.59205030946402
  O          11.86848166626682     38.71206666002796      6.12684544186919
  O          14.35775835993344     39.89771117580882      6.33482563160872
  Si         16.69288024430252     26.25648859189328      8.17816851855394
  O          15.37671750043777     25.42813817347656      8.63328307838759
  O          17.92388398188836     25.53508337368995      8.94699991644322
  O          16.81541135175660     26.16613639135573      6.54657646093075
  Si         16.77378299443899     29.25788004792234      7.91729245460725
  Si         16.81453165788513     35.34722696011643      7.86413195443880
  Si         19.32387759271170     33.70976412709837      7.75313610935782
  Si         19.40067051975127     30.68509639843454      7.73727054549635
  O          15.55546538979329     30.21916345319178      8.34309199505775
  O          15.41568355864324     34.75379763606667      8.37756977828414
  O          18.00431026902779     34.38562361629555      8.40644913001444
  O          18.15680322772188     29.91745627946148      8.44411664878896
  O          16.54811955555789     27.81529193617683      8.61676685860226
  O          19.52664310005344     32.19907738896252      8.31153958640258
  O          16.83927813038333     29.00071972175175      6.30327283457991
  O          16.94221806418716     35.38974725023887      6.23332217135258
  O          19.14632404932255     33.56916287147116      6.12904254701878
  O          19.12908148123904     30.73669718615719      6.12245639009107
  Si         16.85755333831489     38.35174009743525      7.90085878016802
  O          15.56986130307940     39.09559505543515      8.54225929012071
  O          18.14770042287525     39.23202420954769      8.34021048676653
  O          17.00486044740877     36.83953706661220      8.47556168153059
  O          16.67696731176870     38.21934085613091      6.27590038706218
  O          20.70434234545470     29.80245667191238      8.12105786614890
  O          20.57331412413886     34.64283305924471      8.19980169948632
  H           4.69638590173190     24.75164627265286      7.38644271469123
  H           2.36374266442937     29.16357638159922      9.11076182232281
  H           2.14914310362344     35.46919080041211      8.96807971428282
  H           4.78227183237412     39.40786148742571      7.51686373396606
  H           8.61315393015922     22.80594720053733      7.21673402007152
  H           7.92437260278233     41.90795859783920      7.28937571691168
  H          13.54620837492535     22.50529911160071      8.19325395767534
  H          13.75132190095560     42.04126194350578      8.40616492151065
  H          18.79799044205039     25.92681103226236      8.86146481523873
  H          19.02019794820885     38.86079349799582      8.18023262443160
  H          21.56371188227688     30.12875489430360      7.83849769313645
  H          21.46129774706366     34.34095026750918      7.98772718965304
  H          13.01330089715551     34.27782302169519      6.09839497254208
  H          10.87345228260212     34.61441038436839      5.75495101277257
  H           9.01785454349169     32.68386122350206      5.75193182617437
  H           9.94192555950018     30.34640735570501      5.76131887519503
  H          12.48974713443940     30.10709496305526      5.82561204834916
  H          13.99805034724807     32.06849540911848      6.01634448642641
  H          13.54282975004583     39.54462036363564      5.93137142036990
  H          11.07889688748851     38.90750898609276      5.60156395575003
  H           8.42548250790308     38.93785108764553      5.44225741929358
  H           6.45066594976459     37.10379707989658      5.44958327111624
  H           5.04699095706699     34.67988998138829      5.95226495676687
  H           3.29284635314153     32.83397362191494      6.39085850364809
  H           4.11621186455285     30.43837188396594      6.29761211701407
  H           6.05216534884174     28.77301066748924      5.73253721783263
  H           7.20517824798424     26.42549426466142      5.41965552608371
  H           9.75552511228462     25.55567759351773      5.27800254327491
  H          12.58571381521804     25.72081483668363      5.65016527870895
  H          15.13643103980697     25.18890532825155      5.97947370378543
  H          16.88692516806059     27.02958688626206      6.10707192500999
  H          17.48740297111244     29.55134262537378      5.83619629252182
  H          19.04897387565765     31.63890667757560      5.76912692197831
  H          18.49921482000495     34.18283278182337      5.74689820410361
  H          16.80054514089268     36.27178979918615      5.85307426154383
  H          15.95296135521036     38.75894105982287      5.91751500357159
