34        
cmp
P 3.802300 -1.441500 0.055400
O 0.375700 0.968400 -1.110300
O 0.462100 3.866800 -0.347700
O -1.582900 2.909600 1.182000
O 2.845800 -0.233000 -0.542500
O -3.687900 1.012500 -0.566200
O 4.248800 -2.197300 -1.192500
O 2.882900 -2.244800 0.970800
O 4.933400 -0.716700 0.778900
N -1.607300 0.058700 -0.270700
N -3.653800 -1.208600 -0.100000
N -3.612100 -3.483700 0.379900
C 0.728100 2.714300 0.451400
C -0.564600 2.007600 0.800400
C 1.427000 1.685600 -0.427000
C -0.884400 1.278400 -0.493100
C 2.251100 0.678800 0.364300
C -0.893600 -1.097200 0.006000
C -3.023200 0.003300 -0.324600
C -1.481400 -2.271800 0.226100
C -2.965900 -2.289400 0.159500
H 1.304400 3.038400 1.321800
H -0.392600 1.309700 1.628700
H 2.047700 2.150200 -1.201600
H -1.456300 1.913100 -1.180400
H 1.649700 0.126400 1.090200
H 3.044800 1.200400 0.909500
H 0.043700 3.586800 -1.178700
H -2.398400 2.394400 1.303600
H 0.183200 -1.048800 0.042500
H -0.930700 -3.177700 0.441300
H -3.106300 -4.339600 0.582900
H -4.624100 -3.542300 0.343800
H 5.471110 -0.231260 0.133830
