34
Coordinates from ORCA-job cmp_geom E -1457.660875410556
  P       3.802300     -1.441500      0.055400
  O       0.375700      0.968400     -1.110300
  O       0.462100      3.866800     -0.347700
  O      -1.582900      2.909600      1.182000
  O       2.845800     -0.233000     -0.542500
  O      -3.687900      1.012500     -0.566200
  O       4.248800     -2.197300     -1.192500
  O       2.882900     -2.244800      0.970800
  O       4.933400     -0.716700      0.778900
  N      -1.607300      0.058700     -0.270700
  N      -3.653800     -1.208600     -0.100000
  N      -3.612100     -3.483700      0.379900
  C       0.728100      2.714300      0.451400
  C      -0.564600      2.007600      0.800400
  C       1.427000      1.685600     -0.427000
  C      -0.884400      1.278400     -0.493100
  C       2.251100      0.678800      0.364300
  C      -0.893600     -1.097200      0.006000
  C      -3.023200      0.003300     -0.324600
  C      -1.481400     -2.271800      0.226100
  C      -2.965900     -2.289400      0.159500
  H       1.304400      3.038400      1.321800
  H      -0.392600      1.309700      1.628700
  H       2.047700      2.150200     -1.201600
  H      -1.456300      1.913100     -1.180400
  H       1.649700      0.126400      1.090200
  H       3.044800      1.200400      0.909500
  H       0.043700      3.586800     -1.178700
  H      -2.398400      2.394400      1.303600
  H       0.183200     -1.048800      0.042500
  H      -0.930700     -3.177700      0.441300
  H      -3.106300     -4.339600      0.582900
  H      -4.624100     -3.542300      0.343800
  H       5.471110     -0.231260      0.133830
34
Coordinates from ORCA-job cmp_geom E -1457.679752705544
  P       3.775011     -1.430665      0.078083
  O       0.357982      0.960345     -1.110298
  O       0.454890      3.900533     -0.349531
  O      -1.560173      2.881787      1.212798
  O       2.835684     -0.228227     -0.540755
  O      -3.608745      1.021380     -0.512787
  O       4.233755     -2.214952     -1.129738
  O       2.932874     -2.180202      1.085751
  O       4.939439     -0.674066      0.772964
  N      -1.599594     -0.004623     -0.260665
  N      -3.646130     -1.204167     -0.099066
  N      -3.641021     -3.449898      0.344432
  C       0.728469      2.728262      0.411653
  C      -0.546230      1.994231      0.801800
  C       1.421442      1.680958     -0.447541
  C      -0.885939      1.236764     -0.479099
  C       2.270140      0.713865      0.351502
  C      -0.909873     -1.158511     -0.001923
  C      -2.995495     -0.021676     -0.309162
  C      -1.529758     -2.325317      0.207665
  C      -2.976327     -2.301420      0.144433
  H       1.318251      3.049536      1.268624
  H      -0.329512      1.290007      1.613583
  H       2.028507      2.140787     -1.229134
  H      -1.495446      1.855845     -1.141724
  H       1.677064      0.190881      1.108471
  H       3.066338      1.265843      0.866215
  H       0.025383      3.649009     -1.173494
  H      -2.358560      2.363302      1.364825
  H       0.168649     -1.110169      0.019907
  H      -0.998397     -3.244134      0.407696
  H      -3.157925     -4.309578      0.533217
  H      -4.645969     -3.472635      0.306959
  H       5.487522     -0.213352      0.121871
34
Coordinates from ORCA-job cmp_geom E -1457.687947354766
  P       3.692122     -1.455879      0.097735
  O       0.332797      0.968201     -1.117200
  O       0.468379      3.928278     -0.340042
  O      -1.547376      2.891914      1.218312
  O       2.798980     -0.242649     -0.538062
  O      -3.563049      1.031353     -0.427701
  O       4.150070     -2.262375     -1.071572
  O       2.928725     -2.117576      1.196985
  O       4.908895     -0.688462      0.772694
  N      -1.581947     -0.037566     -0.248929
  N      -3.617135     -1.206290     -0.074466
  N      -3.610470     -3.447562      0.311973
  C       0.725047      2.740221      0.379855
  C      -0.546918      2.005116      0.794205
  C       1.406755      1.673347     -0.464582
  C      -0.891236      1.225394     -0.478151
  C       2.263239      0.727596      0.339914
  C      -0.888731     -1.174088     -0.018808
  C      -2.973923     -0.033991     -0.252311
  C      -1.518156     -2.346482      0.186187
  C      -2.937854     -2.318820      0.136967
  H       1.325966      3.043358      1.235648
  H      -0.300827      1.289554      1.588617
  H       2.010805      2.128730     -1.250925
  H      -1.547086      1.820678     -1.115464
  H       1.669171      0.237297      1.119387
  H       3.062389      1.296751      0.829527
  H       0.020074      3.710468     -1.163030
  H      -2.347654      2.382487      1.380121
  H       0.190184     -1.096004     -0.028522
  H      -0.978294     -3.265266      0.360708
  H      -3.133071     -4.314603      0.477592
  H      -4.615094     -3.448255      0.278377
  H       5.481536     -0.265134      0.122489
34
Coordinates from ORCA-job cmp_geom E -1457.689625382682
  P       3.597138     -1.489364      0.121089
  O       0.342229      1.001742     -1.137716
  O       0.488817      3.961836     -0.311487
  O      -1.574509      2.911125      1.170216
  O       2.769635     -0.242662     -0.523401
  O      -3.547640      1.036360     -0.245213
  O       4.016946     -2.319998     -1.037357
  O       2.836097     -2.079318      1.253730
  O       4.866021     -0.761808      0.787695
  N      -1.558170     -0.043262     -0.276908
  N      -3.582087     -1.218980     -0.009369
  N      -3.556842     -3.470534      0.337756
  C       0.715545      2.757599      0.382046
  C      -0.569499      2.025200      0.768758
  C       1.406786      1.695820     -0.462984
  C      -0.886064      1.236058     -0.507880
  C       2.256732      0.746694      0.346079
  C      -0.848107     -1.174976     -0.092881
  C      -2.955950     -0.044817     -0.209604
  C      -1.464909     -2.355368      0.127410
  C      -2.885252     -2.336867      0.149869
  H       1.304249      3.032304      1.257592
  H      -0.332911      1.306649      1.564032
  H       2.021150      2.160899     -1.237042
  H      -1.560115      1.813857     -1.143257
  H       1.662252      0.277685      1.137678
  H       3.066984      1.312191      0.819693
  H       0.042979      3.775221     -1.144739
  H      -2.385741      2.407301      1.298093
  H       0.227110     -1.078860     -0.157370
  H      -0.906088     -3.269769      0.263587
  H      -3.074686     -4.342227      0.463794
  H      -4.562256     -3.463882      0.351153
  H       5.466465     -0.386110      0.134468
34
Coordinates from ORCA-job cmp_geom E -1457.691710693721
  P       3.420289     -1.544347      0.158580
  O       0.349894      1.058349     -1.168345
  O       0.517995      4.017271     -0.290614
  O      -1.611856      2.959773      1.086183
  O       2.709251     -0.244138     -0.500812
  O      -3.491847      1.024513      0.019897
  O       3.778935     -2.407079     -0.989397
  O       2.637553     -2.032950      1.317245
  O       4.761709     -0.902118      0.829139
  N      -1.510721     -0.044527     -0.277895
  N      -3.501749     -1.246184      0.131838
  N      -3.450717     -3.519500      0.345452
  C       0.704922      2.797260      0.377146
  C      -0.597698      2.073411      0.731529
  C       1.403656      1.738156     -0.468030
  C      -0.879160      1.257894     -0.539147
  C       2.237236      0.779292      0.351572
  C      -0.776198     -1.171476     -0.189376
  C      -2.896490     -0.058582     -0.029586
  C      -1.366399     -2.366613      0.048626
  C      -2.784678     -2.369534      0.173866
  H       1.277919      3.035517      1.275946
  H      -0.377430      1.362074      1.538879
  H       2.033466      2.209675     -1.227344
  H      -1.585653      1.799141     -1.174361
  H       1.642766      0.347653      1.163160
  H       3.070228      1.332418      0.797648
  H       0.070194      3.867729     -1.131710
  H      -2.439322      2.463757      1.137361
  H       0.284933     -1.050932     -0.356454
  H      -0.782413     -3.274463      0.102700
  H      -2.963561     -4.397145      0.389813
  H      -4.453066     -3.508971      0.427938
  H       5.404321     -0.605584      0.176082
34
Coordinates from ORCA-job cmp_geom E -1457.692805810566
  P       3.236312     -1.596999      0.181035
  O       0.363757      1.128767     -1.212081
  O       0.539170      4.068293     -0.262522
  O      -1.667533      3.000420      0.973482
  O       2.653852     -0.237615     -0.478856
  O      -3.343563      1.011818      0.381776
  O       3.585297     -2.455219     -0.973551
  O       2.367334     -2.040937      1.296321
  O       4.599244     -1.063783      0.932018
  N      -1.452797     -0.037926     -0.305374
  N      -3.369230     -1.263634      0.333840
  N      -3.305680     -3.545381      0.417106
  C       0.686407      2.832888      0.383080
  C      -0.635591      2.117009      0.682932
  C       1.399499      1.784426     -0.465329
  C      -0.869589      1.286109     -0.587120
  C       2.193335      0.797678      0.365956
  C      -0.711934     -1.164690     -0.357722
  C      -2.782161     -0.070188      0.158961
  C      -1.266236     -2.370945     -0.087649
  C      -2.657154     -2.386274      0.219912
  H       1.232403      3.035682      1.307793
  H      -0.451557      1.413033      1.506475
  H       2.057690      2.264145     -1.194857
  H      -1.595198      1.794806     -1.230624
  H       1.578236      0.381138      1.169571
  H       3.035733      1.327054      0.822880
  H       0.094202      3.949786     -1.110426
  H      -2.499761      2.508733      0.886587
  H       0.316388     -1.030467     -0.663514
  H      -0.676292     -3.274872     -0.146450
  H      -2.824385     -4.425828      0.352190
  H      -4.288916     -3.534224      0.630544
  H       5.295031     -0.823065      0.311147
34
Coordinates from ORCA-job cmp_geom E -1457.694327972957
  P       3.276632     -1.597474      0.179111
  O       0.348314      1.127339     -1.200392
  O       0.549683      4.059614     -0.276244
  O      -1.652903      3.032409      0.983575
  O       2.662300     -0.243324     -0.476820
  O      -3.410282      0.997488      0.292934
  O       3.616597     -2.460255     -0.984007
  O       2.392643     -2.067596      1.281278
  O       4.630863     -1.058077      0.912032
  N      -1.469673     -0.024555     -0.285660
  N      -3.386670     -1.271128      0.309134
  N      -3.294848     -3.546918      0.416545
  C       0.696042      2.830598      0.389713
  C      -0.631661      2.132273      0.698964
  C       1.395017      1.775864     -0.459662
  C      -0.883091      1.295736     -0.566335
  C       2.181217      0.781181      0.370874
  C      -0.727131     -1.153455     -0.337679
  C      -2.809720     -0.071695      0.125045
  C      -1.274039     -2.360948     -0.077473
  C      -2.665936     -2.382789      0.219392
  H       1.249392      3.043053      1.306126
  H      -0.460217      1.439610      1.534586
  H       2.053997      2.245148     -1.193330
  H      -1.593026      1.812331     -1.221042
  H       1.560896      0.351686      1.164068
  H       3.017438      1.308352      0.843316
  H       0.089284      3.926217     -1.112427
  H      -2.482298      2.531120      0.886717
  H       0.309087     -1.024584     -0.618688
  H      -0.681694     -3.263514     -0.123272
  H      -2.800671     -4.420562      0.360869
  H      -4.279921     -3.552008      0.621605
  H       5.310690     -0.811395      0.274678
34
Coordinates from ORCA-job cmp_geom E -1457.694790529677
  P       3.367676     -1.565456      0.191541
  O       0.357057      1.116831     -1.200918
  O       0.539410      4.043176     -0.283035
  O      -1.667822      3.003944      0.977037
  O       2.709381     -0.228669     -0.463542
  O      -3.375222      1.027405      0.318937
  O       3.735264     -2.420514     -0.971724
  O       2.490159     -2.073487      1.284629
  O       4.700511     -0.990702      0.922998
  N      -1.472228     -0.037127     -0.286007
  N      -3.399903     -1.239535      0.346613
  N      -3.357664     -3.515751      0.437861
  C       0.693682      2.818192      0.391096
  C      -0.631883      2.114595      0.699464
  C       1.400154      1.764126     -0.452565
  C      -0.875738      1.277086     -0.566901
  C       2.184438      0.774150      0.383850
  C      -0.763956     -1.183793     -0.384911
  C      -2.798919     -0.055601      0.144694
  C      -1.334724     -2.379385     -0.126924
  C      -2.713284     -2.367164      0.222916
  H       1.244657      3.040557      1.305542
  H      -0.462022      1.426152      1.538759
  H       2.062349      2.233171     -1.182345
  H      -1.575287      1.796808     -1.229446
  H       1.555907      0.321703      1.157920
  H       2.998190      1.313619      0.882144
  H       0.060275      3.900550     -1.106429
  H      -2.481111      2.476111      0.858706
  H       0.268219     -1.081919     -0.689938
  H      -0.770855     -3.297768     -0.201938
  H      -2.886935     -4.399472      0.356393
  H      -4.332949     -3.501230      0.683950
  H       5.369485     -0.730864      0.279104
34
Coordinates from ORCA-job cmp_geom E -1457.695068491138
  P       3.284312     -1.596084      0.188829
  O       0.348210      1.152511     -1.216217
  O       0.555233      4.062546     -0.294103
  O      -1.668363      3.041622      0.962031
  O       2.668484     -0.238245     -0.462796
  O      -3.351424      1.011714      0.367979
  O       3.674341     -2.440142     -0.973779
  O       2.373019     -2.107360      1.250559
  O       4.605086     -1.055087      0.964529
  N      -1.448878     -0.027733     -0.280232
  N      -3.343342     -1.254196      0.395261
  N      -3.272999     -3.530817      0.467109
  C       0.697359      2.837508      0.382215
  C      -0.634766      2.144909      0.692021
  C       1.395735      1.772522     -0.453777
  C      -0.878284      1.297210     -0.570476
  C       2.146879      0.763740      0.386526
  C      -0.735152     -1.163862     -0.425448
  C      -2.762931     -0.064631      0.178375
  C      -1.287275     -2.368935     -0.168028
  C      -2.650391     -2.374789      0.235288
  H       1.249420      3.058592      1.296194
  H      -0.469996      1.460855      1.535879
  H       2.076064      2.230168     -1.173994
  H      -1.590837      1.802990     -1.229524
  H       1.494845      0.313401      1.142119
  H       2.958872      1.285604      0.906613
  H       0.053109      3.925291     -1.104549
  H      -2.479157      2.510121      0.825071
  H       0.285884     -1.045311     -0.761619
  H      -0.718914     -3.281023     -0.277620
  H      -2.796785     -4.408473      0.360142
  H      -4.237279     -3.528814      0.752760
  H       5.296232     -0.806061      0.340194
34
Coordinates from ORCA-job cmp_geom E -1457.695193994087
  P       3.280018     -1.599639      0.195616
  O       0.347124      1.161874     -1.220660
  O       0.563038      4.062369     -0.305081
  O      -1.666703      3.054955      0.956539
  O       2.657527     -0.246106     -0.456549
  O      -3.346715      1.012708      0.367235
  O       3.670488     -2.444411     -0.964360
  O       2.381487     -2.111198      1.265521
  O       4.600796     -1.048980      0.961502
  N      -1.442454     -0.026954     -0.276483
  N      -3.333831     -1.253944      0.406221
  N      -3.262273     -3.531784      0.474867
  C       0.699569      2.840527      0.377285
  C      -0.635195      2.153240      0.688666
  C       1.396254      1.767587     -0.449592
  C      -0.878161      1.300524     -0.572110
  C       2.132407      0.752232      0.394518
  C      -0.731551     -1.161322     -0.440548
  C      -2.756518     -0.064795      0.181639
  C      -1.284367     -2.368069     -0.187610
  C      -2.642001     -2.375584      0.235128
  H       1.251333      3.066358      1.290712
  H      -0.472217      1.472029      1.534790
  H       2.086643      2.217883     -1.165327
  H      -1.596421      1.799982     -1.229412
  H       1.468474      0.299464      1.138138
  H       2.939371      1.267714      0.928233
  H       0.043167      3.926299     -1.104835
  H      -2.478432      2.519871      0.844540
  H       0.285847     -1.038900     -0.786058
  H      -0.719715     -3.280530     -0.313014
  H      -2.787406     -4.409562      0.361377
  H      -4.222532     -3.530328      0.773955
  H       5.289260     -0.803768      0.332689
34
Coordinates from ORCA-job cmp_geom E -1457.695306347510
  P       3.272451     -1.607900      0.212317
  O       0.347254      1.179753     -1.229072
  O       0.582507      4.063402     -0.309842
  O      -1.670657      3.083417      0.923518
  O       2.638193     -0.261010     -0.440961
  O      -3.330671      1.009982      0.403238
  O       3.645354     -2.460366     -0.946919
  O       2.394279     -2.109930      1.302113
  O       4.603775     -1.046291      0.949378
  N      -1.433420     -0.023018     -0.275643
  N      -3.309876     -1.257094      0.440658
  N      -3.235823     -3.536048      0.490991
  C       0.699672      2.843445      0.378901
  C      -0.644637      2.169803      0.676711
  C       1.395161      1.762609     -0.438289
  C      -0.879477      1.308605     -0.581336
  C       2.106134      0.733119      0.411196
  C      -0.729592     -1.156007     -0.477981
  C      -2.739824     -0.066167      0.206493
  C      -1.278069     -2.365437     -0.225169
  C      -2.621994     -2.377684      0.240288
  H       1.244126      3.068073      1.297482
  H      -0.499521      1.495122      1.530868
  H       2.102743      2.204231     -1.142817
  H      -1.602595      1.797058     -1.241567
  H       1.425555      0.277350      1.137575
  H       2.906952      1.236465      0.964791
  H       0.041505      3.936191     -1.097255
  H      -2.483733      2.548470      0.825026
  H       0.277525     -1.028318     -0.850066
  H      -0.719698     -3.277195     -0.381025
  H      -2.764289     -4.413369      0.358507
  H      -4.186703     -3.537046      0.819183
  H       5.283703     -0.814474      0.306240
34
Coordinates from ORCA-job cmp_geom E -1457.695386525956
  P       3.246103     -1.623631      0.224970
  O       0.348708      1.203962     -1.242290
  O       0.602009      4.066961     -0.309207
  O      -1.674436      3.111272      0.887279
  O       2.604402     -0.280654     -0.429973
  O      -3.313545      1.005481      0.429569
  O       3.603813     -2.483026     -0.934365
  O       2.377989     -2.116242      1.327295
  O       4.585078     -1.057131      0.941356
  N      -1.421323     -0.014710     -0.282017
  N      -3.276821     -1.261624      0.470790
  N      -3.189466     -3.540058      0.513607
  C       0.699194      2.847179      0.383404
  C      -0.654386      2.186231      0.662388
  C       1.393297      1.761842     -0.428574
  C      -0.879468      1.321051     -0.595584
  C       2.072827      0.713202      0.423692
  C      -0.721278     -1.144880     -0.515519
  C      -2.719248     -0.066464      0.224296
  C      -1.259323     -2.357598     -0.257160
  C      -2.588733     -2.377809      0.247656
  H       1.234417      3.066792      1.308622
  H      -0.529969      1.516130      1.523128
  H       2.120025      2.195365     -1.118304
  H      -1.606010      1.799798     -1.258913
  H       1.374398      0.258859      1.133603
  H       2.871701      1.198191      0.996024
  H       0.040339      3.952165     -1.083896
  H      -2.489014      2.575944      0.818464
  H       0.275248     -1.010458     -0.912729
  H      -0.703629     -3.266737     -0.436649
  H      -2.716517     -4.414760      0.368421
  H      -4.130585     -3.546964      0.868924
  H       5.260513     -0.837940      0.289222
34
Coordinates from ORCA-job cmp_geom E -1457.695416262574
  P       3.250573     -1.626783      0.228278
  O       0.348190      1.206903     -1.246301
  O       0.611799      4.064809     -0.300965
  O      -1.674300      3.122427      0.869269
  O       2.595579     -0.290291     -0.428497
  O      -3.310014      1.005286      0.439964
  O       3.609377     -2.487347     -0.930549
  O       2.388465     -2.121470      1.335207
  O       4.588779     -1.049659      0.938588
  N      -1.423206     -0.012433     -0.288250
  N      -3.271579     -1.261471      0.478807
  N      -3.181543     -3.539228      0.521268
  C       0.699058      2.842184      0.388428
  C      -0.660170      2.188779      0.656314
  C       1.392090      1.758243     -0.426336
  C      -0.881444      1.323426     -0.602357
  C       2.064944      0.704468      0.425122
  C      -0.725455     -1.142810     -0.527780
  C      -2.717148     -0.065078      0.229344
  C      -1.259979     -2.355692     -0.265225
  C      -2.584542     -2.376410      0.250594
  H       1.229869      3.054666      1.317555
  H      -0.548809      1.519361      1.519266
  H       2.122802      2.191471     -1.111639
  H      -1.605449      1.801674     -1.268536
  H       1.364540      0.251290      1.133742
  H       2.864740      1.185233      0.999933
  H       0.043559      3.958829     -1.071833
  H      -2.491730      2.591195      0.813153
  H       0.268015     -1.008042     -0.932720
  H      -0.704886     -3.264301     -0.448996
  H      -2.708307     -4.413193      0.373623
  H      -4.119643     -3.546946      0.884239
  H       5.262135     -0.829351      0.284817
34
Coordinates from ORCA-job cmp_geom E -1457.695431045277
  P       3.243509     -1.631380      0.223554
  O       0.347837      1.210795     -1.250458
  O       0.616397      4.066627     -0.292139
  O      -1.674489      3.127386      0.860604
  O       2.587952     -0.294468     -0.432966
  O      -3.307438      1.005058      0.440039
  O       3.611758     -2.487807     -0.935806
  O       2.374932     -2.131923      1.323424
  O       4.576511     -1.054270      0.945020
  N      -1.422471     -0.010956     -0.293768
  N      -3.265857     -1.261519      0.480938
  N      -3.171528     -3.538840      0.528572
  C       0.699296      2.840015      0.391215
  C      -0.662962      2.189682      0.653067
  C       1.391395      1.758662     -0.427863
  C      -0.881987      1.325412     -0.606874
  C       2.060772      0.701420      0.421434
  C      -0.723340     -1.140683     -0.530996
  C      -2.714302     -0.064218      0.228551
  C      -1.254366     -2.353961     -0.264270
  C      -2.577795     -2.375402      0.254282
  H       1.228387      3.045726      1.322640
  H      -0.558505      1.519286      1.516021
  H       2.123377      2.193465     -1.110538
  H      -1.604964      1.804173     -1.273719
  H       1.359360      0.250207      1.130518
  H       2.862436      1.178905      0.996598
  H       0.043416      3.967619     -1.060247
  H      -2.492688      2.597295      0.809914
  H       0.269578     -1.005540     -0.937325
  H      -0.697176     -3.261698     -0.445669
  H      -2.696585     -4.411967      0.382230
  H      -4.108545     -3.547421      0.894189
  H       5.254394     -0.829938      0.297359
34
Coordinates from ORCA-job cmp_geom E -1457.695434410550
  P       3.248121     -1.629979      0.226211
  O       0.347552      1.209101     -1.250454
  O       0.618271      4.066155     -0.288082
  O      -1.674065      3.128397      0.858218
  O       2.587527     -0.296491     -0.432319
  O      -3.307576      1.005907      0.438972
  O       3.613297     -2.490203     -0.931227
  O       2.385299     -2.128094      1.331728
  O       4.583500     -1.048426      0.940556
  N      -1.423756     -0.011895     -0.295323
  N      -3.267788     -1.260709      0.479417
  N      -3.175141     -3.538178      0.527739
  C       0.699792      2.837683      0.392131
  C      -0.663698      2.188633      0.652802
  C       1.391252      1.757010     -0.428358
  C      -0.882391      1.324223     -0.607351
  C       2.061559      0.700722      0.421027
  C      -0.725134     -1.141900     -0.531281
  C      -2.715438     -0.063803      0.227075
  C      -1.257038     -2.354914     -0.264797
  C      -2.580784     -2.375161      0.253244
  H       1.228909      3.040594      1.324155
  H      -0.561757      1.518053      1.515845
  H       2.122541      2.192750     -1.111164
  H      -1.604443      1.803847     -1.274530
  H       1.360836      0.251042      1.131928
  H       2.863862      1.179103      0.994597
  H       0.041534      3.970439     -1.053784
  H      -2.492643      2.598797      0.807819
  H       0.268118     -1.007695     -0.937217
  H      -0.700090     -3.262917     -0.445461
  H      -2.700578     -4.411532      0.381787
  H      -4.111943     -3.545960      0.893876
  H       5.258607     -0.824857      0.289750
34
Coordinates from ORCA-job cmp_geom E -1457.695434592650
  P       3.247238     -1.630294      0.226428
  O       0.347660      1.209310     -1.251057
  O       0.619535      4.066838     -0.285279
  O      -1.674003      3.128960      0.856777
  O       2.586419     -0.297421     -0.432839
  O      -3.307930      1.006065      0.436098
  O       3.611163     -2.491965     -0.930186
  O       2.385657     -2.126875      1.333519
  O       4.583557     -1.048021      0.938774
  N      -1.423320     -0.012217     -0.295900
  N      -3.267837     -1.260618      0.478073
  N      -3.175196     -3.538206      0.527717
  C       0.700334      2.837028      0.392432
  C      -0.663757      2.188476      0.652556
  C       1.391339      1.756869     -0.429119
  C      -0.882248      1.323926     -0.607697
  C       2.061799      0.700622      0.420195
  C      -0.724042     -1.142137     -0.530070
  C      -2.715397     -0.063820      0.225382
  C      -1.256103     -2.355150     -0.263394
  C      -2.580576     -2.375203      0.253361
  H       1.229767      3.037913      1.324810
  H      -0.563097      1.517994      1.515746
  H       2.122321      2.193377     -1.111845
  H      -1.604562      1.803647     -1.274538
  H       1.360925      0.252088      1.131736
  H       2.864528      1.178884      0.993222
  H       0.038449      3.974000     -1.048094
  H      -2.492503      2.599199      0.805606
  H       0.269629     -1.008240     -0.935074
  H      -0.698738     -3.263132     -0.442873
  H      -2.700322     -4.411568      0.382714
  H      -4.112221     -3.545847      0.893330
  H       5.257843     -0.824741      0.287020
34
Coordinates from ORCA-job cmp_geom E -1457.695429552848
  P       3.247628     -1.630407      0.226174
  O       0.348002      1.208830     -1.251485
  O       0.620674      4.067107     -0.282901
  O      -1.673802      3.128986      0.855279
  O       2.586462     -0.298085     -0.433566
  O      -3.308551      1.006525      0.432557
  O       3.611072     -2.492819     -0.929925
  O       2.386776     -2.126272      1.334064
  O       4.584168     -1.047060      0.937239
  N      -1.422989     -0.012582     -0.296052
  N      -3.268811     -1.260223      0.476154
  N      -3.176519     -3.537875      0.527315
  C       0.701003      2.836195      0.392664
  C      -0.663447      2.188010      0.652349
  C       1.391616      1.756556     -0.429994
  C      -0.881878      1.323321     -0.607911
  C       2.062685      0.700484      0.419256
  C      -0.723123     -1.142647     -0.527992
  C      -2.715793     -0.063696      0.223368
  C      -1.255743     -2.355433     -0.261130
  C      -2.581296     -2.375042      0.253247
  H       1.230914      3.035199      1.325272
  H      -0.563922      1.517959      1.515926
  H       2.122047      2.193884     -1.112849
  H      -1.604432      1.803149     -1.274414
  H       1.361773      0.252688      1.131264
  H       2.865612      1.178811      0.991875
  H       0.033066      3.977716     -1.041160
  H      -2.492273      2.599188      0.802929
  H       0.271212     -1.009368     -0.931550
  H      -0.698112     -3.263573     -0.439007
  H      -2.701244     -4.411327      0.384014
  H      -4.114007     -3.545251      0.891784
  H       5.257542     -0.823208      0.284737
34
Coordinates from ORCA-job cmp_geom E -1457.695440132796
  P       3.248386     -1.630700      0.226076
  O       0.348728      1.207842     -1.251796
  O       0.622077      4.067134     -0.280535
  O      -1.673413      3.129195      0.852717
  O       2.586348     -0.299139     -0.434135
  O      -3.309203      1.007085      0.428160
  O       3.610397     -2.494232     -0.929550
  O       2.389049     -2.125486      1.335529
  O       4.585626     -1.046010      0.934598
  N      -1.422551     -0.013005     -0.296182
  N      -3.270144     -1.259717      0.473627
  N      -3.178339     -3.537384      0.526424
  C       0.701795      2.835183      0.393020
  C      -0.663027      2.187496      0.651861
  C       1.392121      1.756114     -0.430823
  C      -0.881174      1.322517     -0.608308
  C       2.063916      0.700291      0.418419
  C      -0.722004     -1.143329     -0.525216
  C      -2.716314     -0.063542      0.220895
  C      -1.255300     -2.355741     -0.257933
  C      -2.582134     -2.374795      0.253266
  H       1.232146      3.032070      1.325898
  H      -0.565091      1.518222      1.516133
  H       2.121933      2.194301     -1.113814
  H      -1.603802      1.802388     -1.274692
  H       1.363152      0.253513      1.131258
  H       2.867431      1.178588      0.990167
  H       0.023719      3.982871     -1.030941
  H      -2.492051      2.599748      0.798975
  H       0.273158     -1.010797     -0.926969
  H      -0.697374     -3.264117     -0.433703
  H      -2.702549     -4.410953      0.385449
  H      -4.116571     -3.544441      0.888994
  H       5.257369     -0.821432      0.280662
34
Coordinates from ORCA-job cmp_geom E -1457.695443623087
  P       3.249238     -1.631199      0.226003
  O       0.349395      1.206979     -1.252178
  O       0.623122      4.066710     -0.280479
  O      -1.672681      3.129721      0.850393
  O       2.586776     -0.299928     -0.434420
  O      -3.308711      1.007577      0.426974
  O       3.611834     -2.494561     -0.929569
  O       2.389838     -2.126432      1.335166
  O       4.585893     -1.045698      0.934635
  N      -1.422103     -0.013221     -0.296208
  N      -3.270530     -1.259234      0.473050
  N      -3.179301     -3.536880      0.526246
  C       0.702535      2.834600      0.392776
  C      -0.662432      2.187378      0.651171
  C       1.392686      1.755590     -0.431473
  C      -0.880441      1.322018     -0.608792
  C       2.064557      0.699801      0.417921
  C      -0.721634     -1.143789     -0.524481
  C      -2.716120     -0.063358      0.220276
  C      -1.255407     -2.355895     -0.256886
  C      -2.582564     -2.374534      0.253284
  H       1.233251      3.030581      1.325664
  H      -0.565532      1.518902      1.516123
  H       2.122349      2.193962     -1.114477
  H      -1.603067      1.801791     -1.275249
  H       1.363661      0.253327      1.130848
  H       2.868184      1.177978      0.989585
  H       0.012988      3.987133     -1.021830
  H      -2.491585      2.600759      0.795796
  H       0.273727     -1.011707     -0.925880
  H      -0.697682     -3.264519     -0.432077
  H      -2.703356     -4.410573      0.386529
  H      -4.117623     -3.543667      0.888580
  H       5.257044     -0.819870      0.280511
34
Coordinates from ORCA-job cmp_geom E -1457.695444178087
  P       3.252724     -1.631518      0.225513
  O       0.351371      1.203582     -1.252250
  O       0.623827      4.065074     -0.282246
  O      -1.670716      3.129523      0.846613
  O       2.589941     -0.300376     -0.435125
  O      -3.308055      1.009059      0.423726
  O       3.616721     -2.494176     -0.930236
  O       2.392505     -2.128015      1.333476
  O       4.588126     -1.045461      0.935495
  N      -1.421723     -0.014000     -0.296393
  N      -3.272616     -1.257784      0.470972
  N      -3.183532     -3.535392      0.525247
  C       0.704015      2.833341      0.391736
  C      -0.660663      2.186324      0.649893
  C       1.394403      1.754495     -0.432901
  C      -0.878439      1.320384     -0.609654
  C       2.067687      0.699741      0.416792
  C      -0.721677     -1.145358     -0.522210
  C      -2.716513     -0.062690      0.218433
  C      -1.256899     -2.356630     -0.254063
  C      -2.584957     -2.373833      0.253298
  H       1.235584      3.028682      1.324306
  H      -0.564859      1.519147      1.515894
  H       2.123136      2.193311     -1.116510
  H      -1.600461      1.800392     -1.276643
  H       1.367476      0.253365      1.130505
  H       2.871607      1.178541      0.987531
  H      -0.014717      3.996090     -1.000281
  H      -2.490223      2.601730      0.789794
  H       0.274395     -1.014411     -0.922232
  H      -0.699718     -3.265963     -0.427326
  H      -2.707659     -4.409574      0.388415
  H      -4.122307     -3.541146      0.886378
  H       5.258523     -0.816710      0.281581
34
Coordinates from ORCA-job cmp_geom E -1457.695459954555
  P       3.257248     -1.632630      0.224943
  O       0.354968      1.198385     -1.252929
  O       0.625059      4.062280     -0.285558
  O      -1.667370      3.130349      0.838650
  O       2.594538     -0.301483     -0.436162
  O      -3.306626      1.011431      0.417581
  O       3.622327     -2.494876     -0.930904
  O       2.396078     -2.130069      1.331790
  O       4.591646     -1.046717      0.936447
  N      -1.420724     -0.015248     -0.297799
  N      -3.274845     -1.255420      0.467637
  N      -3.188720     -3.532940      0.525169
  C       0.706343      2.831152      0.389833
  C      -0.658273      2.184969      0.646859
  C       1.397323      1.752538     -0.435074
  C      -0.874960      1.317916     -0.612138
  C       2.072185      0.699204      0.415121
  C      -0.721369     -1.147739     -0.519764
  C      -2.716558     -0.061523      0.214755
  C      -1.258591     -2.357822     -0.250494
  C      -2.587856     -2.372674      0.253220
  H       1.238884      3.025418      1.322177
  H      -0.565152      1.519640      1.514422
  H       2.125021      2.191986     -1.119253
  H      -1.595755      1.798075     -1.280450
  H       1.372860      0.252930      1.129852
  H       2.876483      1.178801      0.984704
  H      -0.063973      4.014752     -0.957034
  H      -2.488034      2.604667      0.778458
  H       0.275736     -1.018290     -0.917760
  H      -0.702096     -3.268192     -0.420519
  H      -2.712866     -4.407886      0.393318
  H      -4.127766     -3.536873      0.885596
  H       5.261143     -0.814370      0.282834
34
Coordinates from ORCA-job cmp_geom E -1457.695481332639
  P       3.260596     -1.632966      0.224872
  O       0.357366      1.194536     -1.253772
  O       0.624968      4.060138     -0.288348
  O      -1.664653      3.130543      0.833310
  O       2.598234     -0.302058     -0.437159
  O      -3.305499      1.013241      0.413017
  O       3.626776     -2.495395     -0.930541
  O       2.398457     -2.130522      1.330949
  O       4.594169     -1.046861      0.937601
  N      -1.419942     -0.016433     -0.298694
  N      -3.276482     -1.253645      0.465433
  N      -3.193081     -3.531180      0.525016
  C       0.708146      2.829421      0.387933
  C      -0.656238      2.183608      0.644788
  C       1.399357      1.751139     -0.437335
  C      -0.872501      1.315807     -0.613854
  C       2.075749      0.699206      0.413386
  C      -0.721249     -1.149826     -0.517937
  C      -2.716494     -0.060683      0.212152
  C      -1.260125     -2.359016     -0.247983
  C      -2.590252     -2.371880      0.253452
  H       1.241814      3.022939      1.319942
  H      -0.564778      1.519515      1.513355
  H       2.126036      2.191163     -1.122185
  H      -1.592620      1.796130     -1.282836
  H       1.377180      0.253156      1.129048
  H       2.880160      1.179798      0.981987
  H      -0.098484      4.028723     -0.923559
  H      -2.486016      2.606088      0.770752
  H       0.276579     -1.021700     -0.914589
  H      -0.704323     -3.270197     -0.415904
  H      -2.717629     -4.406769      0.396019
  H      -4.132382     -3.533634      0.884779
  H       5.263472     -0.812647      0.284437
34
Coordinates from ORCA-job cmp_geom E -1457.695525911673
  P       3.263386     -1.633476      0.224764
  O       0.359698      1.191091     -1.254857
  O       0.624770      4.057924     -0.290815
  O      -1.662120      3.131368      0.826910
  O       2.601302     -0.302853     -0.438169
  O      -3.304325      1.014890      0.408375
  O       3.630277     -2.496292     -0.930172
  O       2.400555     -2.130872      1.330408
  O       4.596406     -1.047136      0.938221
  N      -1.419032     -0.017554     -0.299792
  N      -3.277714     -1.252023      0.463345
  N      -3.196572     -3.529548      0.525455
  C       0.709822      2.827575      0.386261
  C      -0.654596      2.182452      0.642463
  C       1.401222      1.749758     -0.439516
  C      -0.870171      1.313821     -0.615845
  C       2.078795      0.698975      0.411702
  C      -0.720891     -1.151770     -0.516406
  C      -2.716244     -0.059922      0.209459
  C      -1.261219     -2.360120     -0.245625
  C      -2.592171     -2.371142      0.253670
  H       1.244509      3.019999      1.318090
  H      -0.565525      1.519765      1.512208
  H       2.127084      2.190369     -1.124829
  H      -1.589653      1.794154     -1.285552
  H       1.380751      0.253221      1.128113
  H       2.883302      1.180330      0.979530
  H      -0.130791      4.043301     -0.888056
  H      -2.484277      2.608293      0.761990
  H       0.277620     -1.024892     -0.911777
  H      -0.705984     -3.272029     -0.411430
  H      -2.721367     -4.405689      0.399344
  H      -4.136059     -3.530645      0.884732
  H       5.265522     -0.811586      0.285333
34
Coordinates from ORCA-job cmp_geom E -1457.695588800708
  P       3.266051     -1.634045      0.224369
  O       0.362095      1.187963     -1.256059
  O       0.624488      4.055554     -0.292928
  O      -1.659932      3.132642      0.819368
  O       2.604038     -0.303675     -0.439174
  O      -3.303164      1.016514      0.403319
  O       3.633428     -2.497128     -0.930244
  O       2.402801     -2.131387      1.329743
  O       4.598677     -1.047452      0.938262
  N      -1.418083     -0.018657     -0.301209
  N      -3.278661     -1.250404      0.461486
  N      -3.199506     -3.527898      0.526665
  C       0.711271      2.825566      0.384987
  C      -0.653458      2.181376      0.639843
  C       1.402963      1.748389     -0.441376
  C      -0.867942      1.311880     -0.618185
  C       2.081458      0.698506      0.410236
  C      -0.720462     -1.153672     -0.515192
  C      -2.715886     -0.059164      0.206580
  C      -1.262091     -2.361176     -0.243274
  C      -2.593725     -2.370368      0.254283
  H       1.246693      3.016574      1.316886
  H      -0.567557      1.520242      1.510931
  H       2.128215      2.189672     -1.126891
  H      -1.586697      1.792116     -1.288771
  H       1.383767      0.252921      1.127148
  H       2.885980      1.180435      0.977557
  H      -0.160671      4.058200     -0.850773
  H      -2.482952      2.611097      0.751913
  H       0.278659     -1.028051     -0.909456
  H      -0.707387     -3.273791     -0.406942
  H      -2.724535     -4.404563      0.403339
  H      -4.139142     -3.527676      0.885550
  H       5.267577     -0.810800      0.285539
34
Coordinates from ORCA-job cmp_geom E -1457.695673913548
  P       3.268660     -1.634563      0.223843
  O       0.364457      1.185004     -1.257366
  O       0.624043      4.053058     -0.295029
  O      -1.657934      3.134007      0.811387
  O       2.606628     -0.304446     -0.440201
  O      -3.302040      1.018097      0.397987
  O       3.636483     -2.497852     -0.930495
  O       2.405100     -2.131900      1.329005
  O       4.600932     -1.047670      0.938080
  N      -1.417170     -0.019804     -0.302862
  N      -3.279528     -1.248817      0.459685
  N      -3.202189     -3.526259      0.528362
  C       0.712561      2.823476      0.383874
  C      -0.652588      2.180241      0.637075
  C       1.404585      1.747064     -0.443143
  C      -0.865835      1.309918     -0.620732
  C       2.083930      0.697997      0.408818
  C      -0.720050     -1.155608     -0.514189
  C      -2.715528     -0.058446      0.203539
  C      -1.262923     -2.362256     -0.240980
  C      -2.595175     -2.369613      0.255018
  H       1.248585      3.012861      1.315980
  H      -0.570195      1.520716      1.509554
  H       2.129313      2.189068     -1.128747
  H      -1.583837      1.790035     -1.292223
  H       1.386531      0.252528      1.126136
  H       2.888424      1.180450      0.975728
  H      -0.188236      4.073415     -0.812117
  H      -2.481856      2.614092      0.741206
  H       0.279646     -1.031254     -0.907430
  H      -0.708736     -3.275568     -0.402473
  H      -2.727439     -4.403432      0.407812
  H      -4.141945     -3.524723      0.886933
  H       5.269640     -0.810077      0.285494
34
Coordinates from ORCA-job cmp_geom E -1457.695787294086
  P       3.271108     -1.635038      0.223373
  O       0.366602      1.182200     -1.258904
  O       0.623444      4.050417     -0.297280
  O      -1.655941      3.135385      0.803432
  O       2.609056     -0.305254     -0.441311
  O      -3.300961      1.019597      0.392632
  O       3.639559     -2.498580     -0.930590
  O       2.407164     -2.132331      1.328274
  O       4.602920     -1.047700      0.938049
  N      -1.416345     -0.020953     -0.304717
  N      -3.280287     -1.247311      0.458000
  N      -3.204548     -3.524685      0.530387
  C       0.713770      2.821292      0.382706
  C      -0.651835      2.179019      0.634222
  C       1.406017      1.745736     -0.445080
  C      -0.863931      1.307990     -0.623436
  C       2.086138      0.697443      0.407245
  C      -0.719674     -1.157494     -0.513441
  C      -2.715182     -0.057789      0.200460
  C      -1.263666     -2.363305     -0.238792
  C      -2.596449     -2.368896      0.255867
  H       1.250432      3.008854      1.315050
  H      -0.573026      1.521084      1.508057
  H       2.130278      2.188441     -1.130731
  H      -1.581224      1.788030     -1.295736
  H       1.388956      0.252101      1.124905
  H       2.890538      1.180423      0.973832
  H      -0.213527      4.089015     -0.772285
  H      -2.480814      2.617228      0.730415
  H       0.280534     -1.034355     -0.905801
  H      -0.709953     -3.277279     -0.398142
  H      -2.730000     -4.402331      0.412504
  H      -4.144400     -3.521891      0.888695
  H       5.271555     -0.809323      0.285669
34
Coordinates from ORCA-job cmp_geom E -1457.696011782106
  P       3.274851     -1.635734      0.222959
  O       0.369344      1.177712     -1.261387
  O       0.622748      4.046540     -0.301035
  O      -1.653164      3.137235      0.791660
  O       2.612358     -0.306751     -0.443011
  O      -3.299532      1.021447      0.385057
  O       3.644566     -2.499708     -0.930319
  O       2.410380     -2.133148      1.327407
  O       4.605626     -1.047151      0.938251
  N      -1.415351     -0.022826     -0.307297
  N      -3.281632     -1.245441      0.455589
  N      -3.208110     -3.522680      0.533085
  C       0.715328      2.818111      0.380409
  C      -0.650812      2.177243      0.629767
  C       1.407825      1.743593     -0.448447
  C      -0.861401      1.304965     -0.627455
  C       2.089111      0.696556      0.404586
  C      -0.719272     -1.160405     -0.512198
  C      -2.714887     -0.057162      0.196143
  C      -1.264863     -2.364975     -0.235405
  C      -2.598404     -2.368133      0.257096
  H       1.253076      3.003097      1.312942
  H      -0.576955      1.521885      1.505721
  H       2.131326      2.187216     -1.134278
  H      -1.577795      1.784794     -1.300868
  H       1.392233      0.251582      1.122862
  H       2.893437      1.180342      0.970583
  H      -0.246145      4.114903     -0.711122
  H      -2.479388      2.621651      0.714688
  H       0.281653     -1.038988     -0.903313
  H      -0.711836     -3.279906     -0.391620
  H      -2.733710     -4.400962      0.419424
  H      -4.148080     -3.518144      0.891048
  H       5.273787     -0.807019      0.286008
34
Coordinates from ORCA-job cmp_geom E -1457.696450292822
  P       3.280911     -1.636138      0.222663
  O       0.372907      1.170318     -1.264967
  O       0.619974      4.039960     -0.308695
  O      -1.648976      3.139454      0.774625
  O       2.617356     -0.308668     -0.445570
  O      -3.297554      1.023734      0.374693
  O       3.652962     -2.500783     -0.929464
  O       2.415531     -2.134000      1.326228
  O       4.609678     -1.045111      0.938963
  N      -1.414233     -0.026098     -0.310506
  N      -3.284253     -1.243125      0.452120
  N      -3.214440     -3.520173      0.536153
  C       0.717155      2.813497      0.376034
  C      -0.649243      2.174299      0.623202
  C       1.410151      1.740394     -0.454058
  C      -0.857999      1.299928     -0.633017
  C       2.093692      0.695822      0.400316
  C      -0.719139     -1.165252     -0.509872
  C      -2.714815     -0.056725      0.190307
  C      -1.267299     -2.367932     -0.230215
  C      -2.602038     -2.367484      0.258732
  H       1.256848      2.995715      1.308466
  H      -0.581971      1.523141      1.502458
  H       2.132166      2.185253     -1.140607
  H      -1.573207      1.779380     -1.307955
  H       1.397553      0.251572      1.119890
  H       2.898017      1.181171      0.964971
  H      -0.285512      4.154807     -0.617418
  H      -2.477179      2.627720      0.692001
  H       0.282865     -1.046444     -0.899097
  H      -0.715466     -3.284338     -0.381970
  H      -2.740316     -4.399393      0.428800
  H      -4.154621     -3.513070      0.893480
  H       5.276805     -0.801691      0.286839
34
Coordinates from ORCA-job cmp_geom E -1457.697235221797
  P       3.289900     -1.635386      0.222430
  O       0.377569      1.158192     -1.269235
  O       0.611402      4.028462     -0.325386
  O      -1.643843      3.140703      0.751512
  O       2.624965     -0.309925     -0.448951
  O      -3.295359      1.026047      0.360215
  O       3.664667     -2.501070     -0.928236
  O       2.423233     -2.133848      1.324767
  O       4.615936     -1.041224      0.939706
  N      -1.413158     -0.031842     -0.313952
  N      -3.289317     -1.240733      0.446657
  N      -3.225494     -3.517493      0.538784
  C       0.718332      2.807607      0.368041
  C      -0.647197      2.169255      0.614071
  C       1.412951      1.736305     -0.462546
  C      -0.853585      1.291526     -0.640124
  C       2.101127      0.696663      0.394294
  C      -0.719502     -1.173286     -0.505123
  C      -2.715525     -0.057132      0.182288
  C      -1.271772     -2.373165     -0.221992
  C      -2.608610     -2.367525      0.260596
  H       1.261090      2.988835      1.299668
  H      -0.587587      1.524659      1.498211
  H       2.132051      2.182731     -1.151095
  H      -1.567188      1.770227     -1.317288
  H       1.406897      0.253639      1.116641
  H       2.905810      1.185071      0.955776
  H      -0.322227      4.215469     -0.476939
  H      -2.474547      2.634187      0.660215
  H       0.284265     -1.058246     -0.891024
  H      -0.721836     -3.291776     -0.367230
  H      -2.751849     -4.398072      0.440904
  H      -4.166211     -3.506657      0.894547
  H       5.280923     -0.792460      0.287327
34
Coordinates from ORCA-job cmp_geom E -1457.698144729917
  P       3.302509     -1.631550      0.222753
  O       0.381485      1.139012     -1.274358
  O       0.592188      4.008162     -0.358881
  O      -1.639077      3.137411      0.726694
  O       2.636197     -0.308942     -0.453654
  O      -3.295024      1.026757      0.340841
  O       3.682242     -2.498413     -0.925694
  O       2.432998     -2.131293      1.322292
  O       4.623624     -1.032833      0.942639
  N      -1.414048     -0.041487     -0.317777
  N      -3.299014     -1.239904      0.438079
  N      -3.243100     -3.516205      0.539900
  C       0.716778      2.800263      0.353567
  C      -0.645227      2.159891      0.602446
  C       1.414531      1.731279     -0.475963
  C      -0.849926      1.278245     -0.648850
  C       2.111701      0.700974      0.385172
  C      -0.721824     -1.185769     -0.497179
  C      -2.719144     -0.060021      0.171352
  C      -1.279675     -2.381906     -0.209861
  C      -2.619845     -2.369790      0.262175
  H       1.264672      2.984979      1.282711
  H      -0.591281      1.523643      1.492366
  H       2.128129      2.179546     -1.169017
  H      -1.561728      1.756234     -1.328415
  H       1.421522      0.259661      1.112645
  H       2.916919      1.195422      0.940512
  H      -0.320840      4.310988     -0.277459
  H      -2.472718      2.637855      0.622444
  H       0.284594     -1.075337     -0.877609
  H      -0.732100     -3.303389     -0.345702
  H      -2.769711     -4.398379      0.456166
  H      -4.184769     -3.500577      0.892869
  H       5.285272     -0.774786      0.290329
34
Coordinates from ORCA-job cmp_geom E -1457.697950035028
  P       3.300349     -1.610310      0.239150
  O       0.387981      1.129156     -1.266171
  O       0.492970      3.905034     -0.521551
  O      -1.604265      3.111410      0.804956
  O       2.668373     -0.275973     -0.445010
  O      -3.282327      1.033487      0.362892
  O       3.683968     -2.481407     -0.904903
  O       2.402005     -2.096667      1.321862
  O       4.617472     -1.035342      0.980751
  N      -1.413288     -0.046788     -0.311877
  N      -3.304123     -1.234887      0.441645
  N      -3.268414     -3.512905      0.522457
  C       0.720748      2.805287      0.318956
  C      -0.616540      2.135212      0.618254
  C       1.426066      1.742014     -0.486342
  C      -0.845549      1.271710     -0.635047
  C       2.141828      0.737022      0.387843
  C      -0.731423     -1.195068     -0.507860
  C      -2.715899     -0.057418      0.180981
  C      -1.298885     -2.389630     -0.231969
  C      -2.637287     -2.368907      0.249900
  H       1.275249      3.059233      1.234069
  H      -0.525406      1.490615      1.499281
  H       2.132266      2.178656     -1.197215
  H      -1.556759      1.761613     -1.304902
  H       1.461681      0.296253      1.123896
  H       2.945122      1.249110      0.929272
  H      -0.367273      4.247221     -0.211765
  H      -2.448045      2.631550      0.686852
  H       0.274040     -1.087880     -0.891414
  H      -0.761964     -3.315261     -0.381297
  H      -2.808087     -4.399518      0.415142
  H      -4.210582     -3.492930      0.874129
  H       5.302309     -0.803952      0.342564
34
Coordinates from ORCA-job cmp_geom E -1457.698863631855
  P       3.312053     -1.615151      0.231064
  O       0.384520      1.117302     -1.264192
  O       0.521491      3.954737     -0.475380
  O      -1.620737      3.095938      0.808962
  O       2.674330     -0.283083     -0.452026
  O      -3.299192      1.031153      0.338603
  O       3.698691     -2.483835     -0.913178
  O       2.420628     -2.106249      1.316391
  O       4.628850     -1.034561      0.972525
  N      -1.419683     -0.047358     -0.310923
  N      -3.319387     -1.236213      0.421848
  N      -3.279515     -3.513408      0.514337
  C       0.716822      2.808642      0.319162
  C      -0.619402      2.136130      0.619371
  C       1.422069      1.736454     -0.490519
  C      -0.846036      1.269139     -0.634056
  C       2.144069      0.730155      0.379361
  C      -0.730884     -1.194646     -0.484549
  C      -2.729060     -0.059167      0.167047
  C      -1.298981     -2.388544     -0.206726
  C      -2.645421     -2.369849      0.248191
  H       1.272519      3.048349      1.232814
  H      -0.517978      1.488944      1.497747
  H       2.122126      2.176694     -1.203204
  H      -1.556430      1.759602     -1.305737
  H       1.467065      0.288696      1.118438
  H       2.947373      1.244536      0.918775
  H      -0.349029      4.303803     -0.232570
  H      -2.455480      2.602264      0.687153
  H       0.280313     -1.087236     -0.852721
  H      -0.755412     -3.313042     -0.338149
  H      -2.813375     -4.399161      0.426066
  H      -4.227112     -3.493242      0.851193
  H       5.306506     -0.788054      0.332413
34
Coordinates from ORCA-job cmp_geom E -1457.698897371767
  P       3.318033     -1.611926      0.227882
  O       0.384903      1.112977     -1.260855
  O       0.518312      3.950255     -0.479719
  O      -1.618663      3.089380      0.823736
  O       2.681629     -0.279022     -0.454326
  O      -3.305235      1.032352      0.331900
  O       3.707980     -2.478924     -0.916423
  O       2.424397     -2.104286      1.311044
  O       4.634162     -1.032640      0.974461
  N      -1.424084     -0.047014     -0.312831
  N      -3.326386     -1.234689      0.414286
  N      -3.287892     -3.511829      0.511121
  C       0.717154      2.807362      0.318421
  C      -0.617133      2.132694      0.622828
  C       1.423268      1.736155     -0.490874
  C      -0.846382      1.268758     -0.631860
  C       2.151020      0.733250      0.377550
  C      -0.734230     -1.194794     -0.478221
  C      -2.734838     -0.057662      0.161615
  C      -1.303097     -2.388414     -0.200423
  C      -2.652270     -2.368580      0.246860
  H       1.269941      3.053702      1.231667
  H      -0.509336      1.480984      1.497353
  H       2.119622      2.177325     -1.206599
  H      -1.553472      1.763250     -1.304086
  H       1.478062      0.291029      1.119721
  H       2.954412      1.251383      0.913405
  H      -0.357380      4.290503     -0.246522
  H      -2.453011      2.595302      0.700208
  H       0.279098     -1.088680     -0.840729
  H      -0.757736     -3.312656     -0.325745
  H      -2.822260     -4.397843      0.423679
  H      -4.237893     -3.490728      0.840950
  H       5.315613     -0.787231      0.338058
34
Coordinates from ORCA-job cmp_geom E -1457.698926253094
  P       3.327842     -1.606782      0.223586
  O       0.385860      1.104076     -1.256850
  O       0.509357      3.943009     -0.489124
  O      -1.617765      3.079180      0.837656
  O       2.693249     -0.272797     -0.457515
  O      -3.311867      1.033635      0.322055
  O       3.722265     -2.471711     -0.920627
  O       2.431342     -2.100913      1.303839
  O       4.643134     -1.029265      0.976932
  N      -1.429679     -0.048739     -0.315751
  N      -3.335987     -1.232961      0.404873
  N      -3.300847     -3.509986      0.508617
  C       0.715298      2.805062      0.315298
  C      -0.615237      2.126680      0.625192
  C       1.424146      1.734941     -0.492264
  C      -0.846424      1.265536     -0.630626
  C       2.160379      0.737629      0.374673
  C      -0.739273     -1.197566     -0.470082
  C      -2.742005     -0.056701      0.154020
  C      -1.310045     -2.390249     -0.191878
  C      -2.662657     -2.367831      0.245629
  H       1.263729      3.061948      1.227912
  H      -0.499180      1.470505      1.495631
  H       2.114973      2.177794     -1.212163
  H      -1.548814      1.764287     -1.304773
  H       1.492870      0.293465      1.120477
  H       2.962878      1.261753      0.906293
  H      -0.353302      4.299474     -0.235320
  H      -2.451161      2.584139      0.708160
  H       0.276814     -1.093970     -0.825526
  H      -0.763112     -3.314557     -0.309142
  H      -2.836359     -4.396697      0.423025
  H      -4.253614     -3.486788      0.830128
  H       5.329502     -0.785860      0.345176
34
Coordinates from ORCA-job cmp_geom E -1457.698923360946
  P       3.326111     -1.606775      0.224452
  O       0.385941      1.105647     -1.257073
  O       0.509865      3.942722     -0.491486
  O      -1.618627      3.080013      0.836902
  O       2.692860     -0.272118     -0.456273
  O      -3.310049      1.033649      0.326073
  O       3.720082     -2.471939     -0.919687
  O       2.429012     -2.100059      1.304605
  O       4.642100     -1.030592      0.977997
  N      -1.428908     -0.048399     -0.315579
  N      -3.333317     -1.233023      0.408805
  N      -3.298006     -3.510208      0.511387
  C       0.715026      2.805783      0.314950
  C      -0.615813      2.127709      0.624557
  C       1.424191      1.735316     -0.491003
  C      -0.846646      1.266189     -0.631075
  C       2.158849      0.737400      0.376310
  C      -0.739401     -1.197219     -0.474082
  C      -2.740119     -0.056608      0.156617
  C      -1.309704     -2.390214     -0.196266
  C      -2.660912     -2.367908      0.246274
  H       1.262179      3.064675      1.227960
  H      -0.499432      1.471263      1.494861
  H       2.116183      2.177610     -1.210264
  H      -1.549239      1.764031     -1.305632
  H       1.490266      0.292259      1.120501
  H       2.960401      1.261156      0.909719
  H      -0.353258      4.299881     -0.238847
  H      -2.451634      2.583647      0.708788
  H       0.275652     -1.093510     -0.832503
  H      -0.763405     -3.314447     -0.317025
  H      -2.834387     -4.397002      0.421716
  H      -4.250018     -3.487215      0.835231
  H       5.330468     -0.791974      0.346623
34
Coordinates from ORCA-job cmp_geom E -1457.698925400410
  P       3.325041     -1.606767      0.224436
  O       0.385843      1.106728     -1.257435
  O       0.510939      3.943323     -0.491517
  O      -1.619505      3.081737      0.834113
  O       2.692640     -0.271640     -0.455830
  O      -3.309314      1.033397      0.328005
  O       3.719147     -2.471778     -0.919717
  O       2.427380     -2.099780      1.304242
  O       4.641332     -1.031396      0.978468
  N      -1.428358     -0.048227     -0.315220
  N      -3.331477     -1.233304      0.411506
  N      -3.295569     -3.510556      0.514134
  C       0.714687      2.806067      0.315091
  C      -0.616832      2.128820      0.623596
  C       1.423884      1.735547     -0.490246
  C      -0.846990      1.266541     -0.631700
  C       2.157537      0.737041      0.377162
  C      -0.739281     -1.196991     -0.476299
  C      -2.738959     -0.056737      0.158227
  C      -1.309095     -2.390211     -0.198478
  C      -2.659446     -2.368098      0.247244
  H       1.261159      3.065010      1.228614
  H      -0.501291      1.472637      1.494232
  H       2.116620      2.177758     -1.208919
  H      -1.549950      1.763288     -1.306651
  H       1.488133      0.290949      1.120014
  H       2.958271      1.260454      0.912086
  H      -0.351722      4.301772     -0.238720
  H      -2.452398      2.584669      0.707726
  H       0.275096     -1.093198     -0.836551
  H      -0.763017     -3.314303     -0.321303
  H      -2.832593     -4.397362      0.421160
  H      -4.247449     -3.487895      0.838450
  H       5.331849     -0.797756      0.347611
34
Coordinates from ORCA-job cmp_geom E -1457.698923553004
  P       3.324403     -1.606404      0.224081
  O       0.385760      1.106894     -1.257472
  O       0.510917      3.944009     -0.491473
  O      -1.619995      3.082296      0.832995
  O       2.693297     -0.270658     -0.455902
  O      -3.309226      1.033144      0.328512
  O       3.718835     -2.471238     -0.920062
  O       2.425726     -2.099147      1.303165
  O       4.640814     -1.032155      0.979067
  N      -1.428092     -0.048261     -0.314670
  N      -3.330890     -1.233550      0.412446
  N      -3.294547     -3.510808      0.515630
  C       0.714377      2.806472      0.314940
  C      -0.617225      2.129315      0.623239
  C       1.423601      1.735979     -0.490292
  C      -0.847116      1.266540     -0.631798
  C       2.157443      0.737623      0.377166
  C      -0.739083     -1.197008     -0.476458
  C      -2.738573     -0.056931      0.158841
  C      -1.308717     -2.390305     -0.198619
  C      -2.658902     -2.368280      0.247863
  H       1.260927      3.065154      1.228512
  H      -0.501719      1.473337      1.494026
  H       2.116278      2.178318     -1.208973
  H      -1.550371      1.762697     -1.306881
  H       1.487945      0.290977      1.119592
  H       2.957762      1.261227      0.912495
  H      -0.351489      4.302768     -0.238246
  H      -2.452815      2.584881      0.707470
  H       0.275138     -1.093250     -0.837103
  H      -0.762603     -3.314312     -0.321942
  H      -2.832179     -4.397661      0.420091
  H      -4.246960     -3.488434      0.838410
  H       5.333588     -0.803487      0.348882
