161
Coordinates from ORCA-job /data/Seafile/cmp/protonated/frames/frame09/dry/cmp_prot09 E -13392.483536152415
  Si          3.52631441096877     33.93762230122310      7.83236756948485
  Si          3.44812230008546     30.84617849824417      7.87048710612742
  O           2.31447608035562     34.89137244388029      8.35531635567946
  O           2.10181066385743     30.13768222707687      8.45013723885962
  O           3.43753618091315     32.40208920946149      8.37895640693093
  O           3.59402275354326     33.87288792612609      6.18888765937676
  O           3.48672478891151     30.90033881242994      6.22673018444446
  Si          6.11174867934650     26.20670289882500      7.83984203390574
  Si          8.71944327740110     24.54150291725847      7.83774435522471
  O           4.67542333580421     25.66151318746052      8.37707508800458
  O           7.38390620913076     25.32639128319043      8.36489741927427
  O           8.59140752241399     23.00837276190636      8.37339461169249
  O           6.18432157083821     26.24454632510533      6.19550580089100
  O           8.69661584448466     24.64332279537684      6.19565994144531
  Si          6.09602284398109     29.27536999361782      7.78045329417475
  Si          6.15973295542204     35.51189375998391      7.75150382418713
  Si          8.90000342347745     33.89008563564881      7.70356165870029
  Si          8.87344007676610     30.82409470435829      7.75018104462073
  O           4.80929583704929     30.08788223051740      8.37710180120338
  O           4.90047599020916     34.66550781447039      8.34222507026071
  O           7.54747060067304     34.72242111423714      8.05631642817250
  O           7.46422052586675     30.09395478193011      8.10604674965732
  O           6.21048471055299     27.75663042683673      8.35864101127252
  O           8.81236198798756     32.36838395715382      8.29625356600394
  O           5.82582454918185     29.19002201108270      6.16041110058907
  O           5.93678033419751     35.71503544150940      6.13509039475471
  O           9.13142359808580     33.79883089655219      6.08334768260167
  O           9.07985734292634     30.93937175317054      6.12512199723775
  Si          6.22907170012954     38.58983744493680      7.85831642954555
  Si          8.95018961604615     40.05868811934442      7.88617210976396
  O           4.94808227819782     39.43099651374961      8.40713261418420
  O           7.56374869399868     39.37151487878444      8.39983739611855
  O           6.23342680797983     37.02951641656932      8.35567229102263
  O           9.16443252635747     41.57881008272092      8.42304014179581
  O           6.33882434110884     38.58787976245440      6.21681354182296
  O           8.97706383723165     39.95935055774186      6.24358460101518
  Si         11.41450563783598     26.02333254789750      7.76852276106298
  Si         14.10756822851002     24.53970397438487      7.82691071826332
  O          10.07990549458538     25.28993573893860      8.35804046736994
  O          12.79097876633312     25.36441702771151      8.34222514011739
  O          13.89683630691702     23.00809298250872      8.34213558706191
  O          11.36374356856103     25.76802985888154      6.14491684316391
  O          14.12478225468041     24.63744687889589      6.18408282839060
  Si         11.46846061651831     29.19980054852816      7.78044450513353
  Si         11.59000577392907     35.38280866882153      7.83921362433864
  Si         14.27199375712707     33.72800245235049      8.24518440100530
  Si         14.16193061461184     30.62719868348693      7.81507771959123
  O          10.13389041389204     29.97111660500162      8.35259281864990
  O          10.17934911375552     34.69911312846703      8.31337862181855
  O          12.87786478368922     34.67171270932390      8.48367493445079
  O          12.85589627559195     29.79874941878264      8.38873478466912
  O          11.34913796336334     27.61154711528621      8.11026457233007
  O          14.28355337330999     32.06672834557181      8.52152955500261
  O          11.47404735560868     29.46093603601857      6.15795606492133
  O          11.63937360930599     35.33549966320501      6.20541098094004
  O          13.95362934955390     33.46004312139063      6.57001510872172
  O          13.91613754821810     30.82964334311364      6.20714656963964
  Si         11.61344743844870     38.54397393521317      7.86237964297689
  Si         14.30077568659449     40.05002440361170      7.87209367446718
  O          10.25527969554553     39.22822052902416      8.43133811216381
  O          12.97928499176789     39.25470962662563      8.44737702330337
  O          11.66583329480759     36.97608206298801      8.30144754135330
  O          14.41013411993544     41.56751486163645      8.44472264372630
  O          11.68111003197251     38.77142428805221      6.24095531059398
  O          14.28362899787280     39.98825568185946      6.23615178983239
  Si         16.85016567648376     25.96353071279634      7.85345336781569
  O          15.48280972403796     25.23180689824731      8.37292695317143
  O          18.08361450321869     25.05170869470964      8.40284861154044
  O          16.77012136813519     25.99293669325109      6.21062306896791
  Si         16.92043303763088     29.03722902048743      7.77528461899296
  Si         17.06365346495344     35.36728556814055      7.73229034277408
  Si         19.68382454219311     33.74705143101218      7.82494968986210
  Si         19.54532399107093     30.65067505190426      7.84344949322684
  O          15.49559448123343     29.72999260945272      8.10517618344381
  O          15.70953827344555     34.56679236950833      7.97051854852532
  O          18.35318784600477     34.54874491550065      8.34736095212767
  O          18.16075579614148     29.93790998169889      8.34401894939093
  O          16.92604615505210     27.51418616115279      8.37310305113830
  O          19.62119871488116     32.20303368066723      8.37812882427833
  O          17.13726321838587     28.85157835584571      6.15486019876065
  O          17.44860441889132     35.49030386385741      6.13003769454071
  O          19.62758533832098     33.66795504194613      6.18618661220454
  O          19.51180694130526     30.69979096733372      6.20122607503680
  Si         16.97311806144586     38.46068377038208      7.81365926822590
  O          15.62205839922806     39.21951924200157      8.38111098085373
  O          18.32657687546327     39.12102338006761      8.42706575183302
  O          16.94487879099070     36.90898795479168      8.29427001203793
  O          16.92876510049144     38.52260904922973      6.17654808844699
  O          20.76205205925379     29.72512306311938      8.40460350384926
  O          21.07667831611455     34.39313599370987      8.37122569213543
  H           4.07465750086360     24.98677205823974      8.03659116238672
  H           1.41040902931950     29.60201500717340      8.03674926088589
  H           1.41040870629510     35.00798512273241      8.03674920774151
  H           4.07465744321538     39.62322798022759      8.03659115799871
  H           8.94818086112268     22.17325482071642      8.03830169762789
  H           8.94818077409373     42.43674516466852      8.03830169014967
  H          14.27776171973318     22.17320386025266      8.03828218743134
  H          14.27776174111736     42.43679614072815      8.03828218890915
  H          18.96055651385616     24.87622778019396      8.03640578314596
  H          18.96055644122743     39.73377216019124      8.03640579827721
  H          21.62471758117464     29.49141983571783      8.03658337117408
  H          21.62471722664924     35.11858005764014      8.03658340999899
  H          13.46066624153995     34.15965661404681      6.13206747674191
  H          10.88899820352782     34.86485089688552      5.81373765617278
  H           9.10057175144735     32.88453721519443      5.75540766351243
  H           9.85334128698117     30.43363175075280      5.81683407863675
  H          12.29303925381195     29.91122255196071      5.87158789205154
  H          13.90915678973008     31.80837808906389      6.05329981043613
  H          13.45794600293229     39.62654104983790      5.87540860330825
  H          10.84106020143629     39.05623428749892      5.85201006563618
  H           8.17429934100669     39.55582952502474      5.87935478366065
  H           6.17053885327270     37.71494048047041      5.82863167425401
  H           5.27177430643016     35.12477173827435      5.75418195471808
  H           3.55961135055511     32.96693108775675      5.84704266805992
  H           4.17424204784780     30.32884090945596      5.84960703399301
  H           5.99339212139139     28.31435771924485      5.78409600749303
  H           6.93861022946842     25.75066186264443      5.84066951041425
  H           9.53731426292502     24.95393808424928      5.82458838139187
  H          12.20745190137789     25.48445835385255      5.76637942789218
  H          14.92871447796376     25.05384523667712      5.83914224359075
  H          16.93020466343821     26.87545919482686      5.84028337184727
  H          17.78618997156424     29.45361750470358      5.76793513687008
  H          19.54721257818474     31.59991909011228      5.84483711673016
  H          18.95129104416188     34.25489318195930      5.80938569558385
  H          17.22151365581988     36.32893918426282      5.71405972200249
  H          16.15058274577792     38.97173530751895      5.81918814981180
  P          15.83569633002927     33.77654856907790     10.84629348026773
  O          12.93310785907260     32.66046751516212     13.55673625119383
  O          11.66808128941118     30.35793073799168     12.02894315109528
  O          10.60738789350902     32.47798092327312     10.99975457426629
  O          15.33943077297194     33.17434190654623     12.23766275948503
  O          11.00785907429619     35.30853550806112     11.06897894196318
  O          16.59643772447459     35.01528051281715     11.07116753805360
  O          14.54402767892943     33.91346561681620     10.02345469168925
  O          16.70512070642651     32.59849533712313     10.23015693314942
  N          12.64369985347265     34.76260235967651     12.55927050093790
  N          12.90675137973947     36.53918508563996     11.07869584023207
  N          14.93931801258759     37.62165580226661     10.88787688832493
  C          12.60176042587268     31.33091884680665     11.63772029497996
  C          11.92720000827216     32.67955391855296     11.40107642492292
  C          13.53118192419370     31.58345197658395     12.81249337914245
  C          12.06801786301739     33.39458179012330     12.76421623380115
  C          15.01351794691274     31.82647226521197     12.52751179852315
  C          13.77136864872818     35.14876277516520     13.18612775319922
  C          12.09494632194705     35.52070921421504     11.54916643209476
  C          14.51396314500923     36.19690306411668     12.75890263188003
  C          14.13878886035575     36.80755406102097     11.54997892438887
  H          13.14853404123992     31.01403936204798     10.74524960852175
  H          12.49944843814681     33.22472597590718     10.65081239192089
  H          13.48052019376001     30.69876687805324     13.45262386349815
  H          11.10043273689110     33.50772536294049     13.25769667847558
  H          15.33978758419067     31.15829336112440     11.72614006116849
  H          15.58237530228872     31.57448835254671     13.42482377061383
  H          10.86296144635982     30.52681169403887     11.52321907524767
  H          10.28300601178788     33.31309043822612     10.64371240813783
  H          14.07224030181912     34.52389918002354     14.01245673686057
  H          15.46192739606425     36.42789820009562     13.21500334582691
  H          15.92608951606501     37.51391413774626     11.07139248380619
  H          14.70611123813821     37.95469114933437      9.96385092193986
  H          17.53158234472387     32.92858779265858      9.85595701964949
  H          12.59570315789312     36.90619227644638     10.18099892542335
