163
1 Eopt=-411.1721924457 (Eh) Einter=6.544915 (kcal/mol)
Si 3.55619754831240797444 33.84476441907042953972 7.82276358316515452174
Si 3.55590031508026704898 30.76676464446639158723 7.82284081267887465572
O  2.14725499828928612089 34.47991502045314149427 8.40973852823709933091
O  2.14683469226788048445 30.13191596573311414886 8.40984761880210918150
O  3.71004511387498059349 32.30576444321606999210 8.41280326947211065658
O  3.55520841455004710241 33.84672284694361366064 6.16676352244821490700
O  3.55491061445741252101 30.76472337104019416643 6.16684083616672573669
Si 6.21945434478620473584 26.15150714095319983699 7.82297318458690504883
Si 8.88330595011516521708 24.61424970499227171672 7.82302827381874532620
O  4.81038908386663255357 25.51665843575517556019 8.40997989540775137129
O  7.47536351686789402038 25.24940042937486239794 8.41000350273904118126
O  9.03815422797936918187 23.07524947525669745119 8.41306749288963473532
O  6.21946466279005161226 26.14946604809546570891 6.16697310708165424842
O  8.88331682581847914548 24.61620855380867567419 6.16702822473246126123
Si 6.21975164727703777601 29.22950706243734586565 7.82289649858896041223
Si 6.22034606172987469819 35.38150692872144276180 7.82274214712920201720
Si 8.88419752615086721903 33.84424963986664636195 7.82279781724909373253
Si 8.88390019806116271184 30.76624950063330743433 7.82287488846951273302
O  4.81080923808956217869 29.86465797560922652565 8.40987135993210266349
O  4.81128092790607997387 34.74665786463936001383 8.40974902140749591695
O  7.47625511475394421979 34.47940035592738183823 8.40977289935135985388
O  7.47583490878372192157 30.13140060595353020290 8.40988174308143854319
O  6.37359935266580190927 27.69050702461021273848 8.41293561029675274199
O  9.03904497255881267392 32.30524950171534470655 8.41283747908457080200
O  6.21976243841810738644 29.23146574915948292528 6.16689619383826492793
O  6.22035653941886934604 35.37946534275105392453 6.16674219863351069648
O  8.88420829016079593998 33.84620807575365830644 6.16679779859214249882
O  8.88391047301675484960 30.76420833604479554424 6.16687500241127661837
Si 6.22064342897946964683 38.45950675912762051212 7.82266469593939728355
Si 8.88479195854471015537 39.99624949591355260736 7.82264304996780612811
O  4.81170078738322892775 39.09465713703001199519 8.40963963102072753486
O  7.47672682182335979206 39.36140026638112487944 8.40965003183625725569
O  6.37449096620974220428 36.92050681764843034216 8.41270448591082953271
O  9.03993734267012527539 41.53524933974886579335 8.41260523497136780691
O  6.22065423084441704304 38.46146494225438772219 6.16666464606405462234
O  8.88480247302377357244 39.99420773016957042501 6.16664310179741459450
Si 11.54845426543997355395 26.15099232082599201021 7.82300714384328177431
Si 14.21330579317372055925 24.61373504549257518192 7.82306255271509343174
O  10.13938923543223680213 25.51614301023832354076 8.41001392840582617794
O  12.80436339191097872003 25.24888562992902407700 8.41003766016676124195
O  14.36715428839748831535 23.07473467675164258139 8.41310178708810596504
O  11.54846468251285607209 26.14895111550854167604 6.16700719743021963382
O  14.21231682326827971963 24.61569388433539629091 6.16706249114691296143
Si 11.54875147524837508684 29.22899221234851907525 7.82293038192392131691
Al 11.54934569620204065643 35.38099187550063362551 7.82277629859011014446
Si 14.21419715528234029023 33.84373454165827155293 7.82283187132363178051
Si 14.21389986203103461548 30.76573487241203963549 7.82290903365204659536
O  10.13980916160376644086 29.86414315313395917428 8.40990558866680970596
O  10.14028084197436818670 34.74614301863905296841 8.40978323152016393749
O  12.80525524136607096182 34.47888607541963779113 8.40980713303899563016
O  12.80483483322352178391 30.13088562601044273492 8.40991595686272397359
O  11.70259912316650918740 27.68999213910607437583 8.41296980224574042495
O  14.36804480518074100814 32.30473470601210550512 8.41287146299955956863
O  11.54876231182588597335 29.23095090854236843825 6.16693037967305723868
O  11.54935628314611939516 35.37895058054047581209 6.16677637675308965015
O  14.21320802728502208367 33.84569333620868292201 6.16683183762561970553
O  14.21291020474929567285 30.76369351948205377312 6.16690907918343533822
Si 11.54964335242459405606 38.45899209880021629715 7.82269887032002042559
Si 14.21479182594617896029 39.99573457960248390464 7.82267713227325156566
O  10.14070098913770046067 39.09414297583899866595 8.40967387723268799959
O  12.80572673587606224999 39.36088552766076276157 8.40968415931788726425
O  11.70349088742524301665 36.91999212094033566700 8.41273863154545331611
O  14.36893717946043480538 41.53473451301816510295 8.41263927805382394354
O  11.54965410883929877173 38.46095035047422783236 6.16669881898752869631
O  14.21380227463999545989 39.99369288725435467313 6.16667717653509939169
Si 16.87745391685276175053 26.15047760347167837836 7.82304130851331702701
O  15.46838899315995874417 25.51562837187157484209 8.41004823906105158926
O  18.13336275092409266563 25.24837058779670329045 8.41007176952654589286
O  16.87746415513840858580 26.14843622939144651696 6.16704135643031303715
Si 16.87775123009015132425 29.22847752609406413171 7.82296442279401649245
Si 16.87834565293961119892 35.38047743605681461077 7.82281019537365285288
Si 19.54219697431516067354 33.84322009136037934240 7.82286558200703563415
Si 19.54189956474035128053 30.76522001774366543714 7.82294276156997625549
O  15.46880890764122895575 29.86362830612118912654 8.40993960543269025720
O  15.46928064335486752157 34.74562826258279812919 8.40981724526623608540
O  18.13425471829723889527 34.47837082844413458815 8.40984083329897025294
O  18.13383458957715888005 30.13037082436181179901 8.40994984759552011155
O  17.03159884018234393466 27.68947743056861554578 8.41300386986095816155
O  19.69704456877239096002 32.30421987332181998909 8.41290516827103651565
O  16.87776192930684970861 29.23043612843462213391 6.16696437362451188591
O  16.87835593668033240533 35.37843578381828990587 6.16681025282617678585
O  19.54220750837171749481 33.84517861485587530979 6.16686553291479633288
O  19.54190971132479148764 30.76317845064572509273 6.16694281229499008390
Si 16.87864312409828215777 38.45847737726802506586 7.82273276744661316684
O  15.46970084667643163812 39.09362819211293071930 8.40970792133829014858
O  18.13472631093890186094 39.36037116619151277064 8.40971797642390939131
O  17.03249067265499050450 36.91947735932635055178 8.41277248442355940483
O  16.87865370774224871298 38.46043573928093906034 6.16673271741471040741
O  20.79780834065152461676 29.86311288073959957501 8.40997325097123393789
O  20.79828007400696066043 34.74511392507606188929 8.40985083206560268820
H  4.07465745434199977382 24.98677200564670641825 8.03659117257143407187
H  1.41040903153379915125 29.60201495410947813980 8.03674928624237416841
H  1.41040900953703562948 35.00798498540236636245 8.03674926253559185341
H  4.07465743684190950802 39.62322797137422725200 8.03659115977191795821
H  8.94818084649245548690 22.17325470653916141828 8.03830168969446212657
H  8.94818087940361550636 42.43674530235030317726 8.03830168068704686846
H  14.27776164039761574998 22.17320390124969264889 8.03828222120695556896
H  14.27776172986128777609 42.43679616168219581596 8.03828219205505334344
H  18.96055658464949544850 24.87622777376680360817 8.03640577917127352237
H  18.96055653336345159232 39.73377222812029430088 8.03640577818804047183
H  21.62471722968313514457 29.49141993058345079248 8.03658340870735976580
H  21.62471723351014674108 35.11858007575003881584 8.03658341021825606276
H  13.39922795192234339368 34.28531246380877206548 5.85463176925117956273
H  10.85603170618574608852 34.89218232897892590927 5.71721596318503344492
H  8.79316678148543928728 32.97374190005168514972 5.76219940801966501454
H  9.66357962087301380905 30.35160701154365980869 5.76895568491749699547
H  12.30629749558051777569 29.68608882693718342694 5.77123880289654955789
H  14.17430145923352569071 31.65300280376688846218 5.78286317151014106486
H  13.45700859298911389317 39.52750482932555087245 5.78093078867017418077
H  10.82185198377815282811 38.95872177278246084597 5.76976940778735603033
H  8.14980839576645266220 39.50861002871987182061 5.76627385366587663640
H  6.23194667494284537668 37.58116492086080739909 5.76471310408843251594
H  5.44704955422763781314 34.95093754263617569222 5.77257540962847848220
H  3.60664936129203095305 32.96826993217958801097 5.76388710702182649470
H  4.32819223557374144207 30.34484056474835966810 5.76402041924832531095
H  6.20754698419427786149 28.34935900139294417954 5.76818374575762149448
H  7.00943285915478053738 25.75772182370607765733 5.76748914740830720405
H  9.64047060802608335450 25.06526887693850369487 5.76511829247031837298
H  12.31477063192396848024 25.70825778172137532351 5.77188275767241609771
H  14.95393930199982968077 25.09100721400180589171 5.76597661961774932138
H  16.85170393271436140026 27.02666099231293728167 5.76146800046177709476
H  17.64768340230521914691 29.66420704524187001994 5.77142433810777877312
H  19.48180900494168810155 31.64168672118248437641 5.76490010385742746024
H  18.77140968654915553770 34.27358367893386770220 5.76790924671175098126
H  16.89481965380009498290 36.26079389684979048525 5.76914703469071188380
H  16.09152696991244368974 38.86028470179316940403 5.76951241494309474689
P  12.52386103141133055772 35.62407891884586064180 16.57114459233842396202
O  11.45882860347102116805 31.94707805200008365887 13.57949976961114835206
O  11.73076627409712102690 32.63046443897045634230 10.16696386014759312388
O  13.82114840393621868486 32.76488168886513108191 11.78145987587757836934
O  12.76489527430892678694 35.00751648113992331446 15.02325870882922131955
O  11.84725086182987219274 34.60832235837287385039 17.41232211144683716952
O  11.41101401008321758468 36.80789126285053924903 16.19741935893091167031
O  5.27077939124768146684 29.91681044451570414822 11.93034756989592182208
O  13.78741960060019344780 36.29882541193283884695 16.95975526461733551287
N  9.50372715995519001808 31.73123486992571784526 12.32953334084514551705
N  7.35345392283896437391 32.13591057680350360215 12.76585657586264588303
N  9.32803322354748587486 29.55615647039140014840 11.30660914950477469176
N  7.10003133636303385146 28.84642596749321086236 11.13975723709121901095
N  8.85945716626048174192 27.50558121573978098695 10.39504302042617922552
C  11.43861376088852921384 33.05484054371475366452 11.46488977205777715085
C  12.70510687223490542408 33.47146602726098052472 12.25545653441762539160
C  10.93935524877449338987 31.84673989849214592596 12.28060975015273470490
C  12.36751786271808484230 33.04769408013040532524 13.69187374920736388617
C  11.76261434347507339737 34.16668114990478244408 14.55192321332078009277
C  8.80742685370293720837 30.66224700799761038184 11.87451890451327329856
C  8.56924100297775481749 32.58365540052309228258 12.85203149463216831805
C  7.45787800227441532996 30.91805969055035063775 12.14281715764873936791
C  6.47603225824636297148 29.94939940026307212406 11.76661931483472400828
C  8.43968303005489239865 28.69194274787825804651 10.92751663908948067672
H  10.69158232839216182697 33.85703467595127591494 11.46832977862576186112
H  12.89108327526995623202 34.55105037661257227910 12.19742448082875263538
H  11.28886892865232560723 30.92451329971993345680 11.79153979091952919589
H  13.26891959780333607455 32.68134133343504288405 14.19335475800974499805
H  11.24601235143685507012 33.70998613693801360114 15.40582700928991144451
H  11.03049248407391935700 34.73920734430954126992 13.96309798436008442479
H  11.88092450939191735415 33.40828541447229582673 9.60421740182444239053
H  13.64152897289213939302 32.54085213677487331552 10.85228019549573019731
H  8.83778803928006517765 33.51346924761877232868 13.31146172436280750162
H  6.46366241865903035091 28.16262141688287456986 10.75109257775069160346
H  8.21397506987219117036 27.02457108985858269534 9.79165072196271069060
H  9.81187342642337689824 27.53587559139377560768 10.06422434741056015639
H  11.95478688537638767286 37.44347601087864063629 15.73840434362714191252
