69
Properties=species:S:1:pos:R:3 6=T Eopt=-476.5183932993 (Eh)=T Einter=13.134694 (kcal/mol)=T pbc="F F F"
O       13.63233088      28.91792078      19.12141644
P       13.43430802      28.70328729      17.66891404
C       14.66419734      30.97011568      17.35574115
H       15.04882828      30.86496773      18.37824237
H       13.71595022      31.52149267      17.40039955
O       14.46724891      29.70877697      16.80641699
C       15.63689452      31.79168660      16.50847444
H       15.75474241      32.78157803      16.97416806
O       16.93094841      31.18256322      16.42922256
C       15.16679588      31.99786214      15.06177234
H       14.64466701      31.09901560      14.71170558
O       14.32246209      33.10864546      14.99035166
C       16.50409080      32.13476137      14.30150932
H       16.40403589      31.79023560      13.26366551
O       17.04189295      33.41729284      14.35342824
H       16.42646440      33.96063015      13.78700561
C       17.40273650      31.18432732      15.11416884
H       18.44321816      31.53823337      15.09632032
N       18.62344942      28.19534964      11.10479107
C       19.11904310      29.36006238      11.50244126
H       19.85432216      29.79833288      10.84021443
N       18.80748960      30.07460751      12.56739268
C       17.93364314      29.45438548      13.36728309
C       17.42532047      28.16598520      13.12208815
C       17.70229059      27.60014945      11.86974491
N       17.07175966      26.46945437      11.45654259
H       17.15245478      26.29169337      10.46683497
H       16.12365290      26.40188700      11.83092877
N       16.63621168      27.77556718      14.16770887
C       16.61825147      28.79010197      14.97783847
H       16.05543688      28.82325528      15.88989070
N       17.37741713      29.84664383      14.55333671
O       11.99113821      29.31076438      17.22477501
H       11.91243986      29.11833920      16.27808261
O       13.61813660      27.35533258      17.04314558
P       13.93740176      33.76609888      13.54264686
C       13.26462341      32.47030993      11.41674487
H       13.64680238      31.58508018      10.89514088
H       13.76712683      33.35911138      11.02085931
O       13.56608646      32.33458218      12.77384815
C       11.75111379      32.55190552      11.11858616
H       11.57953657      33.32838552      10.36534676
O       11.28381017      31.31754774      10.56106174
C       10.86303050      32.81471051      12.35970154
H       11.41347657      32.48983809      13.25237965
O       10.46727472      34.14034730      12.49830833
H       11.23273401      34.56267667      12.96323609
C        9.69381216      31.82739743      12.15670231
H        9.20924041      31.55719911      13.09473362
O        8.65574375      32.28704588      11.34165443
H        9.02957094      32.61099807      10.51425429
C       10.46293038      30.67151024      11.48274665
H        9.81099003      30.00249209      10.90588752
N       14.27631395      27.26576355      12.20496079
C       13.83928228      27.89125690      11.12142878
H       14.36470244      27.66071618      10.20162094
N       12.84966001      28.75177775      11.00435630
C       12.25685626      29.02334820      12.16852419
C       12.61288168      28.43613605      13.39327549
C       13.67293039      27.50101275      13.39295218
N       14.04337505      26.80157539      14.46103772
H       14.96002285      26.38319703      14.39079736
H       13.77504142      27.11332344      15.42149683
N       11.80927314      28.93165892      14.38626215
C       11.02201499      29.77567650      13.79637941
H       10.27788145      30.33274548      14.32738603
N       11.21859003      29.87986014      12.44428610
O       15.12735397      34.37336196      12.87726234
O       12.73109268      34.60753763      13.75388136
