195
6 Eopt=-476.5183932993 (Eh) Einter=13.134694 (kcal/mol)
Si 3.55625020671091274238 33.84481353351181098787 7.82283051915270633003
Si 3.55593639111610926307 30.76681374915354538757 7.82283149630000451680
O  2.14730557471405880676 34.47995712597499817775 8.40980823222401063788
O  2.14686231936026672429 30.13195801651900751494 8.40980966003689012211
O  3.71008410050544323866 32.30579812108902615364 8.41283351198806528259
O  3.55527628585987010013 33.84681297099004382289 6.16683050738161853133
O  3.55496202319385457002 30.76481349853661839688 6.16683148078232168388
Si 6.21946585281427655190 26.15154206182450380425 7.82287394450120832090
Si 8.88330922013487267463 24.61427032454327701316 7.82291554174543346534
O  4.81039182395409259385 25.51668623936449620260 8.40985212959988537307
O  7.47536479140353993245 25.24941401128668871934 8.40989357563206851864
O  9.03814384333039200214 23.07525464047193253236 8.41291806283399346000
O  6.21949137288080500241 26.14954191169591979360 6.16687394112443776351
O  8.88333532784192314580 24.61627018258145227492 6.16691554205867564775
Si 6.21977961395670941869 29.22954196709758889483 7.82287340411451292965
Si 6.22040692436022002454 35.38154178510624348064 7.82287165150454910645
Si 8.88425014531473777879 33.84427021897056420130 7.82291374773873382509
Si 8.88393629466793477434 30.76627024296251633473 7.82291454548682008152
O  4.81083521915522638324 29.86468585880971460256 8.40985130727018770358
O  4.81133299411251869060 34.74668571191969590473 8.40984984538440016877
O  7.47630574154676263987 34.47941394018934602173 8.40989159825426568773
O  7.47586236831400086089 30.13141407687877659782 8.40989279977832460133
O  6.37361355285913866453 27.69052643161077043032 8.41287611918589561810
O  9.03908396930660096302 32.30525465174606125629 8.41291669678077269623
O  6.21980562217971844063 29.23154162566754621366 6.16687340563897734569
O  6.22043261182729612102 35.37954121132563045649 6.16687165150807459213
O  8.88427616153902022234 33.84626969623549541666 6.16691376505174382316
O  8.88396188579567791521 30.76426993707842783010 6.16691463419512686528
Si 6.22072074768645499887 38.45954160653200659681 7.82287044018788702004
Si 8.88487750897063754962 39.99627009131478416748 7.82291134458444670230
O  4.81177610562067670230 39.09468497624492044906 8.40984815222254056266
O  7.47680357043115684235 39.36141385157839778230 8.40988966798952475301
O  6.37455463129578348003 36.92052622908459369455 8.41287352606772032004
O  9.04002566504520110868 41.53525456152142680821 8.41291306856172305118
O  6.22074678696804017619 38.46154080497258576088 6.16687043947965918278
O  8.88490322237789875714 39.99426934355971496871 6.16691135434479242861
Si 11.54846575051708867932 26.15099867921630760748 7.82295699497901075858
Si 14.21330908905602719017 24.61372710955216192019 7.82299880539583991634
O  10.13939192987651338740 25.51614235651252471371 8.40993508314823934313
O  12.80436465994194428220 25.24887072969545798173 8.40997669373314593599
O  14.36714375775233953902 23.07471146400357042694 8.41300134301642010826
O  11.54849138095540439508 26.14899848653479352834 6.16695698235195877146
O  14.21233531872345601244 24.61572701271413521340 6.16699877877144775340
Si 11.54877957219576778414 29.22899836043995591695 7.82295669633646717500
Si 11.54940674503529507433 35.38099852577248327634 7.82295480025596923213
Si 14.21424987901339598295 33.84372687833188564355 7.82299681337647356827
Si 14.21393612976246778601 30.76572673444530892084 7.82299775779221207017
O  10.13983508568448677067 29.86414244480010182770 8.40993441022571097676
O  10.14033289227894485407 34.74614237279564576966 8.40993307019361857613
O  12.80530559207309693193 34.47887069030459628038 8.40997468236650114193
O  12.80486200802803864462 30.13087104660527515421 8.40997577388975514623
O  11.70261342695349782161 27.68998309247412947798 8.41295910779159150650
O  14.36808384377624747685 32.30471138357061278157 8.41299967778554247388
O  11.54880545114276557683 29.23099834526092166698 6.16695645692520777459
O  11.54943233917745892825 35.37899793576701057418 6.16695480132834283893
O  14.21327587542369741413 33.84572641729246100795 6.16699678221718627924
O  14.21296159367103761895 30.76372669661875747238 6.16699766520476089227
Si 11.54972065817816506694 38.45899842563660087080 7.82295359238719001382
Si 14.21487735380478412139 39.99572666953677924084 7.82299441741134859996
O  10.14077630270632290888 39.09414231007106366178 8.40993138047685562242
O  12.80580347731069323913 39.36087061204381853941 8.40997276705246576967
O  11.70355452216456804138 36.91998300292319612481 8.41295663580297414796
O  14.36902552310095160237 41.53471116393855311344 8.41299609786776514397
O  11.54974665245236487010 38.46099771208018580637 6.16695359151790878371
O  14.21390301452903592860 39.99372599883730572401 6.16699440307025437136
Si 16.87746536861022406129 26.15045549434538685318 7.82304011250340725070
O  15.46839171623602204875 25.51559918388297276692 8.41001837430873067092
O  18.13336402732652175018 25.24832718438941014938 8.41005978256126063286
O  16.87749084896123008548 26.14845509392138822591 6.16704011274522656549
Si 16.87777918083036254870 29.22845537975439356160 7.82303950167448824971
Si 16.87840650351517268746 35.38045526579946198353 7.82303765318245236671
Si 19.54224960375595188111 33.84318371828445748406 7.82307942560848346147
Si 19.54193573402858064014 30.76518362689823504752 7.82308036220698532759
O  15.46883484276692755088 29.86359916336003905712 8.41001742424871068238
O  15.46933270039184016298 34.74559913059205484842 8.41001601358345673987
O  18.13430533913876274710 34.47832741678114842898 8.41005748094394967040
O  18.13386195932372046968 30.13032742584013590204 8.41005878350844149338
O  17.03161314860130559623 27.68943984276819492152 8.41304220890445897396
O  19.69708353114482690671 32.30416802479872018239 8.41308234033036939081
O  16.87780510818480905755 29.23045500616724723386 6.16703947456674939076
O  16.87843199451615205930 35.37845465780347353757 6.16703765285431870780
O  19.54227535911525848178 33.84518323986483068211 6.16707944302906785339
O  19.54196108601630754720 30.76318307761473391793 6.16708037441236900378
Si 16.87872042893448565337 38.45845523499087903474 7.82303645758100785201
O  15.46977615228652425117 39.09359903980296024884 8.41001439684180063239
O  18.13480301855402743172 39.36032774304658943265 8.41005556645816554351
O  17.03255432071827613072 36.91943977709662050302 8.41303947588117395640
O  16.87874623640544413661 38.46045460877646604558 6.16703645959681701072
O  20.79783433992116314926 29.86305523446918641639 8.41010005533446758363
O  20.79833212003353537511 34.74505627947771557729 8.41009857603051713681
H  4.07465743854348438902 24.98677207691972768089 8.03659112539813413889
H  1.41040896921028391375 29.60201496902345752460 8.03674925632147640897
H  1.41040931407956549037 35.00798490350934599746 8.03674929723433351114
H  4.07465743678646585835 39.62322797215033176599 8.03659115996411443916
H  8.94818084669351421212 22.17325470599854142506 8.03830168961880531242
H  8.94818096925030737054 42.43674493138928482949 8.03830172381068663867
H  14.27776159510587028478 22.17320416096233515191 8.03828223086244442186
H  14.27776172875873861301 42.43679616370554441573 8.03828219209269789758
H  18.96055658161676404916 24.87622776865726592632 8.03640577767522934494
H  18.96055652888657050426 39.73377226762249847525 8.03640573530301516314
H  21.62471695256450843203 29.49141998543226250717 8.03658343252094731213
H  21.62471723320666328050 35.11858007719987284645 8.03658340890853395422
H  13.43954240793059007331 34.27033906585149480861 5.76911863220511733630
H  10.79702478180523961271 34.91824967549569436187 5.76839602514358684715
H  8.90770700739693310766 32.96594596497625673237 5.76499475641695724448
H  9.65945433740442638282 30.34299408604558934144 5.76888005014225768718
H  12.30259137476027930802 29.68912266544650435662 5.76803922801552548805
H  14.18560351780195283311 31.64418151675273094270 5.76552258110239002065
H  13.46208429039024068175 39.53603768207772617416 5.76468154408454580562
H  10.78553467870828797004 38.90473306668126696195 5.77122838975313090515
H  8.14831461397222867049 39.50994490638998968279 5.76699955036327516211
H  6.23317386277300133912 37.58286575780442007044 5.76180503600704163603
H  5.45415702074165587021 34.93908511470311850644 5.77152547610740551676
H  3.60566386792407023165 32.96814933239520684083 5.76410508783906649910
H  4.32812544139571642177 30.34544671562149176225 5.76331957712761600021
H  6.21212642235635659205 28.34933201773255007083 5.76816829171087519512
H  7.00946743467387456406 25.75759722034836585181 5.76754704195328837812
H  9.64012207186506309142 25.06582757791447235718 5.76488469565735606182
H  12.31500792570331803688 25.70853944718880867981 5.77192568394320737468
H  14.95343799215407010195 25.09203406463070962218 5.76610003301979290313
H  16.85241664424522411991 27.02653749763650381510 5.76116217598580071524
H  17.64630213920852952469 29.66655897642794315061 5.77122747443363337538
H  19.48194552508293853066 31.64158903530488942124 5.76482831433833275980
H  18.77355784260947757502 34.27390176210479211250 5.76498788529702643757
H  16.88031298472335350880 36.26100719831919860781 5.76894103306663375008
H  16.09309773693966150176 38.86024083794701766692 5.76722976415621069179
O  13.63233088358793665407 28.91792078290392709050 19.12141643608253360753
P  13.43430801644080041513 28.70328728621359459794 17.66891404486906935745
C  14.66419734140738206918 30.97011567772123541431 17.35574115021251984103
H  15.04882827530488853540 30.86496773340739352420 18.37824236697090896087
H  13.71595021571587658116 31.52149267093890117053 17.40039955397875104381
O  14.46724890982721056787 29.70877696901707665234 16.80641699286928059109
C  15.63689451734020607887 31.79168659996974000137 16.50847443791469970620
H  15.75474240776797785202 32.78157802842618195882 16.97416806137313471936
O  16.93094840876940310181 31.18256321609398185046 16.42922255864416669624
C  15.16679587823624331122 31.99786214104867099195 15.06177233906965362564
H  14.64466701120725389274 31.09901560290197508607 14.71170558396735117412
O  14.32246209492901023452 33.10864545935250191633 14.99035166026564880326
C  16.50409079658195565798 32.13476136917327607989 14.30150932464450264092
H  16.40403588953425639829 31.79023559702370249624 13.26366551372295354838
O  17.04189294841766866284 33.41729284134577682153 14.35342824176915499379
H  16.42646440142729247214 33.96063015310181754103 13.78700560968120569783
C  17.40273650195577204158 31.18432731891498832510 15.11416883696564994466
H  18.44321815530733843502 31.53823337330799958522 15.09632032043072413785
N  18.62344941723651814414 28.19534964214193806242 11.10479107066896631295
C  19.11904309930476841828 29.36006237886405045856 11.50244126044061232506
H  19.85432216092693380460 29.79833287609734071566 10.84021442640500154653
N  18.80748959828332544930 30.07460750909908497874 12.56739267631289180827
C  17.93364314352817245890 29.45438547898562120508 13.36728309000910464022
C  17.42532046886902818983 28.16598519713590320634 13.12208815147306850690
C  17.70229059210900857124 27.60014944993770669157 11.86974491090170147345
N  17.07175966463371707960 26.46945436738202062088 11.45654258545322790042
H  17.15245477660366546502 26.29169337260625383124 10.46683496516480715854
H  16.12365290266836836963 26.40188700158038770383 11.83092877192382275098
N  16.63621168130634941917 27.77556717796409913035 14.16770886840933840745
C  16.61825147014117476374 28.79010197171859530840 14.97783847008908253429
H  16.05543688485623121665 28.82325528027156025246 15.88989069642837392848
N  17.37741712623967060836 29.84664383294186862372 14.55333670569757487101
O  11.99113820908463523551 29.31076437773921128382 17.22477501377628783530
H  11.91243985500013025103 29.11833919593379960133 16.27808261100749120942
O  13.61813659776160889692 27.35533257987735566985 17.04314558254129607917
P  13.93740175965627159371 33.76609888083356736388 13.54264686003560669292
C  13.26462341472293715583 32.47030992574953245366 11.41674486826256895711
H  13.64680238450603511069 31.58508018316524612601 10.89514087869629044292
H  13.76712682552007649406 33.35911137965509709602 11.02085931489622794288
O  13.56608646274391816178 32.33458217757331709663 12.77384815012393914913
C  11.75111378935619654840 32.55190552159142214350 11.11858615749351208990
H  11.57953657175694139880 33.32838551859733655647 10.36534676191955739455
O  11.28381017091684412890 31.31754773773361222311 10.56106173958542981950
C  10.86303050425035898741 32.81471051156982099428 12.35970153744539956620
H  11.41347657421784234089 32.48983808928522165616 13.25237965167738174443
O  10.46727472011916404426 34.14034729743240603739 12.49830833144519814937
H  11.23273400880595929152 34.56267667203486837479 12.96323608735816890203
C  9.69381215914664728928 31.82739743113210906245 12.15670231457233896322
H  9.20924040974093571776 31.55719910692876339908 13.09473362330233214834
O  8.65574375364468906469 32.28704588339065395530 11.34165443400300077315
H  9.02957093526027598784 32.61099807157522434409 10.51425429173125003501
C  10.46293037830429639712 30.67151023789548247578 11.48274664548322654412
H  9.81099002829061817010 30.00249209163039409987 10.90588751889118235283
N  14.27631394931037789320 27.26576355443556565206 12.20496079238358078101
C  13.83928228176865005139 27.89125689634744276191 11.12142878301725268386
H  14.36470243813483449458 27.66071617771963886412 10.20162093929100066703
N  12.84966000627544069346 28.75177775219756881597 11.00435629579058627314
C  12.25685625953174273661 29.02334820292533379416 12.16852418980085559497
C  12.61288167738648446914 28.43613604609301148685 13.39327549363040859021
C  13.67293038595099297083 27.50101275124766431190 13.39295217732502152330
N  14.04337504517223145228 26.80157539175495884365 14.46103772210891236227
H  14.96002284829262762855 26.38319702867381266742 14.39079736267681930428
H  13.77504141694903161408 27.11332343520570020701 15.42149682754261164064
N  11.80927314388983617732 28.93165892408336503649 14.38626214838936512308
C  11.02201498684273950346 29.77567649797991222727 13.79637941213542795538
H  10.27788145303431655009 30.33274548077694277026 14.32738602876022326882
N  11.21859003369970686492 29.87986013898653681053 12.44428609815695629948
O  15.12735396916575147941 34.37336195631095847602 12.87726234106343525809
O  12.73109267579470404996 34.60753763474758670782 13.75388135940920975031
