126
Properties=species:S:1:pos:R:3 6=T Eopt=-476.5183932993 (Eh)=T Einter=13.134694 (kcal/mol)=T pbc="F F F"
Si       3.55625021      33.84481353       7.82283052
Si       3.55593639      30.76681375       7.82283150
O        2.14730557      34.47995713       8.40980823
O        2.14686232      30.13195802       8.40980966
O        3.71008410      32.30579812       8.41283351
O        3.55527629      33.84681297       6.16683051
O        3.55496202      30.76481350       6.16683148
Si       6.21946585      26.15154206       7.82287394
Si       8.88330922      24.61427032       7.82291554
O        4.81039182      25.51668624       8.40985213
O        7.47536479      25.24941401       8.40989358
O        9.03814384      23.07525464       8.41291806
O        6.21949137      26.14954191       6.16687394
O        8.88333533      24.61627018       6.16691554
Si       6.21977961      29.22954197       7.82287340
Si       6.22040692      35.38154179       7.82287165
Si       8.88425015      33.84427022       7.82291375
Si       8.88393629      30.76627024       7.82291455
O        4.81083522      29.86468586       8.40985131
O        4.81133299      34.74668571       8.40984985
O        7.47630574      34.47941394       8.40989160
O        7.47586237      30.13141408       8.40989280
O        6.37361355      27.69052643       8.41287612
O        9.03908397      32.30525465       8.41291670
O        6.21980562      29.23154163       6.16687341
O        6.22043261      35.37954121       6.16687165
O        8.88427616      33.84626970       6.16691377
O        8.88396189      30.76426994       6.16691463
Si       6.22072075      38.45954161       7.82287044
Si       8.88487751      39.99627009       7.82291134
O        4.81177611      39.09468498       8.40984815
O        7.47680357      39.36141385       8.40988967
O        6.37455463      36.92052623       8.41287353
O        9.04002567      41.53525456       8.41291307
O        6.22074679      38.46154080       6.16687044
O        8.88490322      39.99426934       6.16691135
Si      11.54846575      26.15099868       7.82295699
Si      14.21330909      24.61372711       7.82299881
O       10.13939193      25.51614236       8.40993508
O       12.80436466      25.24887073       8.40997669
O       14.36714376      23.07471146       8.41300134
O       11.54849138      26.14899849       6.16695698
O       14.21233532      24.61572701       6.16699878
Si      11.54877957      29.22899836       7.82295670
Si      11.54940675      35.38099853       7.82295480
Si      14.21424988      33.84372688       7.82299681
Si      14.21393613      30.76572673       7.82299776
O       10.13983509      29.86414244       8.40993441
O       10.14033289      34.74614237       8.40993307
O       12.80530559      34.47887069       8.40997468
O       12.80486201      30.13087105       8.40997577
O       11.70261343      27.68998309       8.41295911
O       14.36808384      32.30471138       8.41299968
O       11.54880545      29.23099835       6.16695646
O       11.54943234      35.37899794       6.16695480
O       14.21327588      33.84572642       6.16699678
O       14.21296159      30.76372670       6.16699767
Si      11.54972066      38.45899843       7.82295359
Si      14.21487735      39.99572667       7.82299442
O       10.14077630      39.09414231       8.40993138
O       12.80580348      39.36087061       8.40997277
O       11.70355452      36.91998300       8.41295664
O       14.36902552      41.53471116       8.41299610
O       11.54974665      38.46099771       6.16695359
O       14.21390301      39.99372600       6.16699440
Si      16.87746537      26.15045549       7.82304011
O       15.46839172      25.51559918       8.41001837
O       18.13336403      25.24832718       8.41005978
O       16.87749085      26.14845509       6.16704011
Si      16.87777918      29.22845538       7.82303950
Si      16.87840650      35.38045527       7.82303765
Si      19.54224960      33.84318372       7.82307943
Si      19.54193573      30.76518363       7.82308036
O       15.46883484      29.86359916       8.41001742
O       15.46933270      34.74559913       8.41001601
O       18.13430534      34.47832742       8.41005748
O       18.13386196      30.13032743       8.41005878
O       17.03161315      27.68943984       8.41304221
O       19.69708353      32.30416802       8.41308234
O       16.87780511      29.23045501       6.16703947
O       16.87843199      35.37845466       6.16703765
O       19.54227536      33.84518324       6.16707944
O       19.54196109      30.76318308       6.16708037
Si      16.87872043      38.45845523       7.82303646
O       15.46977615      39.09359904       8.41001440
O       18.13480302      39.36032774       8.41005557
O       17.03255432      36.91943978       8.41303948
O       16.87874624      38.46045461       6.16703646
O       20.79783434      29.86305523       8.41010006
O       20.79833212      34.74505628       8.41009858
H        4.07465744      24.98677208       8.03659113
H        1.41040897      29.60201497       8.03674926
H        1.41040931      35.00798490       8.03674930
H        4.07465744      39.62322797       8.03659116
H        8.94818085      22.17325471       8.03830169
H        8.94818097      42.43674493       8.03830172
H       14.27776160      22.17320416       8.03828223
H       14.27776173      42.43679616       8.03828219
H       18.96055658      24.87622777       8.03640578
H       18.96055653      39.73377227       8.03640574
H       21.62471695      29.49141999       8.03658343
H       21.62471723      35.11858008       8.03658341
H       13.43954241      34.27033907       5.76911863
H       10.79702478      34.91824968       5.76839603
H        8.90770701      32.96594596       5.76499476
H        9.65945434      30.34299409       5.76888005
H       12.30259137      29.68912267       5.76803923
H       14.18560352      31.64418152       5.76552258
H       13.46208429      39.53603768       5.76468154
H       10.78553468      38.90473307       5.77122839
H        8.14831461      39.50994491       5.76699955
H        6.23317386      37.58286576       5.76180504
H        5.45415702      34.93908511       5.77152548
H        3.60566387      32.96814933       5.76410509
H        4.32812544      30.34544672       5.76331958
H        6.21212642      28.34933202       5.76816829
H        7.00946743      25.75759722       5.76754704
H        9.64012207      25.06582758       5.76488470
H       12.31500793      25.70853945       5.77192568
H       14.95343799      25.09203406       5.76610003
H       16.85241664      27.02653750       5.76116218
H       17.64630214      29.66655898       5.77122747
H       19.48194553      31.64158904       5.76482831
H       18.77355784      34.27390176       5.76498789
H       16.88031298      36.26100720       5.76894103
H       16.09309774      38.86024084       5.76722976
