162
10 Eopt=-407.5116350462 (Eh) Einter=-5.048436 (kcal/mol)
Si 3.55625019477034332027 33.84481352595732772670 7.82283052289887326225
Si 3.55593639425409779875 30.76681375002065976787 7.82283149616816864125
O  2.14730565506585691082 34.47995711924652084690 8.40980825228236739122
O  2.14686231989726294955 30.13195801623761838073 8.40980966043829170076
O  3.71008409375805658925 32.30579811912122778494 8.41283350961019138481
O  3.55527628706131437752 33.84681297533506949549 6.16683050744605587568
O  3.55496202326618870870 30.76481349809302301423 6.16683148092425348352
Si 6.21946585256417350251 26.15154206609147280460 7.82287394240517741650
Si 8.88330923185298715339 24.61427035393344908698 7.82291554371803687928
O  4.81039181975270402347 25.51668623395662649500 8.40985212672616633256
O  7.47536479051356650416 25.24941400579049499697 8.40989357569686646343
O  9.03814384129339032370 23.07525463786428332469 8.41291806309977019396
O  6.21949137455780576289 26.14954191195151267380 6.16687394247579856454
O  8.88333532713280504822 24.61627018011058254388 6.16691554116398243934
Si 6.21977960652943107078 29.22954198577750162258 7.82287341005279568407
Si 6.22040687652003398966 35.38154171731981278981 7.82287162770812916079
Si 8.88424958348267068686 33.84427010261858725926 7.82291381964853904663
Si 8.88393586399298307299 30.76627032369617253948 7.82291469078831269712
O  4.81083521805580272002 29.86468586005654302085 8.40985130101224775956
O  4.81133299687650239918 34.74668570662218769485 8.40984983954909814940
O  7.47630585529117031030 34.47941405024977967742 8.40989160326742535290
O  7.47586241154912656270 30.13141404348458252116 8.40989275444495376632
O  6.37361354831513349239 27.69052643290171644708 8.41287612211949920038
O  9.03908464219913554416 32.30525466369542186840 8.41291651365075843216
O  6.21980562073984977189 29.23154162584740589637 6.16687340361862901261
O  6.22043262402968721858 35.37954121993363543197 6.16687165310930929252
O  8.88427631549257412757 33.84626972793986254828 6.16691375220934645540
O  8.88396197302689927255 30.76426990409537154392 6.16691460858148410296
Si 6.22072075096731413879 38.45954160667197641033 7.82287043877932042335
Si 8.88487748304356372842 39.99627007593640826144 7.82291134533219523206
O  4.81177610552914636344 39.09468497598273728499 8.40984815271490226962
O  7.47680356884718744226 39.36141385534962466863 8.40988966285012828905
O  6.37455462699585595487 36.92052622979051079710 8.41287353737471832460
O  9.04002569257404076097 41.53525449376468969831 8.41291308524560932369
O  6.22074678621959353819 38.46154080474645553522 6.16687043987765104447
O  8.88490323037918550142 39.99426934674897893274 6.16691135435524095953
Si 11.54846576143724590224 26.15099867968040570076 7.82295698012867202209
Si 14.21330911498675320104 24.61372707238884771641 7.82299879682967791439
O  10.13939192905146313706 25.51614235288355203579 8.40993508506451981077
O  12.80436466545363316527 25.24887074172272605210 8.40997670722361156947
O  14.36714371838404247228 23.07471152261909352887 8.41300136397786246789
O  11.54849138096912675167 26.14899848663483439282 6.16695698266421565847
O  14.21233531245206016536 24.61572701469877699765 6.16699878112304045175
Si 11.54877947863341525192 29.22899862101402845838 7.82295650151041144227
Si 11.54940672032873827391 35.38099856994939784727 7.82295482448235546258
Si 14.21424995611160468911 33.84372694002341575015 7.82299681684060033149
Si 14.21393602429679781096 30.76572695355786279947 7.82299768620316893220
O  10.13983510472807836322 29.86414238362440443098 8.40993445279291051975
O  10.14033293008192515572 34.74614240781346552467 8.40993307827919878150
O  12.80530551233823288726 34.47887056694627005982 8.40997468199672226774
O  12.80486219801932357143 30.13087072206576877420 8.40997590919682380672
O  11.70261340387010307040 27.68998304323990566900 8.41295918639356443691
O  14.36808380261861373128 32.30471137466722808540 8.41299968641738438180
O  11.54880548237366255648 29.23099828797224830623 6.16695650536292117039
O  11.54943233370558530737 35.37899793916173507569 6.16695480187838906971
O  14.21327585953773642302 33.84572639944158112257 6.16699678288031538642
O  14.21296159090657340585 30.76372664775873744247 6.16699767054647640663
Si 11.54972053002082610362 38.45899843024566422400 7.82295359313051541506
Si 14.21487733693209420949 39.99572669431208993274 7.82299441103833981259
O  10.14077633715093185174 39.09414234179998715035 8.40993138472823353879
O  12.80580351339194322691 39.36087057549118384259 8.40997278320945618191
O  11.70355463326069234142 36.91998299643089609390 8.41295661533178851244
O  14.36902552197752847007 41.53471116369057369866 8.41299609575208506840
O  11.54974668180998165212 38.46099771482554530166 6.16695358931943449221
O  14.21390301929914201651 39.99372599231842428935 6.16699440325155201492
Si 16.87746539954341429279 26.15045546612659776997 7.82304011506565188938
O  15.46839169462453966730 25.51559922205614583390 8.41001837216843917133
O  18.13336401852749446562 25.24832717692578398783 8.41005977463439258202
O  16.87749085148931627032 26.14845510328903088748 6.16704011561472142944
Si 16.87777918058952053570 29.22845537892371581279 7.82303948021456996287
Si 16.87840651205658204503 35.38045527682098168043 7.82303765373728676735
Si 19.54224960007017486419 33.84318369956306327140 7.82307944409805955388
Si 19.54193572536253853400 30.76518362411306384274 7.82308037259219801740
O  15.46883485905516764092 29.86359915529178010729 8.41001744450244004270
O  15.46933269384756037823 34.74559911681465962374 8.41001600803715554378
O  18.13430533174476977365 34.47832741684626256529 8.41005747729639629995
O  18.13386196628341195947 30.13032742109806960684 8.41005878974405263193
O  17.03161313518992869831 27.68943984322734763737 8.41304221806784369164
O  19.69708354680114581470 32.30416803962971528108 8.41308232421565804771
O  16.87780510999512628700 29.23045500254584538879 6.16703947980001832008
O  16.87843199219901180186 35.37845465587685112041 6.16703765241919388274
O  19.54227536064784942482 33.84518324488414720008 6.16707943911153755323
O  19.54196108934607778451 30.76318307869000179267 6.16708037302037048732
Si 16.87872042893100399397 38.45845522829431928358 7.82303645900166788607
O  15.46977615428894559102 39.09359903690543092125 8.41001440370251174272
O  18.13480302903773377921 39.36032777446839503455 8.41005555143333971557
O  17.03255431346148185412 36.91943977410024047003 8.41303947263031837167
O  16.87874623648914251817 38.46045460969112639305 6.16703645972940783793
O  20.79783428757026797484 29.86305523120750038402 8.41010005921059544676
O  20.79833211498097966796 34.74505629130504757995 8.41009857113921732719
H  4.07465742948622811070 24.98677204110616401067 8.03659115482840746836
H  1.41040896889196254449 29.60201496929064290953 8.03674925620912183888
H  1.41040900652815359706 35.00798498416384063603 8.03674926104526754500
H  4.07465743665124691120 39.62322797217774450473 8.03659115982242866494
H  8.94818084773574895507 22.17325470619195115773 8.03830168975903447404
H  8.94818087904583414627 42.43674530336794248342 8.03830168032696157354
H  14.27776169756713642300 22.17320385295003148940 8.03828218836020447213
H  14.27776172918798813782 42.43679616335438709029 8.03828219200384452847
H  18.96055657431837104809 24.87622778427113345856 8.03640577993668259182
H  18.96055653534284957118 39.73377222699928523753 8.03640577819503398871
H  21.62471722963472586798 29.49141993066830380599 8.03658340864149245419
H  21.62471723715360027995 35.11858007036387618882 8.03658341159271749632
H  13.43954241404346205968 34.27033906971667676089 5.76911863083280884723
H  10.79702477545445304941 34.91824966026289445153 5.76839602721839916910
H  8.90770695753645824766 32.96594596238117702569 5.76499475791383098056
H  9.65945432313229090937 30.34299410520306139460 5.76888004550368727053
H  12.30259136346514381444 29.68912269679550774981 5.76803922601641438916
H  14.18560353491799119752 31.64418152264160610798 5.76552258452492338847
H  13.46208428628673736682 39.53603768254548356254 5.76468154469630444936
H  10.78553467293119538795 38.90473306556825150437 5.77122839168781265329
H  8.14831461348041052872 39.50994490559319416434 5.76699955063393066013
H  6.23317386312930299397 37.58286575762135584000 5.76180503598522086861
H  5.45415701810308206632 34.93908511703963881700 5.77152547680891814252
H  3.60566386920255155246 32.96814933246381684739 5.76410508772981700076
H  4.32812544135508403542 30.34544671553602768199 5.76331957719326304357
H  6.21212642387158897606 28.34933201739500674421 5.76816829163035116323
H  7.00946743356436918759 25.75759721954742076377 5.76754704170414722597
H  9.64012207135763432575 25.06582757823013096754 5.76488469604553621650
H  12.31500792551072542835 25.70853944678429314763 5.77192568463021160596
H  14.95343799047370225708 25.09203406456361307164 5.76610003219776778849
H  16.85241664016083973365 27.02653749608037259122 5.76116217503700767111
H  17.64630213781759948688 29.66655897879515180193 5.77122747415517700631
H  19.48194552429619719192 31.64158903478076823035 5.76482831413673224574
H  18.77355784221996515271 34.27390176104027830206 5.76498788522300475989
H  16.88031298592389006785 36.26100719859845611381 5.76894103333583530002
H  16.09309773658735309709 38.86024083791657801612 5.76722976419365274126
P  9.43895586159458588327 31.13802096523757967361 12.19523093822996528957
O  8.61091512281647908367 32.24384279663896535340 12.74123859305275274778
O  9.75553965638165720975 29.90917016660338489942 12.95729200055164653804
O  8.83209138130224502561 30.70293569168479663745 10.72386034166591706196
O  10.91755535944475852261 31.77725148187754911078 11.67916269004883389471
C  10.80034600616321682764 33.03234230145452698935 11.10146955841743476867
C  10.74013031311436705550 34.12197332083601963859 12.17813756572513561593
O  11.84154009703306620338 34.10913427157903754505 13.09748237926130798314
C  10.79215286667462692094 35.52883188298821437456 11.59502226005738734216
O  10.21845228039653363794 36.48502654032090930514 12.46873671708508624079
C  12.31871168836533669833 35.79503984864440013780 11.48772795827265724711
O  12.62604128145438941999 37.13287043812972143542 11.74297420970286154329
C  12.90518802251284391502 34.83032545964861270704 12.56298691070610296094
N  13.93746138427834679874 33.95461134690886950693 12.04658654832636699439
C  13.88324914094913431484 32.59968058137378221772 11.83153721165729521658
N  15.01876395070908465357 32.08473417980443542774 11.47179575537851192735
C  15.89584055942564155828 33.13577437983126827703 11.43688716279187467251
C  17.26793431562176550642 33.24065422078042786325 11.17836027843027046913
N  18.03644506393559865387 32.15363273841867908232 10.90141355298246494954
N  17.85227256669869433381 34.43463835152545726714 11.30754021481097915114
C  17.10371359686320857918 35.47346727659540732702 11.65095391342761921294
N  15.81589080576591044291 35.51123243041596566627 11.92631238125181702969
C  15.22850379224730765770 34.31994079716611167896 11.80404702973913444453
H  9.24868694816118619428 29.86250424177740470100 10.56258422358402881969
H  11.65109486846201747312 33.18835734909991685981 10.42499187461984178071
H  9.87192299281566754132 33.10011381830737065002 10.52734993997647627850
H  9.84788229769582201811 33.89709120510963913375 12.77300012266301720842
H  10.28787443488358199772 35.62511682057672857127 10.63636766746932238448
H  10.30563881204655984902 36.13366058003729364145 13.36433360221408150892
H  12.70214970420706812604 35.52639763468253875089 10.50276542526022893753
H  11.80196896316384425063 37.53576123528636543369 12.06839275876983386127
H  13.37654733366175641152 35.42211437356455405734 13.36409784973969649968
H  12.98648566943048798805 32.02881369916182308089 11.98569690923313402209
H  17.52999572433594011045 31.35093303432750033721 10.56094365017951375307
H  18.91591585784888351895 32.34715058448209390463 10.45167011005472801344
H  17.62951253652611072198 36.41596220879848999630 11.73400443642800539124
