163
Coordinates from ORCA-job /data/Seafile/amp/protonated/frames/frame02/dry/amp_prot02 E -13464.721058818210
  Si      3.498809     33.892626      7.795199
  Si      3.468331     30.783714      7.783959
  O       2.279929     34.778358      8.408098
  O       2.218730     29.973174      8.433627
  O       3.458576     32.335590      8.312342
  O       3.515822     33.901589      6.157489
  O       3.452796     30.841024      6.153073
  Si      6.144709     26.137464      7.783350
  Si      8.820040     24.545451      7.793616
  O       4.786023     25.520384      8.430889
  O       7.480595     25.346937      8.306115
  O       8.761260     23.046422      8.428982
  O       6.120663     26.128874      6.146743
  O       8.780623     24.545891      6.157779
  Si      6.142858     29.224898      7.652249
  Si      6.159327     35.443727      7.695009
  Si      8.893322     33.868361      7.642177
  Si      8.892352     30.800341      7.616861
  O       4.878159     30.069486      8.288774
  O       4.890252     34.611495      8.301559
  O       7.552004     34.681720      8.087210
  O       7.508747     30.036818      8.020362
  O       6.219069     27.714872      8.256479
  O       8.835516     32.329475      8.203014
  O       5.888197     29.175787      6.041339
  O       6.002935     35.577195      6.074217
  O       9.031753     33.832199      6.012477
  O       9.025083     30.921914      5.992062
  Si      6.190536     38.542192      7.785932
  Si      8.906844     40.064076      7.801215
  O       4.926750     39.348272      8.421757
  O       7.559306     39.281577      8.317226
  O       6.212153     36.971702      8.280601
  O       9.003941     41.554636      8.445183
  O       6.222786     38.583944      6.151815
  O       8.924453     40.081231      6.164268
  Si     11.508688     26.071084      7.695751
  Si     14.190565     24.538825      7.788641
  O      10.160463     25.360237      8.291092
  O      12.867934     25.383575      8.284476
  O      14.024550     23.039756      8.400768
  O      11.453972     25.863799      6.073381
  O      14.188919     24.542489      6.150529
  Si     11.526220     29.229821      7.640386
  Si     11.574833     35.374100      7.638556
  Si     14.222165     33.817769      7.654084
  Si     14.198155     30.748013      7.650634
  O      10.176846     29.975255      8.203065
  O      10.209482     34.668486      8.197588
  O      12.919505     34.636297      8.218680
  O      12.883610     29.945361      8.208731
  O      11.481283     27.661030      8.073394
  O      14.256191     32.281310      8.226423
  O      11.493287     29.383885      6.010936
  O      11.624992     35.219770      6.010364
  O      14.110186     33.704721      6.025221
  O      14.051130     30.798544      6.021422
  Si     11.588499     38.532205      7.697219
  Si     14.274132     40.063859      7.804793
  O      10.234956     39.226390      8.295115
  O      12.945329     39.225262      8.290162
  O      11.603064     36.942388      8.077200
  O      14.227388     41.557246      8.452338
  O      11.633777     38.744654      6.076549
  O      14.344788     40.063456      6.169270
  Si     16.903308     26.061085      7.805692
  O      15.550605     25.284323      8.316992
  O      18.203166     25.323871      8.453254
  O      16.877145     26.014916      6.169877
  Si     16.924416     29.152638      7.707086
  Si     16.960949     35.392568      7.697091
  Si     19.630053     33.828170      7.793428
  Si     19.590071     30.710787      7.804080
  O      15.538512     29.932341      8.085502
  O      15.597987     34.575820      8.085846
  O      18.254187     34.584244      8.288866
  O      18.202117     29.979169      8.301882
  O      16.851695     27.629455      8.298861
  O      19.603245     32.269579      8.308829
  O      17.085428     29.007006      6.085548
  O      17.161442     35.443035      6.074112
  O      19.652500     33.794359      6.158090
  O      19.585916     30.676118      6.166138
  Si     16.949290     38.482141      7.787471
  O      15.627557     39.292462      8.321525
  O      18.334173     39.082300      8.396332
  O      16.876679     36.914732      8.283154
  O      16.937152     38.480693      6.149862
  O      20.832634     29.878936      8.446986
  O      20.955844     34.529334      8.430563
  H       4.074658     24.986772      8.036591
  H       1.410409     29.602015      8.036749
  H       1.410409     35.007985      8.036749
  H       4.074657     39.623228      8.036591
  H       8.948181     22.173255      8.038302
  H       8.948181     42.436745      8.038302
  H      14.277762     22.173204      8.038282
  H      14.277762     42.436796      8.038282
  H      18.960557     24.876228      8.036406
  H      18.960556     39.733772      8.036406
  H      21.624717     29.491420      8.036583
  H      21.624717     35.118580      8.036583
  H      13.349538     34.173189      5.646345
  H      10.833711     34.810038      5.627425
  H       9.022817     32.939863      5.631978
  H       9.787039     30.448805      5.620774
  H      12.281694     29.810945      5.639864
  H      14.073697     31.695042      5.650735
  H      13.530314     39.785077      5.727681
  H      10.819303     39.093360      5.688177
  H       8.164392     39.656915      5.743538
  H       6.103982     37.725739      5.720876
  H       5.291923     35.045682      5.688319
  H       3.508704     33.026536      5.745558
  H       4.112764     30.283326      5.715876
  H       5.991384     28.304751      5.633383
  H       6.870902     25.681233      5.732488
  H       9.586861     24.878754      5.737556
  H      12.266101     25.518379      5.677575
  H      14.949728     24.984361      5.748659
  H      17.020756     26.870713      5.741173
  H      17.795550     29.539962      5.700417
  H      19.624302     31.542559      5.739564
  H      18.956489     34.318686      5.736585
  H      17.041083     36.314162      5.671893
  H      16.174813     38.927591      5.755468
  P      12.002010     29.494625     12.242586
  O      11.770042     30.812237     11.575562
  O      12.723734     28.409600     11.524371
  O      12.753654     29.699655     13.654480
  O      10.581503     28.942034     12.810021
  C       9.481365     28.831148     11.929210
  C       8.221507     29.161414     12.696303
  O       8.262320     30.519328     13.177652
  C       6.962920     29.057362     11.859586
  O       5.869670     28.740091     12.689229
  C       6.818781     30.482587     11.324998
  O       5.498205     30.841073     11.030150
  C       7.340898     31.311569     12.496800
  N       7.993248     32.543917     12.078721
  C       9.309549     32.716437     11.731489
  N       9.577244     33.941658     11.352972
  C       8.382663     34.598045     11.444664
  C       8.021257     35.916281     11.134528
  N       8.829507     36.835668     10.654651
  N       6.709895     36.190105     11.364182
  C       5.811929     35.285035     11.835543
  N       6.091894     34.052356     12.114522
  C       7.383334     33.744264     11.901777
  H      12.435564     30.486511     14.111896
  H       9.598484     29.507343     11.075992
  H       9.407673     27.806539     11.548117
  H       8.152170     28.513385     13.573134
  H       7.069073     28.327107     11.049603
  H       5.091745     29.146981     12.282314
  H       7.474413     30.621428     10.462816
  H       5.308839     30.622125     10.105558
  H       6.508668     31.609852     13.142342
  H      10.038153     31.911332     11.781348
  H       9.791754     36.601159     10.472022
  H       8.506396     37.753268     10.390660
  H       4.806953     35.667106     11.964773
  H       6.364060     37.124054     11.181569
163
Coordinates from ORCA-job /data/Seafile/amp/protonated/frames/frame02/dry/amp_prot02 E -13464.723551325767
  Si      3.498621     33.890776      7.816394
  Si      3.466906     30.782243      7.804594
  O       2.273783     34.780560      8.413707
  O       2.210445     29.971221      8.438931
  O       3.453155     32.334838      8.331627
  O       3.523833     33.897321      6.177635
  O       3.464526     30.842574      6.172375
  Si      6.145292     26.134302      7.807674
  Si      8.821620     24.545911      7.824072
  O       4.778801     25.515807      8.437641
  O       7.476380     25.342135      8.331406
  O       8.758201     23.037286      8.437088
  O       6.130098     26.132913      6.169072
  O       8.789145     24.561566      6.186183
  Si      6.140722     29.222178      7.686109
  Si      6.161241     35.440895      7.725413
  Si      8.897175     33.864854      7.680253
  Si      8.894169     30.795895      7.667948
  O       4.870442     30.066226      8.316398
  O       4.888284     34.611536      8.327065
  O       7.553321     34.682374      8.120991
  O       7.504079     30.033204      8.059638
  O       6.214045     27.711211      8.283772
  O       8.836453     32.329581      8.246590
  O       5.891969     29.175530      6.072657
  O       6.005697     35.574162      6.104039
  O       9.024762     33.818036      6.049127
  O       9.032421     30.913785      6.041872
  Si      6.190065     38.540919      7.797489
  Si      8.906371     40.065122      7.809127
  O       4.923277     39.350615      8.424030
  O       7.557323     39.283439      8.327427
  O       6.211445     36.974477      8.303646
  O       9.003590     41.558484      8.445879
  O       6.225687     38.572443      6.163063
  O       8.916767     40.079643      6.171340
  Si     11.509282     26.073138      7.751456
  Si     14.190940     24.541980      7.818965
  O      10.157565     25.354866      8.332418
  O      12.870018     25.379273      8.324107
  O      14.027394     23.033827      8.410208
  O      11.454577     25.876262      6.124985
  O      14.187244     24.556207      6.178277
  Si     11.529342     29.228805      7.711089
  Si     11.580658     35.372696      7.650576
  Si     14.231687     33.816953      7.663515
  Si     14.200278     30.746093      7.697302
  O      10.173015     29.975909      8.260659
  O      10.216022     34.670795      8.221100
  O      12.930060     34.641820      8.219389
  O      12.887714     29.948544      8.262755
  O      11.482076     27.659587      8.134578
  O      14.264299     32.288361      8.248216
  O      11.494323     29.381337      6.078193
  O      11.610954     35.213742      6.020846
  O      14.106562     33.703613      6.033271
  O      14.051022     30.794028      6.064835
  Si     11.590084     38.534012      7.703943
  Si     14.276539     40.063278      7.809431
  O      10.233597     39.227907      8.302323
  O      12.946328     39.226724      8.293189
  O      11.607396     36.945099      8.082570
  O      14.228491     41.559639      8.450712
  O      11.628127     38.751973      6.082682
  O      14.341678     40.060927      6.172082
  Si     16.903941     26.060885      7.833007
  O      15.554595     25.280608      8.342588
  O      18.211086     25.318011      8.461504
  O      16.872409     26.022893      6.194698
  Si     16.925541     29.151216      7.742643
  Si     16.969275     35.394953      7.702085
  Si     19.633700     33.826202      7.804548
  Si     19.591003     30.709561      7.822078
  O      15.543165     29.932169      8.123065
  O      15.607120     34.579098      8.085484
  O      18.260052     34.586299      8.294316
  O      18.208067     29.978539      8.324912
  O      16.856918     27.626462      8.327984
  O      19.607280     32.269519      8.320500
  O      17.084236     29.008439      6.118016
  O      17.174633     35.452135      6.078009
  O      19.653982     33.792183      6.167250
  O      19.584621     30.677393      6.181718
  Si     16.952313     38.483565      7.791998
  O      15.629810     39.294492      8.323087
  O      18.338420     39.085928      8.395917
  O      16.881953     36.918267      8.284360
  O      16.938486     38.489081      6.152590
  O      20.840147     29.876757      8.452111
  O      20.961732     34.532450      8.432811
  H       4.074658     24.986772      8.036591
  H       1.410409     29.602015      8.036749
  H       1.410409     35.007985      8.036749
  H       4.074657     39.623228      8.036591
  H       8.948181     22.173255      8.038302
  H       8.948181     42.436745      8.038302
  H      14.277762     22.173204      8.038282
  H      14.277762     42.436796      8.038282
  H      18.960557     24.876228      8.036406
  H      18.960556     39.733772      8.036406
  H      21.624717     29.491420      8.036583
  H      21.624717     35.118580      8.036583
  H      13.347582     34.179027      5.665684
  H      10.813915     34.807245      5.652192
  H       9.007446     32.922998      5.678504
  H       9.793099     30.432473      5.680813
  H      12.286434     29.800596      5.712733
  H      14.083715     31.688615      5.697837
  H      13.527168     39.780776      5.736021
  H      10.813303     39.099113      5.699863
  H       8.153668     39.659973      5.755463
  H       6.108054     37.712693      5.737884
  H       5.296652     35.042323      5.719618
  H       3.513685     33.022195      5.769671
  H       4.127057     30.284770      5.742236
  H       5.999244     28.305405      5.667861
  H       6.880625     25.682723      5.761421
  H       9.597612     24.897739      5.776872
  H      12.266505     25.534858      5.731908
  H      14.949039     24.996847      5.782931
  H      17.014337     26.880349      5.774276
  H      17.792279     29.542053      5.737101
  H      19.626209     31.543771      5.760759
  H      18.957716     34.315684      5.750017
  H      17.054888     36.323808      5.682837
  H      16.178480     38.940387      5.764024
  P      11.790789     29.866186     11.764671
  O      11.218232     31.159926     11.272367
  O      12.478305     28.935796     10.836689
  O      12.761181     30.117612     13.029928
  O      10.586309     29.091874     12.545931
  C       9.422628     28.899234     11.801660
  C       8.218080     29.152653     12.671333
  O       8.256544     30.503383     13.169847
  C       6.937102     29.033004     11.877701
  O       5.860746     28.700900     12.719188
  C       6.781976     30.459938     11.356097
  O       5.460984     30.822153     11.069315
  C       7.321742     31.285411     12.518741
  N       7.992711     32.499720     12.078782
  C       9.317102     32.628637     11.719887
  N       9.605726     33.838209     11.309783
  C       8.431771     34.519109     11.386716
  C       8.109978     35.826236     11.025412
  N       8.953531     36.695493     10.497010
  N       6.807872     36.150695     11.249429
  C       5.884359     35.287657     11.766583
  N       6.130412     34.061539     12.089285
  C       7.410837     33.707238     11.879756
  H      12.422865     30.822678     13.587814
  H       9.412313     29.608995     10.964818
  H       9.383902     27.883335     11.389228
  H       8.207811     28.489180     13.538228
  H       7.034086     28.310870     11.058270
  H       5.079681     29.111377     12.323994
  H       7.439436     30.601543     10.497497
  H       5.278361     30.610485     10.143387
  H       6.500567     31.593190     13.175104
  H      10.038822     31.804387     11.782962
  H       9.902935     36.408401     10.318553
  H       8.668943     37.608442     10.186996
  H       4.891463     35.701618     11.889117
  H       6.489898     37.082668     11.025059
163
Coordinates from ORCA-job /data/Seafile/amp/protonated/frames/frame02/dry/amp_prot02 E -13464.737684940170
  Si      3.498160     33.891533      7.837734
  Si      3.468551     30.784948      7.829319
  O       2.266294     34.783968      8.417417
  O       2.202094     29.974117      8.445324
  O       3.447142     32.338525      8.350445
  O       3.535803     33.893272      6.197805
  O       3.485071     30.841730      6.195270
  Si      6.146323     26.133526      7.849995
  Si      8.822463     24.546069      7.858664
  O       4.769679     25.509282      8.452729
  O       7.473092     25.336694      8.368146
  O       8.756881     23.027375      8.447289
  O       6.140102     26.145625      6.209213
  O       8.789087     24.576542      6.218702
  Si      6.142558     29.222380      7.748149
  Si      6.162748     35.438370      7.766542
  Si      8.897697     33.858086      7.744158
  Si      8.900188     30.788540      7.743350
  O       4.864368     30.072608      8.358471
  O       4.883408     34.613862      8.357669
  O       7.550211     34.681995      8.173324
  O       7.504012     30.029510      8.131936
  O       6.209276     27.709043      8.337579
  O       8.838221     32.326976      8.314118
  O       5.904091     29.178123      6.130983
  O       6.013804     35.570536      6.143793
  O       9.019575     33.801017      6.111917
  O       9.029471     30.903548      6.114316
  Si      6.189091     38.539920      7.814818
  Si      8.905479     40.065885      7.828967
  O       4.918215     39.353802      8.428008
  O       7.552411     39.287272      8.346341
  O       6.208608     36.978883      8.335556
  O       9.000703     41.564813      8.451312
  O       6.232368     38.558330      6.180199
  O       8.914272     40.071058      6.190216
  Si     11.511272     26.069910      7.792852
  Si     14.193033     24.542607      7.838833
  O      10.157263     25.348047      8.368375
  O      12.874167     25.372681      8.348708
  O      14.030923     23.028061      8.415105
  O      11.452861     25.872579      6.163193
  O      14.189769     24.561544      6.195077
  Si     11.538628     29.223241      7.765895
  Si     11.579380     35.368650      7.704323
  Si     14.233096     33.815697      7.700189
  Si     14.207593     30.743301      7.716828
  O      10.180132     29.971008      8.322582
  O      10.214174     34.670234      8.278042
  O      12.930145     34.640375      8.261413
  O      12.903734     29.943698      8.281826
  O      11.489452     27.652753      8.174496
  O      14.272367     32.286139      8.268896
  O      11.489841     29.385336      6.130240
  O      11.590518     35.213461      6.072467
  O      14.094037     33.721415      6.066938
  O      14.049745     30.809981      6.081293
  Si     11.589300     38.531551      7.741918
  Si     14.276367     40.060042      7.831274
  O      10.228292     39.230357      8.331849
  O      12.945175     39.228503      8.321256
  O      11.606048     36.945827      8.129059
  O      14.229389     41.564034      8.455252
  O      11.621381     38.743108      6.118353
  O      14.331220     40.047445      6.191676
  Si     16.905679     26.059228      7.847520
  O      15.559308     25.276896      8.354992
  O      18.217824     25.313651      8.464316
  O      16.873179     26.023821      6.206349
  Si     16.932970     29.147673      7.753515
  Si     16.970887     35.395249      7.729309
  Si     19.634453     33.825898      7.821137
  Si     19.594381     30.710223      7.834525
  O      15.552949     29.928824      8.126637
  O      15.610786     34.578998      8.112102
  O      18.264050     34.587357      8.312797
  O      18.215324     29.977236      8.331673
  O      16.863651     27.623407      8.335982
  O      19.611181     32.269874      8.331376
  O      17.102520     29.004166      6.126834
  O      17.173194     35.458492      6.102665
  O      19.646196     33.797289      6.181320
  O      19.594170     30.686494      6.191176
  Si     16.952819     38.483155      7.812275
  O      15.631144     39.297102      8.341108
  O      18.343470     39.090605      8.401605
  O      16.884805     36.921337      8.305458
  O      16.932195     38.492028      6.170795
  O      20.846614     29.873877      8.454438
  O      20.968191     34.535012      8.436100
  H       4.074658     24.986772      8.036591
  H       1.410409     29.602015      8.036749
  H       1.410409     35.007985      8.036749
  H       4.074657     39.623228      8.036591
  H       8.948181     22.173255      8.038302
  H       8.948181     42.436745      8.038302
  H      14.277762     22.173204      8.038282
  H      14.277762     42.436796      8.038282
  H      18.960557     24.876228      8.036406
  H      18.960556     39.733772      8.036406
  H      21.624717     29.491420      8.036583
  H      21.624717     35.118580      8.036583
  H      13.337905     34.206488      5.715282
  H      10.787073     34.814470      5.715554
  H       8.995148     32.902586      5.752317
  H       9.785113     30.413079      5.757693
  H      12.287769     29.797571      5.771486
  H      14.091026     31.707868      5.730263
  H      13.515807     39.763468      5.764636
  H      10.806959     39.085778      5.737266
  H       8.148799     39.655907      5.778185
  H       6.117227     37.696172      5.762110
  H       5.307497     35.038219      5.759187
  H       3.522750     33.016254      5.796462
  H       4.152491     30.282729      5.777307
  H       6.015271     28.310123      5.728785
  H       6.890016     25.693572      5.806522
  H       9.598286     24.915934      5.817169
  H      12.264839     25.531429      5.774991
  H      14.954836     24.999367      5.807327
  H      17.014367     26.883121      5.793282
  H      17.811789     29.538350      5.755443
  H      19.642091     31.554911      5.780016
  H      18.947449     34.321471      5.773458
  H      17.051681     36.329885      5.714264
  H      16.174391     38.947874      5.789153
  P      11.763307     29.345557     12.013859
  O      11.401323     30.699351     11.482002
  O      12.290780     28.284217     11.133071
  O      12.724507     29.491358     13.303594
  O      10.423000     28.815170     12.789018
  C       9.278523     28.758122     12.009620
  C       8.067368     29.157135     12.818232
  O       8.156713     30.527455     13.274333
  C       6.804956     29.080403     11.991883
  O       5.695929     28.820781     12.816405
  C       6.717762     30.497156     11.428492
  O       5.411510     30.886381     11.105290
  C       7.259658     31.327183     12.590388
  N       7.947338     32.535652     12.133949
  C       9.279770     32.653067     11.782769
  N       9.577104     33.851730     11.339920
  C       8.411117     34.533780     11.397879
  C       8.111639     35.825545     10.998258
  N       8.984301     36.660316     10.444314
  N       6.813232     36.178967     11.205145
  C       5.873208     35.340100     11.748695
  N       6.100787     34.122694     12.104451
  C       7.376354     33.741705     11.909077
  H      12.482292     30.263064     13.816018
  H       9.379599     29.425197     11.141334
  H       9.139675     27.735362     11.633603
  H       7.986376     28.533180     13.709356
  H       6.889436     28.330927     11.194695
  H       4.940239     29.247609     12.396492
  H       7.394800     30.614050     10.575639
  H       5.245042     30.654532     10.183646
  H       6.432516     31.663652     13.226228
  H      10.010955     31.823378     11.862736
  H       9.923799     36.333849     10.279523
  H       8.731302     37.565619     10.097816
  H       4.886722     35.770221     11.860901
  H       6.511358     37.104279     10.945604
163
Coordinates from ORCA-job /data/Seafile/amp/protonated/frames/frame02/dry/amp_prot02 E -13464.742008323718
  Si      3.498910     33.891496      7.822831
  Si      3.470610     30.785995      7.817975
  O       2.273832     34.787251      8.411030
  O       2.206161     29.976540      8.439477
  O       3.451369     32.340323      8.335748
  O       3.522401     33.890995      6.181700
  O       3.478850     30.842904      6.183039
  Si      6.147287     26.134557      7.840205
  Si      8.821288     24.547298      7.852109
  O       4.770094     25.515932      8.447160
  O       7.472151     25.339933      8.358034
  O       8.753761     23.029972      8.443512
  O       6.138754     26.137838      6.197960
  O       8.784435     24.573623      6.210723
  Si      6.141919     29.222221      7.720561
  Si      6.160346     35.439481      7.723138
  Si      8.897410     33.854739      7.690244
  Si      8.903524     30.785708      7.697203
  O       4.868735     30.075889      8.336886
  O       4.888181     34.615172      8.326059
  O       7.548694     34.681424      8.115980
  O       7.505106     30.031291      8.088571
  O       6.211214     27.712961      8.316045
  O       8.834727     32.327081      8.261891
  O       5.883857     29.166299      6.105566
  O       5.988715     35.585779      6.103279
  O       9.025987     33.795285      6.058084
  O       9.035873     30.899674      6.066941
  Si      6.188122     38.541188      7.790469
  Si      8.903970     40.066332      7.813317
  O       4.921039     39.348650      8.418085
  O       7.550925     39.284394      8.324526
  O       6.211544     36.977965      8.301727
  O       8.999119     41.560658      8.444174
  O       6.226108     38.568861      6.155877
  O       8.908814     40.079335      6.174216
  Si     11.509737     26.066952      7.777017
  Si     14.190932     24.541375      7.836481
  O      10.154517     25.349454      8.354608
  O      12.871465     25.371529      8.335128
  O      14.027780     23.026734      8.412701
  O      11.451747     25.847652      6.147826
  O      14.197070     24.553753      6.190993
  Si     11.539867     29.220232      7.740279
  Si     11.578479     35.367032      7.667823
  Si     14.232206     33.814728      7.679757
  Si     14.207744     30.741838      7.691346
  O      10.176961     29.970921      8.282828
  O      10.208295     34.670498      8.229901
  O      12.923482     34.640062      8.231287
  O      12.904666     29.943181      8.247843
  O      11.487371     27.650539      8.141511
  O      14.270328     32.286060      8.241656
  O      11.491939     29.388993      6.102031
  O      11.593746     35.217854      6.035044
  O      14.099506     33.725789      6.044554
  O      14.054155     30.813359      6.053696
  Si     11.587993     38.532089      7.722817
  Si     14.274460     40.060026      7.829623
  O      10.222919     39.225368      8.312872
  O      12.940344     39.226964      8.309262
  O      11.600893     36.944138      8.098791
  O      14.225076     41.564118      8.452975
  O      11.620116     38.759570      6.100921
  O      14.332656     40.051500      6.189121
  Si     16.902184     26.058646      7.847206
  O      15.556651     25.275992      8.350794
  O      18.214854     25.314439      8.464512
  O      16.875010     26.020167      6.204473
  Si     16.933808     29.145748      7.743135
  Si     16.969822     35.395744      7.725627
  Si     19.631920     33.825314      7.823980
  Si     19.592774     30.710932      7.835756
  O      15.552775     29.928608      8.101672
  O      15.607463     34.579412      8.096187
  O      18.260917     34.587714      8.310525
  O      18.213296     29.977813      8.323768
  O      16.861389     27.623729      8.327746
  O      19.608587     32.270291      8.331258
  O      17.118805     28.995593      6.117262
  O      17.182440     35.466674      6.099505
  O      19.646140     33.798565      6.182923
  O      19.601597     30.691569      6.190985
  Si     16.949873     38.482739      7.813766
  O      15.627239     39.297302      8.339164
  O      18.340762     39.089915      8.402372
  O      16.880362     36.921661      8.301770
  O      16.931084     38.497905      6.171217
  O      20.844355     29.873939      8.455232
  O      20.966148     34.534633      8.437255
  H       4.074658     24.986772      8.036591
  H       1.410409     29.602015      8.036749
  H       1.410409     35.007985      8.036749
  H       4.074657     39.623228      8.036591
  H       8.948181     22.173255      8.038302
  H       8.948181     42.436745      8.038302
  H      14.277762     22.173204      8.038282
  H      14.277762     42.436796      8.038282
  H      18.960557     24.876228      8.036406
  H      18.960556     39.733772      8.036406
  H      21.624717     29.491420      8.036583
  H      21.624717     35.118580      8.036583
  H      13.345578     34.216354      5.690933
  H      10.787370     34.821468      5.675556
  H       8.999645     32.892744      5.703375
  H       9.792568     30.401295      5.717733
  H      12.296698     29.795497      5.748298
  H      14.104300     31.713821      5.705348
  H      13.517385     39.765380      5.760059
  H      10.803224     39.104095      5.721925
  H       8.137150     39.671393      5.762603
  H       6.110608     37.706439      5.734605
  H       5.276232     35.053743      5.725196
  H       3.499589     33.011102      5.783983
  H       4.146983     30.282327      5.764563
  H       5.994310     28.292030      5.711206
  H       6.887668     25.675586      5.800414
  H       9.596767     24.913112      5.810687
  H      12.267476     25.501238      5.767391
  H      14.969837     24.986794      5.808616
  H      17.016706     26.882204      5.792886
  H      17.832811     29.530987      5.751553
  H      19.656467     31.563635      5.784331
  H      18.945749     34.324061      5.775879
  H      17.062090     36.341968      5.714895
  H      16.174752     38.960702      5.790996
  P      11.808919     29.442883     11.786453
  O      11.425415     30.839946     11.397963
  O      12.264736     28.462015     10.784603
  O      12.856250     29.484041     13.013700
  O      10.514131     28.851207     12.607073
  C       9.331718     28.805651     11.876448
  C       8.143397     29.176516     12.733528
  O       8.228431     30.543718     13.200894
  C       6.856902     29.098293     11.942829
  O       5.767124     28.833091     12.790100
  C       6.751834     30.514733     11.386067
  O       5.439081     30.900941     11.081316
  C       7.307107     31.339537     12.545986
  N       7.962533     32.573374     12.104919
  C       9.286955     32.730925     11.733579
  N       9.547479     33.953436     11.328339
  C       8.364874     34.605196     11.429479
  C       8.027072     35.904146     11.083486
  N       8.876422     36.779088     10.561081
  N       6.720504     36.215222     11.302504
  C       5.806762     35.330604     11.816791
  N       6.073051     34.110050     12.134770
  C       7.356445     33.767305     11.918958
  H      12.651139     30.218114     13.596527
  H       9.387007     29.491361     11.018735
  H       9.179106     27.791691     11.480508
  H       8.097255     28.544454     13.621753
  H       6.925338     28.352297     11.141147
  H       5.001637     29.262174     12.387897
  H       7.416832     30.628213     10.526364
  H       5.261682     30.667878     10.161473
  H       6.486382     31.652257     13.202122
  H      10.038715     31.916314     11.766305
  H       9.818171     36.472652     10.377619
  H       8.603768     37.690163     10.243775
  H       4.805362     35.725706     11.938754
  H       6.390252     37.137907     11.065107
163
Coordinates from ORCA-job /data/Seafile/amp/protonated/frames/frame02/dry/amp_prot02 E -13464.745739757413
  Si      3.501173     33.890829      7.823255
  Si      3.473789     30.786977      7.819896
  O       2.277511     34.789583      8.409428
  O       2.207058     29.979939      8.437963
  O       3.453197     32.341948      8.333248
  O       3.522454     33.888846      6.180430
  O       3.482125     30.844553      6.183409
  Si      6.149198     26.135841      7.844428
  Si      8.820602     24.549036      7.851138
  O       4.769920     25.519068      8.447913
  O       7.471384     25.341818      8.356308
  O       8.751068     23.031900      8.441844
  O       6.139670     26.140262      6.199770
  O       8.776482     24.573089      6.207439
  Si      6.142726     29.222776      7.723608
  Si      6.160929     35.438354      7.714553
  Si      8.898830     33.850097      7.681826
  Si      8.907163     30.783049      7.697958
  O       4.869526     30.079845      8.337399
  O       4.890373     34.616156      8.319714
  O       7.547434     34.681219      8.100706
  O       7.504772     30.031169      8.085741
  O       6.210967     27.714821      8.317269
  O       8.831779     32.327773      8.256452
  O       5.874009     29.161484      6.108425
  O       5.976079     35.595126      6.096099
  O       9.027581     33.787298      6.048841
  O       9.036795     30.903584      6.065697
  Si      6.189046     38.539395      7.783528
  Si      8.903852     40.065246      7.808428
  O       4.923378     39.345682      8.414401
  O       7.550189     39.282266      8.317852
  O       6.213769     36.978345      8.296441
  O       8.998260     41.557615      8.440710
  O       6.225332     38.566775      6.149004
  O       8.902074     40.081147      6.168628
  Si     11.507819     26.064160      7.764738
  Si     14.188250     24.540429      7.835405
  O      10.151552     25.349408      8.343558
  O      12.868967     25.368431      8.320154
  O      14.024616     23.025432      8.411408
  O      11.448776     25.821242      6.134744
  O      14.204572     24.544923      6.187105
  Si     11.541056     29.217586      7.748283
  Si     11.578683     35.364995      7.652200
  Si     14.234570     33.814908      7.661548
  Si     14.206594     30.741753      7.677823
  O      10.172754     29.968388      8.282095
  O      10.206616     34.672795      8.215253
  O      12.924039     34.644026      8.207653
  O      12.909596     29.945289      8.231010
  O      11.487269     27.643933      8.114988
  O      14.272727     32.290424      8.218411
  O      11.480028     29.408298      6.106838
  O      11.585998     35.217234      6.018411
  O      14.097235     33.729384      6.024705
  O      14.050356     30.816468      6.037443
  Si     11.588274     38.532325      7.714683
  Si     14.273670     40.060196      7.831340
  O      10.218747     39.221573      8.305190
  O      12.937325     39.226706      8.302747
  O      11.598713     36.944575      8.083109
  O      14.222692     41.565194      8.451798
  O      11.617016     38.773609      6.093770
  O      14.330639     40.055688      6.189011
  Si     16.897971     26.059085      7.848375
  O      15.553782     25.275896      8.345403
  O      18.211397     25.315367      8.465167
  O      16.877847     26.017126      6.202966
  Si     16.934092     29.144971      7.735425
  Si     16.972557     35.397296      7.716776
  Si     19.631367     33.823923      7.824784
  Si     19.591442     30.711340      7.837501
  O      15.554091     29.930102      8.079313
  O      15.608966     34.581787      8.073503
  O      18.260116     34.588491      8.302576
  O      18.212567     29.979333      8.315014
  O      16.859304     27.624766      8.319378
  O      19.606769     32.271061      8.328033
  O      17.134680     28.987860      6.109615
  O      17.197571     35.478677      6.090914
  O      19.651003     33.800117      6.181634
  O      19.610799     30.695237      6.190433
  Si     16.947889     38.482649      7.814348
  O      15.624297     39.297693      8.336477
  O      18.338702     39.088984      8.402276
  O      16.878458     36.922981      8.292999
  O      16.930438     38.508053      6.170071
  O      20.842468     29.874430      8.456528
  O      20.964822     34.533502      8.437663
  H       4.074658     24.986772      8.036591
  H       1.410409     29.602015      8.036749
  H       1.410409     35.007985      8.036749
  H       4.074657     39.623228      8.036591
  H       8.948181     22.173255      8.038302
  H       8.948181     42.436745      8.038302
  H      14.277762     22.173204      8.038282
  H      14.277762     42.436796      8.038282
  H      18.960557     24.876228      8.036406
  H      18.960556     39.733772      8.036406
  H      21.624717     29.491420      8.036583
  H      21.624717     35.118580      8.036583
  H      13.342229     34.224976      5.673826
  H      10.775244     34.820387      5.664101
  H       8.998661     32.880413      5.701280
  H       9.794428     30.399211      5.722388
  H      12.288013     29.814272      5.757041
  H      14.107347     31.719422      5.691089
  H      13.513299     39.767768      5.761120
  H      10.796692     39.118069      5.717546
  H       8.124456     39.678330      5.760246
  H       6.108990     37.701972      5.730135
  H       5.261120     35.060601      5.722228
  H       3.494258     33.005132      5.787931
  H       4.153103     30.281084      5.769738
  H       5.987593     28.282299      5.720941
  H       6.890162     25.671306      5.808212
  H       9.593206     24.913232      5.811051
  H      12.269865     25.469954      5.764379
  H      14.985394     24.975586      5.812783
  H      17.021101     26.883238      5.795258
  H      17.853455     29.525846      5.750857
  H      19.671526     31.572157      5.789938
  H      18.948857     34.328251      5.776209
  H      17.077678     36.359245      5.712498
  H      16.173837     38.977949      5.793879
  P      11.775520     29.519322     11.689609
  O      11.373905     30.919629     11.326395
  O      12.189142     28.554636     10.658578
  O      12.875763     29.565294     12.865650
  O      10.514865     28.902859     12.563276
  C       9.312029     28.838261     11.857912
  C       8.133136     29.201442     12.731570
  O       8.223250     30.568871     13.191751
  C       6.838095     29.123593     11.949827
  O       5.749476     28.870063     12.800610
  C       6.738476     30.537646     11.385163
  O       5.428553     30.933469     11.079553
  C       7.303591     31.363389     12.539401
  N       7.971543     32.585745     12.089876
  C       9.298314     32.716819     11.716094
  N       9.570041     33.934342     11.298952
  C       8.394605     34.603316     11.391600
  C       8.070122     35.901712     11.021028
  N       8.932672     36.750962     10.482736
  N       6.769359     36.234692     11.231830
  C       5.848982     35.369494     11.764649
  N       6.102283     34.151501     12.104641
  C       7.379130     33.783623     11.893363
  H      12.683320     30.303621     13.451236
  H       9.336776     29.521307     10.997126
  H       9.152548     27.823975     11.464240
  H       8.096465     28.575990     13.625295
  H       6.899523     28.372607     11.152510
  H       4.986474     29.303911     12.395310
  H       7.402619     30.638978     10.523949
  H       5.250971     30.692683     10.160228
  H       6.487306     31.689462     13.195133
  H      10.038254     31.891055     11.747210
  H       9.863285     36.411499     10.300136
  H       8.678970     37.660241     10.138613
  H       4.852431     35.778203     11.881221
  H       6.447805     37.154375     10.966285
163
Coordinates from ORCA-job /data/Seafile/amp/protonated/frames/frame02/dry/amp_prot02 E -13464.749230186608
  Si      3.503444     33.892570      7.839955
  Si      3.475836     30.790062      7.838516
  O       2.276752     34.796141      8.412714
  O       2.201896     29.984523      8.442568
  O       3.449305     32.345673      8.348518
  O       3.537863     33.885940      6.195891
  O       3.498323     30.849665      6.200948
  Si      6.149331     26.139313      7.865177
  Si      8.816802     24.549877      7.862993
  O       4.764274     25.521052      8.453875
  O       7.467115     25.340223      8.371489
  O       8.743208     23.029060      8.443089
  O       6.149405     26.158368      6.218622
  O       8.768007     24.584746      6.217656
  Si      6.142493     29.225022      7.759949
  Si      6.163228     35.437770      7.739722
  Si      8.901449     33.845485      7.723677
  Si      8.910845     30.781059      7.748881
  O       4.866113     30.085114      8.365370
  O       4.888900     34.619896      8.340610
  O       7.546771     34.682677      8.128461
  O       7.501641     30.032892      8.124990
  O       6.206662     27.715503      8.346915
  O       8.826774     32.328461      8.303269
  O       5.870967     29.163051      6.143546
  O       5.976572     35.599543      6.121076
  O       9.035442     33.776148      6.090666
  O       9.045578     30.911504      6.116226
  Si      6.190331     38.537430      7.795203
  Si      8.904048     40.063601      7.820925
  O       4.921861     39.345794      8.417214
  O       7.547668     39.284530      8.330248
  O       6.214528     36.981109      8.318939
  O       8.996309     41.559238      8.443424
  O       6.233247     38.554140      6.160811
  O       8.902196     40.067974      6.180520
  Si     11.504285     26.058903      7.773183
  Si     14.186944     24.540601      7.844870
  O      10.147593     25.344550      8.352092
  O      12.866719     25.362543      8.323202
  O      14.022661     23.023577      8.415119
  O      11.441736     25.800269      6.142634
  O      14.207579     24.548778      6.194554
  Si     11.541102     29.215382      7.802377
  Si     11.578868     35.362112      7.685667
  Si     14.236597     33.814898      7.689139
  Si     14.205361     30.742137      7.707014
  O      10.167457     29.962109      8.333264
  O      10.204463     34.677370      8.251751
  O      12.926637     34.648647      8.233979
  O      12.915205     29.946561      8.260679
  O      11.485364     27.633704      8.117419
  O      14.278119     32.293531      8.241898
  O      11.463039     29.437675      6.160035
  O      11.579866     35.210893      6.051751
  O      14.091184     33.728202      6.051921
  O      14.038027     30.821170      6.065986
  Si     11.587727     38.530452      7.738784
  Si     14.272125     40.058136      7.848215
  O      10.213266     39.218939      8.324306
  O      12.934741     39.228400      8.322294
  O      11.594891     36.945310      8.110033
  O      14.220267     41.567171      8.457083
  O      11.614377     38.773177      6.117442
  O      14.323543     40.045978      6.204343
  Si     16.896402     26.059076      7.860627
  O      15.554410     25.273198      8.352507
  O      18.212282     25.311839      8.468768
  O      16.873587     26.023106      6.213099
  Si     16.935403     29.144231      7.753234
  Si     16.975109     35.398946      7.736875
  Si     19.631282     33.823306      7.839307
  Si     19.591402     30.712127      7.852187
  O      15.557793     29.931370      8.091884
  O      15.611481     34.585581      8.089802
  O      18.263114     34.590966      8.318264
  O      18.215642     29.979630      8.327891
  O      16.861612     27.623383      8.331971
  O      19.608961     32.272092      8.340077
  O      17.141861     28.984164      6.126774
  O      17.203195     35.484491      6.110320
  O      19.643448     33.799199      6.194502
  O      19.606420     30.701363      6.203262
  Si     16.946523     38.482872      7.829994
  O      15.623642     39.300412      8.350340
  O      18.339484     39.092764      8.408264
  O      16.879261     36.926360      8.308772
  O      16.921370     38.506280      6.184444
  O      20.846254     29.874743      8.462142
  O      20.968368     34.533571      8.442246
  H       4.074658     24.986772      8.036591
  H       1.410409     29.602015      8.036749
  H       1.410409     35.007985      8.036749
  H       4.074657     39.623228      8.036591
  H       8.948181     22.173255      8.038302
  H       8.948181     42.436745      8.038302
  H      14.277762     22.173204      8.038282
  H      14.277762     42.436796      8.038282
  H      18.960557     24.876228      8.036406
  H      18.960556     39.733772      8.036406
  H      21.624717     29.491420      8.036583
  H      21.624717     35.118580      8.036583
  H      13.336295     34.224911      5.704375
  H      10.769050     34.809806      5.703835
  H       9.006592     32.865514      5.752270
  H       9.805484     30.403063      5.781785
  H      12.274162     29.838505      5.812013
  H      14.102509     31.723775      5.721691
  H      13.505249     39.751330      5.783327
  H      10.791372     39.109676      5.741352
  H       8.120383     39.669202      5.776961
  H       6.118275     37.685060      5.750538
  H       5.266707     35.058014      5.748256
  H       3.506614     32.999032      5.810767
  H       4.175291     30.284909      5.798451
  H       5.993057     28.282939      5.761118
  H       6.901000     25.684369      5.834897
  H       9.589312     24.924983      5.829894
  H      12.267048     25.451396      5.779401
  H      14.993048     24.979074      5.829383
  H      17.014975     26.893833      5.814482
  H      17.858910     29.526773      5.772376
  H      19.668031     31.581665      5.810682
  H      18.937758     34.328025      5.796348
  H      17.079575     36.366049      5.736330
  H      16.163743     38.978959      5.814324
  P      11.704250     29.549767     11.606482
  O      11.347376     30.980441     11.325114
  O      11.997471     28.617919     10.506681
  O      12.882813     29.500840     12.700176
  O      10.477850     28.937154     12.538534
  C       9.256277     28.858402     11.867534
  C       8.102833     29.244881     12.764188
  O       8.211432     30.617533     13.205788
  C       6.792867     29.171101     12.006135
  O       5.715510     28.954430     12.880434
  C       6.709305     30.577112     11.416385
  O       5.404059     30.981995     11.106315
  C       7.287766     31.410877     12.557450
  N       7.952107     32.629847     12.092793
  C       9.274841     32.757565     11.702607
  N       9.543938     33.974984     11.284171
  C       8.370855     34.645118     11.387966
  C       8.045441     35.942528     11.013456
  N       8.911247     36.785244     10.470753
  N       6.745700     36.276209     11.225061
  C       5.828552     35.412957     11.765960
  N       6.083954     34.198120     12.113319
  C       7.358585     33.826482     11.895844
  H      12.764056     30.232738     13.312268
  H       9.256794     29.517801     10.988787
  H       9.079953     27.836926     11.502176
  H       8.078353     28.631383     13.666478
  H       6.829134     28.403040     11.223236
  H       4.955434     29.397909     12.480888
  H       7.373362     30.659511     10.552445
  H       5.227816     30.729903     10.189915
  H       6.477989     31.743844     13.218157
  H      10.014382     31.930546     11.715886
  H       9.833821     36.427842     10.277202
  H       8.663511     37.689912     10.113230
  H       4.831834     35.820653     11.881859
  H       6.419808     37.187702     10.939486
163
Coordinates from ORCA-job /data/Seafile/amp/protonated/frames/frame02/dry/amp_prot02 E -13464.754079313185
  Si      3.505751     33.895895      7.851750
  Si      3.478779     30.794688      7.856358
  O       2.278276     34.806381      8.412280
  O       2.196537     29.992295      8.445595
  O       3.444843     32.351848      8.360278
  O       3.553978     33.881596      6.205907
  O       3.515975     30.855786      6.217444
  Si      6.148107     26.146229      7.882627
  Si      8.807800     24.548536      7.859168
  O       4.757662     25.526737      8.457674
  O       7.461239     25.338739      8.377046
  O       8.731104     23.027883      8.437771
  O       6.157881     26.185569      6.233758
  O       8.744759     24.589389      6.211839
  Si      6.142621     29.229920      7.798299
  Si      6.164826     35.438813      7.753162
  Si      8.904771     33.841073      7.758832
  Si      8.916286     30.779733      7.799023
  O       4.863854     30.095062      8.394641
  O       4.887313     34.626597      8.352802
  O       7.544915     34.686195      8.141366
  O       7.497806     30.039023      8.162425
  O       6.202160     27.718149      8.377399
  O       8.817469     32.331852      8.346659
  O       5.860844     29.165257      6.181382
  O       5.970487     35.610589      6.135036
  O       9.051849     33.763853      6.126408
  O       9.057852     30.924147      6.166248
  Si      6.191510     38.536294      7.798579
  Si      8.904658     40.061766      7.828194
  O       4.921335     39.344654      8.416187
  O       7.544523     39.287253      8.335174
  O       6.215766     36.985057      8.332629
  O       8.992567     41.559499      8.442795
  O       6.240364     38.544731      6.164536
  O       8.905352     40.052105      6.187176
  Si     11.497438     26.044806      7.742728
  Si     14.186241     24.537554      7.836285
  O      10.141833     25.337135      8.332419
  O      12.861806     25.352650      8.294347
  O      14.017990     23.023581      8.412462
  O      11.428818     25.749218      6.114649
  O      14.217850     24.543040      6.183718
  Si     11.540881     29.208487      7.863910
  Si     11.577920     35.360076      7.718954
  Si     14.237311     33.816472      7.717800
  Si     14.203352     30.744451      7.728556
  O      10.157315     29.950179      8.387229
  O      10.197926     34.687658      8.283873
  O      12.927613     34.655908      8.261668
  O      12.925382     29.947050      8.283866
  O      11.484315     27.612122      8.073002
  O      14.285276     32.297669      8.261604
  O      11.438538     29.488333      6.222405
  O      11.578526     35.205232      6.085250
  O      14.085424     33.727151      6.080485
  O      14.019254     30.830325      6.087983
  Si     11.587076     38.528872      7.761778
  Si     14.269911     40.056704      7.865620
  O      10.205056     39.214375      8.340635
  O      12.930784     39.231465      8.341414
  O      11.587495     36.947505      8.135789
  O      14.215635     41.568956      8.462850
  O      11.614527     38.775829      6.140510
  O      14.316908     40.036923      6.219919
  Si     16.895116     26.058556      7.862267
  O      15.554203     25.269854      8.343858
  O      18.210661     25.308188      8.467999
  O      16.873006     26.027669      6.212233
  Si     16.938411     29.143650      7.760471
  Si     16.977585     35.401884      7.758042
  Si     19.631070     33.823696      7.853488
  Si     19.592519     30.713940      7.863882
  O      15.563514     29.934505      8.088328
  O      15.612739     34.592160      8.103939
  O      18.266039     34.594826      8.334213
  O      18.219101     29.980493      8.333119
  O      16.863622     27.622180      8.333267
  O      19.611393     32.274094      8.349800
  O      17.156682     28.976660      6.134542
  O      17.212128     35.492317      6.131219
  O      19.635178     33.799042      6.206745
  O      19.602906     30.710402      6.212817
  Si     16.944498     38.483907      7.846735
  O      15.622353     39.304792      8.364382
  O      18.339220     39.097869      8.415080
  O      16.878746     36.931209      8.325390
  O      16.909627     38.502684      6.199751
  O      20.850006     29.876241      8.466895
  O      20.971769     34.533320      8.446866
  H       4.074658     24.986772      8.036591
  H       1.410409     29.602015      8.036749
  H       1.410409     35.007985      8.036749
  H       4.074657     39.623228      8.036591
  H       8.948181     22.173255      8.038302
  H       8.948181     42.436745      8.038302
  H      14.277762     22.173204      8.038282
  H      14.277762     42.436796      8.038282
  H      18.960557     24.876228      8.036406
  H      18.960556     39.733772      8.036406
  H      21.624717     29.491420      8.036583
  H      21.624717     35.118580      8.036583
  H      13.331849     34.224081      5.733209
  H      10.768878     34.799164      5.741367
  H       9.025650     32.847514      5.800692
  H       9.822961     30.410905      5.845775
  H      12.252101     29.885213      5.876234
  H      14.091834     31.732021      5.744827
  H      13.497359     39.734535      5.806972
  H      10.788663     39.101879      5.762895
  H       8.118825     39.657320      5.789156
  H       6.125732     37.670380      5.764416
  H       5.266030     35.060017      5.765321
  H       3.519167     32.989561      5.832497
  H       4.200003     30.287993      5.830137
  H       5.994127     28.283512      5.806506
  H       6.910744     25.704581      5.860123
  H       9.572461     24.925780      5.831919
  H      12.260229     25.400349      5.764417
  H      15.010314     24.972808      5.832075
  H      17.014264     26.904218      5.825444
  H      17.872126     29.525136      5.786424
  H      19.665322     31.595718      5.831651
  H      18.925736     34.330093      5.818044
  H      17.083253     36.375022      5.762488
  H      16.150137     38.978280      5.837429
  P      11.653718     29.752408     11.527091
  O      11.357617     31.202465     11.295567
  O      11.816286     28.847775     10.374746
  O      12.907502     29.618524     12.518168
  O      10.475647     29.133981     12.521073
  C       9.235675     28.991693     11.887996
  C       8.101767     29.386869     12.807031
  O       8.201775     30.767314     13.221434
  C       6.773475     29.289828     12.080709
  O       5.716615     29.112350     12.988345
  C       6.684495     30.677580     11.444934
  O       5.377524     31.069348     11.129326
  C       7.265298     31.541877     12.563959
  N       7.916992     32.762124     12.087698
  C       9.237652     32.900106     11.699381
  N       9.505144     34.120948     11.293766
  C       8.329009     34.785108     11.403235
  C       8.001660     36.086339     11.039836
  N       8.875087     36.933151     10.519593
  N       6.699023     36.410349     11.242859
  C       5.783137     35.538177     11.768079
  N       6.041946     34.323054     12.110634
  C       7.318458     33.957285     11.894737
  H      12.871900     30.352844     13.138039
  H       9.189658     29.599782     10.975419
  H       9.071483     27.951214     11.578990
  H       8.107073     28.789100     13.719999
  H       6.789439     28.493359     11.325498
  H       4.950795     29.548796     12.593052
  H       7.342360     30.730819     10.573124
  H       5.199939     30.795531     10.219420
  H       6.455910     31.876459     13.224437
  H       9.980796     32.079399     11.703249
  H       9.789832     36.559351     10.313937
  H       8.634533     37.835744     10.155335
  H       4.783014     35.938861     11.876142
  H       6.366160     37.313009     10.939468
163
Coordinates from ORCA-job /data/Seafile/amp/protonated/frames/frame02/dry/amp_prot02 E -13464.744586776380
  Si      3.507904     33.901647      7.860859
  Si      3.479651     30.801543      7.871660
  O       2.279752     34.820414      8.407636
  O       2.188039     30.004429      8.445390
  O       3.436912     32.360630      8.368412
  O       3.576730     33.877538      6.212891
  O       3.535219     30.863003      6.231142
  Si      6.144640     26.155408      7.902936
  Si      8.794277     24.545974      7.852812
  O       4.747279     25.534772      8.460891
  O       7.451758     25.335787      8.383519
  O       8.712568     23.025175      8.429689
  O       6.170365     26.221819      6.251597
  O       8.714422     24.596336      6.203129
  Si      6.140295     29.236481      7.845235
  Si      6.166750     35.441484      7.768647
  Si      8.908588     33.835739      7.806176
  Si      8.922665     30.778095      7.874199
  O       4.857792     30.109818      8.427598
  O       4.883680     34.636569      8.365042
  O       7.542322     34.692437      8.156217
  O       7.489095     30.046477      8.213374
  O       6.192688     27.721446      8.416344
  O       8.800159     32.338503      8.409886
  O       5.848173     29.168377      6.227063
  O       5.964070     35.626986      6.151033
  O       9.071970     33.742765      6.175042
  O       9.081513     30.940466      6.242786
  Si      6.193502     38.535234      7.802854
  Si      8.907000     40.058787      7.835314
  O       4.920401     39.343647      8.414852
  O       7.542090     39.290803      8.342447
  O       6.216594     36.990754      8.350063
  O       8.988436     41.559531      8.440141
  O       6.250247     38.534613      6.169456
  O       8.911044     40.029559      6.193732
  Si     11.487705     26.024237      7.700899
  Si     14.186421     24.531823      7.819328
  O      10.133859     25.326578      8.307608
  O      12.856432     25.337659      8.254344
  O      14.014438     23.023732      8.409286
  O      11.407916     25.677603      6.078836
  O      14.224741     24.535325      6.164290
  Si     11.543522     29.192532      7.970538
  Si     11.574993     35.358151      7.753084
  Si     14.238234     33.820927      7.727393
  Si     14.203248     30.748669      7.725081
  O      10.141961     29.933652      8.476403
  O      10.189294     34.704130      8.322263
  O      12.931926     34.665317      8.280144
  O      12.950758     29.947511      8.302818
  O      11.490084     27.582043      8.011226
  O      14.300999     32.303524      8.256980
  O      11.397600     29.538448      6.330235
  O      11.569819     35.199013      6.119854
  O      14.072656     33.730274      6.091025
  O      13.981867     30.840227      6.088240
  Si     11.587398     38.526990      7.783921
  Si     14.267552     40.056749      7.878775
  O      10.196332     39.207509      8.357885
  O      12.927441     39.236017      8.357774
  O      11.578278     36.950902      8.160663
  O      14.209116     41.570548      8.466942
  O      11.616603     38.781844      6.163316
  O      14.308982     40.030138      6.230838
  Si     16.895747     26.056101      7.850201
  O      15.556264     25.265411      8.323303
  O      18.209273     25.305912      8.461161
  O      16.873230     26.022387      6.197579
  Si     16.947524     29.141550      7.740189
  Si     16.982938     35.408227      7.761959
  Si     19.633025     33.826152      7.856535
  Si     19.597954     30.717511      7.861333
  O      15.575756     29.939967      8.046098
  O      15.615124     34.602901      8.093092
  O      18.269747     34.601061      8.335704
  O      18.224990     29.982072      8.316233
  O      16.867468     27.621909      8.313571
  O      19.614618     32.277825      8.346134
  O      17.189152     28.957079      6.117748
  O      17.232882     35.508258      6.136419
  O      19.633633     33.801154      6.207596
  O      19.607312     30.722245      6.207851
  Si     16.943102     38.487750      7.855516
  O      15.621775     39.311417      8.371740
  O      18.338210     39.104393      8.418469
  O      16.877710     36.937822      8.329185
  O      16.897147     38.503662      6.207000
  O      20.854438     29.880331      8.466064
  O      20.974767     34.533401      8.447291
  H       4.074658     24.986772      8.036591
  H       1.410409     29.602015      8.036749
  H       1.410409     35.007985      8.036749
  H       4.074657     39.623228      8.036591
  H       8.948181     22.173255      8.038302
  H       8.948181     42.436745      8.038302
  H      14.277762     22.173204      8.038282
  H      14.277762     42.436796      8.038282
  H      18.960557     24.876228      8.036406
  H      18.960556     39.733772      8.036406
  H      21.624717     29.491420      8.036583
  H      21.624717     35.118580      8.036583
  H      13.319961     34.227159      5.746858
  H      10.760527     34.787284      5.784168
  H       9.048309     32.817715      5.870020
  H       9.859437     30.424591      5.948662
  H      12.209601     29.928492      5.974679
  H      14.060344     31.739456      5.743392
  H      13.487548     39.718983      5.829264
  H      10.787678     39.093490      5.783580
  H       8.119435     39.638692      5.803589
  H       6.134530     37.653479      5.783341
  H       5.268064     35.064085      5.784691
  H       3.539269     32.978747      5.855871
  H       4.228097     30.290301      5.865707
  H       5.997038     28.285466      5.862129
  H       6.924902     25.731638      5.892990
  H       9.552078     24.923378      5.835337
  H      12.246504     25.331280      5.744167
  H      15.022769     24.966760      5.827647
  H      17.014442     26.904070      5.822180
  H      17.903183     29.511582      5.778531
  H      19.670262     31.613652      5.842310
  H      18.921846     34.336188      5.829354
  H      17.097459     36.392487      5.776181
  H      16.135465     38.983227      5.856167
  P      11.445566     29.770474     11.288807
  O      11.357168     31.258197     11.239674
  O      11.248028     29.010996     10.030165
  O      12.807792     29.333888     11.998884
  O      10.364230     29.160152     12.385032
  C       9.080717     29.037072     11.841986
  C       8.018591     29.478432     12.823078
  O       8.164278     30.860040     13.215842
  C       6.660931     29.405703     12.152319
  O       5.631634     29.306527     13.102129
  C       6.612011     30.775202     11.473790
  O       5.316416     31.187057     11.148413
  C       7.220694     31.646310     12.573296
  N       7.877494     32.857734     12.089934
  C       9.197067     32.989019     11.706394
  N       9.480794     34.201792     11.295708
  C       8.309814     34.874653     11.398560
  C       7.994169     36.171634     11.008631
  N       8.881505     36.996808     10.476330
  N       6.693235     36.504433     11.205293
  C       5.770653     35.648228     11.742478
  N       6.018359     34.437936     12.106308
  C       7.292582     34.061514     11.895687
  H      13.005680     30.003359     12.659650
  H       8.987286     29.609262     10.911260
  H       8.872202     27.995504     11.572605
  H       8.057321     28.887217     13.738994
  H       6.618577     28.583621     11.425196
  H       4.872652     29.763130     12.718033
  H       7.270239     30.783208     10.598286
  H       5.137146     30.887612     10.247476
  H       6.426308     31.987724     13.248130
  H       9.933601     32.168069     11.713377
  H       9.778204     36.586131     10.253180
  H       8.650672     37.882810     10.068315
  H       4.772675     36.055978     11.836291
  H       6.360073     37.388543     10.854567
163
Coordinates from ORCA-job /data/Seafile/amp/protonated/frames/frame02/dry/amp_prot02 E -13464.758869952306
  Si      3.507200     33.902337      7.840518
  Si      3.475570     30.801679      7.854050
  O       2.284151     34.821118      8.397815
  O       2.189752     30.004562      8.440064
  O       3.437762     32.360495      8.353534
  O       3.568330     33.875831      6.193245
  O       3.520517     30.863711      6.214429
  Si      6.141993     26.153381      7.880744
  Si      8.792327     24.543763      7.848860
  O       4.746750     25.540185      8.450965
  O       7.449024     25.334285      8.374000
  O       8.706907     23.024276      8.427916
  O       6.171107     26.208190      6.230540
  O       8.722042     24.597123      6.200430
  Si      6.131566     29.233012      7.800237
  Si      6.163179     35.446705      7.730744
  Si      8.906681     33.842128      7.740644
  Si      8.907909     30.786810      7.810414
  O       4.858788     30.106173      8.399729
  O       4.886021     34.637847      8.337250
  O       7.544366     34.696400      8.101713
  O       7.479411     30.050474      8.155670
  O       6.191119     27.721636      8.384434
  O       8.789076     32.344834      8.347335
  O       5.824663     29.154838      6.186569
  O       5.946081     35.640614      6.116457
  O       9.068896     33.745118      6.110397
  O       9.089428     30.939662      6.182302
  Si      6.194337     38.537180      7.793696
  Si      8.908357     40.057771      7.823564
  O       4.920964     39.340594      8.413804
  O       7.547047     39.287309      8.337684
  O       6.218258     36.987790      8.325850
  O       8.991804     41.556487      8.436384
  O       6.247571     38.548273      6.160359
  O       8.908146     40.035564      6.182386
  Si     11.485162     26.025397      7.711965
  Si     14.185363     24.531631      7.822247
  O      10.131925     25.326630      8.316701
  O      12.854740     25.339204      8.268760
  O      14.014280     23.023861      8.412476
  O      11.405340     25.684762      6.092264
  O      14.215161     24.543433      6.169616
  Si     11.530812     29.204783      7.977966
  Si     11.576595     35.361289      7.687257
  Si     14.241712     33.823032      7.664858
  Si     14.203333     30.750964      7.689030
  O      10.119123     29.953271      8.442789
  O      10.191031     34.707815      8.257539
  O      12.938475     34.668345      8.216567
  O      12.948288     29.962877      8.291780
  O      11.481703     27.587465      8.020159
  O      14.305350     32.306978      8.211488
  O      11.399099     29.513784      6.329321
  O      11.573828     35.202790      6.054753
  O      14.079253     33.719783      6.030893
  O      13.973959     30.825518      6.055900
  Si     11.589271     38.530288      7.744953
  Si     14.268562     40.060979      7.855373
  O      10.201809     39.202092      8.333279
  O      12.929389     39.235526      8.328547
  O      11.579481     36.949674      8.106111
  O      14.206725     41.568807      8.459152
  O      11.619779     38.802553      6.128038
  O      14.317020     40.042670      6.208894
  Si     16.896456     26.054071      7.843724
  O      15.557455     25.263425      8.326123
  O      18.209036     25.307533      8.459321
  O      16.867189     26.015931      6.193651
  Si     16.948660     29.139434      7.720313
  Si     16.987629     35.412401      7.719542
  Si     19.634913     33.827004      7.835726
  Si     19.598053     30.717243      7.845098
  O      15.576077     29.943091      8.019334
  O      15.616130     34.606148      8.038676
  O      18.268580     34.602967      8.306988
  O      18.221745     29.981918      8.302012
  O      16.866998     27.622602      8.305579
  O      19.612613     32.278027      8.331068
  O      17.193844     28.945899      6.101670
  O      17.253348     35.517415      6.098400
  O      19.644907     33.796472      6.188666
  O      19.605418     30.718384      6.193551
  Si     16.944181     38.491436      7.831333
  O      15.622598     39.311848      8.350887
  O      18.335077     39.102859      8.409763
  O      16.876072     36.936593      8.298571
  O      16.903418     38.511611      6.184214
  O      20.851822     29.882674      8.459977
  O      20.970975     34.533266      8.440559
  H       4.074658     24.986772      8.036591
  H       1.410409     29.602015      8.036749
  H       1.410409     35.007985      8.036749
  H       4.074657     39.623228      8.036591
  H       8.948181     22.173255      8.038302
  H       8.948181     42.436745      8.038302
  H      14.277762     22.173204      8.038282
  H      14.277762     42.436796      8.038282
  H      18.960557     24.876228      8.036406
  H      18.960556     39.733772      8.036406
  H      21.624717     29.491420      8.036583
  H      21.624717     35.118580      8.036583
  H      13.326001     34.215262      5.681455
  H      10.764053     34.789020      5.717943
  H       9.042583     32.817935      5.806634
  H       9.877253     30.423963      5.904317
  H      12.212453     29.892262      5.963934
  H      14.055379     31.721256      5.699228
  H      13.497164     39.731327      5.802654
  H      10.789611     39.116638      5.750828
  H       8.114959     39.647857      5.791660
  H       6.130234     37.668567      5.768863
  H       5.247840     35.077259      5.752363
  H       3.528178     32.976780      5.835898
  H       4.211382     30.291110      5.843084
  H       5.972783     28.269640      5.822858
  H       6.923939     25.713018      5.873367
  H       9.560633     24.921275      5.832962
  H      12.242461     25.343810      5.750556
  H      15.010711     24.974380      5.827123
  H      17.006127     26.895655      5.812283
  H      17.908016     29.498680      5.758528
  H      19.668241     31.608744      5.824013
  H      18.935439     34.330687      5.803410
  H      17.120851     36.403122      5.738540
  H      16.143232     38.993537      5.831714
  P      11.554493     29.455134     11.551447
  O      11.495342     30.936088     11.418649
  O      11.505916     28.607608     10.325646
  O      12.810213     29.032424     12.445400
  O      10.348768     28.926407     12.533455
  C       9.107224     28.834556     11.891647
  C       8.009516     29.327181     12.808722
  O       8.190575     30.702417     13.209243
  C       6.666414     29.304041     12.102638
  O       5.622850     29.221191     13.040680
  C       6.650902     30.687362     11.443231
  O       5.362381     31.136590     11.129492
  C       7.278218     31.521938     12.558014
  N       7.962803     32.713951     12.072444
  C       9.280542     32.829085     11.679686
  N       9.571492     34.033212     11.249436
  C       8.405427     34.719740     11.344401
  C       8.082901     36.005789     10.914595
  N       8.946560     36.822099     10.328857
  N       6.784374     36.342181     11.125605
  C       5.868039     35.505602     11.700616
  N       6.117444     34.303280     12.088862
  C       7.389641     33.924245     11.870757
  H      12.956538     29.731366     13.089418
  H       9.100629     29.387384     10.944863
  H       8.886314     27.792667     11.632342
  H       7.997951     28.733116     13.723530
  H       6.610979     28.493130     11.364380
  H       4.875072     29.697240     12.659436
  H       7.300477     30.713639     10.561956
  H       5.165769     30.856368     10.225761
  H       6.491077     31.882734     13.230307
  H      10.004437     32.003144     11.689466
  H       9.843090     36.421060     10.091677
  H       8.682406     37.686787      9.884111
  H       4.872486     35.918925     11.797729
  H       6.443451     37.214191     10.751464
163
Coordinates from ORCA-job /data/Seafile/amp/protonated/frames/frame02/dry/amp_prot02 E -13464.702613100410
  Si      3.510102     33.900675      7.856273
  Si      3.477598     30.799423      7.859647
  O       2.284453     34.820077      8.407585
  O       2.194779     29.996638      8.446185
  O       3.442362     32.355833      8.371979
  O       3.574757     33.877059      6.210578
  O       3.506276     30.877329      6.221696
  Si      6.142204     26.156175      7.841504
  Si      8.788932     24.541980      7.845598
  O       4.748796     25.555911      8.430365
  O       7.444410     25.337572      8.354649
  O       8.692026     23.022948      8.422997
  O       6.172489     26.192318      6.192605
  O       8.740117     24.600319      6.198425
  Si      6.131400     29.235616      7.729541
  Si      6.158953     35.454217      7.743974
  Si      8.904537     33.858621      7.724962
  Si      8.905731     30.806106      7.735297
  O       4.872106     30.092145      8.371919
  O       4.886572     34.640324      8.355802
  O       7.545121     34.704176      8.103736
  O       7.480969     30.063135      8.063640
  O       6.201875     27.728581      8.324376
  O       8.781746     32.350158      8.302682
  O       5.798560     29.150728      6.123183
  O       5.939620     35.645648      6.130618
  O       9.073694     33.780256      6.095571
  O       9.139604     30.965288      6.116953
  Si      6.193100     38.541959      7.801389
  Si      8.908031     40.059480      7.826823
  O       4.919900     39.346021      8.418335
  O       7.545233     39.295122      8.341943
  O       6.216338     36.993081      8.337299
  O       8.992397     41.558470      8.438670
  O       6.247052     38.547041      6.167724
  O       8.912702     40.032312      6.186218
  Si     11.480759     26.026981      7.753042
  Si     14.181011     24.533381      7.848552
  O      10.124891     25.320652      8.340484
  O      12.848962     25.338051      8.312155
  O      14.014129     23.019561      8.423865
  O      11.409760     25.712046      6.130783
  O      14.207265     24.558409      6.198187
  Si     11.509767     29.211421      8.004596
  Si     11.581054     35.362938      7.712231
  Si     14.239264     33.814593      7.721481
  Si     14.196040     30.742641      7.762358
  O      10.091026     29.971850      8.411212
  O      10.189287     34.709828      8.266199
  O      12.936843     34.665246      8.262362
  O      12.925208     29.960111      8.356707
  O      11.462075     27.591668      8.071426
  O      14.297839     32.298764      8.283358
  O      11.424606     29.496478      6.348814
  O      11.595919     35.202044      6.080537
  O      14.086499     33.701480      6.088450
  O      13.983394     30.812470      6.129574
  Si     11.588643     38.530783      7.760596
  Si     14.267998     40.060241      7.865338
  O      10.202678     39.205508      8.343018
  O      12.929204     39.238065      8.345448
  O      11.579075     36.949952      8.129065
  O      14.206459     41.570669      8.464185
  O      11.623111     38.791294      6.142487
  O      14.317214     40.032423      6.220440
  Si     16.892562     26.053352      7.873480
  O      15.554385     25.258733      8.359386
  O      18.208684     25.300537      8.472437
  O      16.853352     26.034291      6.225385
  Si     16.940864     29.138087      7.780866
  Si     16.981810     35.407070      7.761313
  Si     19.631217     33.824751      7.859322
  Si     19.591827     30.714825      7.873990
  O      15.568935     29.938055      8.101015
  O      15.611904     34.601324      8.097005
  O      18.269355     34.601510      8.344628
  O      18.220494     29.976933      8.353799
  O      16.865944     27.616280      8.357513
  O      19.613017     32.275391      8.362289
  O      17.160402     28.959074      6.158463
  O      17.230317     35.498456      6.137907
  O      19.624425     33.788224      6.213950
  O      19.577309     30.714099      6.224360
  Si     16.942385     38.487569      7.848520
  O      15.623449     39.312354      8.367609
  O      18.334544     39.104800      8.418777
  O      16.875574     36.934317      8.332792
  O      16.898082     38.491575      6.202713
  O      20.856042     29.883397      8.472302
  O      20.973941     34.532500      8.449514
  H       4.074658     24.986772      8.036591
  H       1.410409     29.602015      8.036749
  H       1.410409     35.007985      8.036749
  H       4.074657     39.623228      8.036591
  H       8.948181     22.173255      8.038302
  H       8.948181     42.436745      8.038302
  H      14.277762     22.173204      8.038282
  H      14.277762     42.436796      8.038282
  H      18.960557     24.876228      8.036406
  H      18.960556     39.733772      8.036406
  H      21.624717     29.491420      8.036583
  H      21.624717     35.118580      8.036583
  H      13.336870     34.197335      5.730497
  H      10.791872     34.785231      5.734443
  H       9.054199     32.856387      5.780436
  H       9.943415     30.456433      5.866366
  H      12.248335     29.857353      5.992163
  H      14.070496     31.706219      5.769529
  H      13.496737     39.721809      5.813575
  H      10.790775     39.097949      5.761015
  H       8.120570     39.641884      5.793617
  H       6.124552     37.668013      5.777295
  H       5.246826     35.077386      5.764112
  H       3.541785     32.980916      5.845925
  H       4.189552     30.306134      5.833420
  H       5.946668     28.263942      5.757435
  H       6.924651     25.693816      5.835589
  H       9.584496     24.913978      5.833566
  H      12.249417     25.389690      5.777667
  H      14.998091     24.993834      5.850488
  H      16.994398     26.914762      5.846798
  H      17.862931     29.519482      5.803343
  H      19.631345     31.602462      5.847842
  H      18.914996     34.323472      5.829652
  H      17.088878     36.379421      5.768144
  H      16.136355     38.967832      5.844265
  P      12.047986     29.850856     11.281198
  O      11.859863     31.319975     11.418406
  O      12.201530     29.250810      9.921395
  O      13.279145     29.374500     12.186949
  O      10.837234     29.066435     12.070220
  C       9.581080     28.954813     11.436602
  C       8.473834     29.222987     12.452593
  O       8.542605     30.565572     12.983877
  C       7.078232     29.126660     11.854369
  O       6.127918     28.868632     12.855824
  C       6.885701     30.547710     11.329419
  O       5.548404     30.933959     11.139801
  C       7.517165     31.348243     12.463215
  N       8.060380     32.629054     12.033991
  C       9.343624     32.891547     11.608487
  N       9.502195     34.137514     11.233321
  C       8.279792     34.700458     11.402132
  C       7.821150     35.964872     11.048774
  N       8.583258     36.885378     10.482180
  N       6.506287     36.169016     11.322488
  C       5.695127     35.222112     11.885429
  N       6.072225     34.029201     12.201345
  C       7.365770     33.786536     11.922233
  H      13.334567     29.955751     12.951321
  H       9.494490     29.624310     10.573605
  H       9.449505     27.935877     11.052543
  H       8.589701     28.548086     13.302369
  H       7.030267     28.379170     11.052217
  H       5.313950     29.303711     12.570669
  H       7.471204     30.650599     10.423690
  H       5.286223     30.721624     10.233309
  H       6.749470     31.579918     13.210703
  H      10.141454     32.139568     11.563577
  H       9.506759     36.591765     10.197680
  H       8.223366     37.738627     10.097076
  H       4.670883     35.535596     12.043758
  H       6.071926     37.024907     11.009686
163
Coordinates from ORCA-job /data/Seafile/amp/protonated/frames/frame02/dry/amp_prot02 E -13464.763709223576
  Si      3.509710     33.904930      7.859617
  Si      3.472647     30.807133      7.865603
  O       2.281309     34.821379      8.406586
  O       2.187515     30.004747      8.445590
  O       3.434276     32.362770      8.374562
  O       3.585897     33.877867      6.214402
  O       3.525053     30.875906      6.227546
  Si      6.140274     26.157488      7.888285
  Si      8.789534     24.543823      7.871595
  O       4.741091     25.548740      8.452360
  O       7.443697     25.333012      8.393627
  O       8.694025     23.018875      8.434284
  O       6.177921     26.212756      6.240134
  O       8.733450     24.611494      6.224975
  Si      6.124834     29.235884      7.808282
  Si      6.162566     35.450749      7.768202
  Si      8.904558     33.847723      7.773680
  Si      8.901512     30.793035      7.839060
  O       4.850948     30.101633      8.413289
  O       4.883759     34.641266      8.371310
  O       7.545946     34.700978      8.141134
  O       7.468759     30.058562      8.174034
  O       6.190169     27.724764      8.395929
  O       8.783859     32.348405      8.381015
  O       5.823257     29.163043      6.194781
  O       5.956126     35.637959      6.152619
  O       9.067974     33.748266      6.144794
  O       9.105944     30.936309      6.215496
  Si      6.195123     38.539146      7.821047
  Si      8.909135     40.056263      7.845455
  O       4.917338     39.346167      8.426317
  O       7.546554     39.292174      8.368171
  O       6.215645     36.991024      8.359678
  O       8.994126     41.560270      8.446551
  O       6.254690     38.539977      6.187752
  O       8.912691     40.025926      6.204756
  Si     11.484063     26.026359      7.766610
  Si     14.184012     24.531799      7.844088
  O      10.130568     25.319187      8.363097
  O      12.855626     25.336537      8.314876
  O      14.017962     23.019189      8.423223
  O      11.403196     25.712179      6.144689
  O      14.202701     24.557810      6.193569
  Si     11.525196     29.211710      8.039633
  Si     11.578913     35.359976      7.720112
  Si     14.242140     33.822319      7.696842
  Si     14.205604     30.753391      7.721580
  O      10.109705     29.964100      8.492023
  O      10.193207     34.708073      8.293626
  O      12.942886     34.666820      8.254586
  O      12.951216     29.969192      8.338530
  O      11.476476     27.589936      8.085086
  O      14.310325     32.305565      8.250287
  O      11.408583     29.500459      6.385065
  O      11.575300     35.194368      6.088994
  O      14.075899     33.714563      6.064936
  O      13.967598     30.825821      6.092186
  Si     11.589139     38.528541      7.768206
  Si     14.267932     40.060665      7.863348
  O      10.205527     39.202935      8.358220
  O      12.931296     39.237084      8.347374
  O      11.581036     36.947513      8.135962
  O      14.207302     41.570564      8.463638
  O      11.619866     38.788420      6.149891
  O      14.313013     40.033137      6.218213
  Si     16.895033     26.053711      7.856940
  O      15.558291     25.260175      8.348095
  O      18.208601     25.304422      8.465430
  O      16.856248     26.024774      6.208929
  Si     16.949079     29.138695      7.742069
  Si     16.986918     35.411830      7.738575
  Si     19.634329     33.826311      7.843085
  Si     19.596916     30.716596      7.853160
  O      15.578672     29.944661      8.050187
  O      15.616554     34.606233      8.067963
  O      18.271156     34.603088      8.324004
  O      18.222973     29.979264      8.322715
  O      16.868868     27.620686      8.329201
  O      19.614243     32.276379      8.343008
  O      17.181962     28.949682      6.122658
  O      17.241917     35.509181      6.116453
  O      19.633980     33.792859      6.197529
  O      19.592323     30.716877      6.203334
  Si     16.943471     38.490336      7.839911
  O      15.624483     39.312808      8.362149
  O      18.334549     39.104237      8.414875
  O      16.877539     36.935573      8.317534
  O      16.899146     38.500397      6.194065
  O      20.854061     29.884397      8.463867
  O      20.972840     34.531935      8.443641
  H       4.074658     24.986772      8.036591
  H       1.410409     29.602015      8.036749
  H       1.410409     35.007985      8.036749
  H       4.074657     39.623228      8.036591
  H       8.948181     22.173255      8.038302
  H       8.948181     42.436745      8.038302
  H      14.277762     22.173204      8.038282
  H      14.277762     42.436796      8.038282
  H      18.960557     24.876228      8.036406
  H      18.960556     39.733772      8.036406
  H      21.624717     29.491420      8.036583
  H      21.624717     35.118580      8.036583
  H      13.323092     34.210502      5.714952
  H      10.767204     34.775501      5.753547
  H       9.048450     32.820709      5.840967
  H       9.902058     30.425945      5.952052
  H      12.227272     29.863255      6.014923
  H      14.049126     31.720341      5.732347
  H      13.491157     39.722223      5.814276
  H      10.787558     39.093882      5.768873
  H       8.122110     39.636006      5.811148
  H       6.132483     37.660013      5.798971
  H       5.266338     35.069011      5.781724
  H       3.553937     32.980015      5.852848
  H       4.213165     30.301800      5.852705
  H       5.976322     28.283118      5.821303
  H       6.930553     25.721204      5.878836
  H       9.575177     24.926554      5.857560
  H      12.241145     25.388859      5.787339
  H      14.992827     24.993563      5.843635
  H      16.997961     26.903920      5.826382
  H      17.888744     29.507931      5.771284
  H      19.649322     31.606406      5.829178
  H      18.925828     34.329916      5.812647
  H      17.101772     36.391466      5.749764
  H      16.137322     38.978198      5.838105
  P      11.627879     29.404304     11.487200
  O      11.545153     30.886949     11.438118
  O      11.623792     28.625115     10.214253
  O      12.873163     28.941142     12.379740
  O      10.409936     28.805141     12.394112
  C       9.167943     28.764432     11.748519
  C       8.088306     29.204686     12.707232
  O       8.265407     30.564819     13.160915
  C       6.727472     29.187784     12.048195
  O       5.718520     29.058591     13.020296
  C       6.679330     30.591888     11.439272
  O       5.377022     31.031822     11.176294
  C       7.329410     31.398351     12.563270
  N       7.982011     32.612637     12.082197
  C       9.291094     32.760604     11.674231
  N       9.545995     33.969813     11.232047
  C       8.364792     34.629797     11.342746
  C       7.998570     35.903231     10.907640
  N       8.821227     36.742908     10.295672
  N       6.697596     36.209973     11.151279
  C       5.815496     35.355170     11.753981
  N       6.101867     34.158338     12.137433
  C       7.378357     33.811425     11.893770
  H      13.020343     29.604279     13.060671
  H       9.163053     29.372553     10.836934
  H       8.942028     27.737312     11.436462
  H       8.111798     28.572652     13.596517
  H       6.654517     28.402459     11.285057
  H       4.947189     29.532063     12.686942
  H       7.312533     30.650793     10.545076
  H       5.164448     30.788792     10.267454
  H       6.560836     31.730429     13.270677
  H      10.033326     31.952182     11.689618
  H       9.726067     36.376987     10.038519
  H       8.515512     37.593582      9.849216
  H       4.815769     35.748763     11.883989
  H       6.326826     37.074386     10.785155
163
Coordinates from ORCA-job /data/Seafile/amp/protonated/frames/frame02/dry/amp_prot02 E -13464.769973464434
  Si      3.509481     33.905735      7.840508
  Si      3.471568     30.807556      7.855851
  O       2.287548     34.825620      8.396159
  O       2.186762     30.009745      8.441531
  O       3.434760     32.365343      8.359839
  O       3.576795     33.874303      6.194451
  O       3.521042     30.870715      6.216883
  Si      6.139358     26.161412      7.885076
  Si      8.784178     24.542229      7.862038
  O       4.739538     25.553052      8.449326
  O       7.441173     25.334187      8.387621
  O       8.688373     23.018793      8.429872
  O       6.177785     26.217971      6.236420
  O       8.721934     24.607419      6.215007
  Si      6.123785     29.238806      7.801040
  Si      6.159697     35.453707      7.729199
  Si      8.904995     33.846870      7.732464
  Si      8.901525     30.794256      7.818376
  O       4.851409     30.108409      8.405595
  O       4.886535     34.643127      8.341535
  O       7.543985     34.702749      8.090041
  O       7.467289     30.064468      8.155672
  O       6.189602     27.729015      8.392492
  O       8.776946     32.354374      8.350567
  O       5.815236     29.158482      6.188686
  O       5.936885     35.652785      6.116990
  O       9.080352     33.736366      6.105564
  O       9.114411     30.927670      6.195567
  Si      6.194088     38.542535      7.802285
  Si      8.908904     40.056768      7.833331
  O       4.918377     39.343107      8.419325
  O       7.546364     39.289873      8.354005
  O       6.217094     36.991027      8.331750
  O       8.992895     41.558126      8.439904
  O       6.249995     38.553136      6.168893
  O       8.910454     40.029998      6.192243
  Si     11.480975     26.016731      7.740531
  Si     14.184318     24.528706      7.832894
  O      10.127512     25.315230      8.345647
  O      12.853175     25.331516      8.294886
  O      14.016706     23.018762      8.419624
  O      11.399180     25.682062      6.121285
  O      14.209456     24.548131      6.181771
  Si     11.524356     29.205508      8.071884
  Si     11.579095     35.360843      7.691773
  Si     14.242517     33.823763      7.681610
  Si     14.207208     30.754189      7.709437
  O      10.096576     29.967175      8.492195
  O      10.188642     34.712160      8.257507
  O      12.939751     34.668497      8.233305
  O      12.959624     29.970905      8.336275
  O      11.479508     27.577799      8.050149
  O      14.313971     32.308212      8.235565
  O      11.401385     29.512605      6.412797
  O      11.580210     35.197025      6.060414
  O      14.080925     33.716948      6.048900
  O      13.966558     30.825873      6.080282
  Si     11.589385     38.530715      7.751762
  Si     14.267895     40.061848      7.857850
  O      10.203592     39.200728      8.343318
  O      12.929943     39.236966      8.336129
  O      11.578027     36.948210      8.111205
  O      14.204454     41.570473      8.461169
  O      11.621992     38.801970      6.135169
  O      14.316596     40.038238      6.212264
  Si     16.894461     26.052772      7.850703
  O      15.557139     25.258927      8.338658
  O      18.207016     25.304066      8.462888
  O      16.859801     26.021862      6.202126
  Si     16.952275     29.137382      7.732869
  Si     16.988201     35.413881      7.733404
  Si     19.634256     33.826764      7.842615
  Si     19.598215     30.717515      7.851101
  O      15.582631     29.945805      8.032185
  O      15.615662     34.609556      8.054076
  O      18.270686     34.604381      8.321512
  O      18.224221     29.978948      8.317021
  O      16.868220     27.620127      8.321441
  O      19.613965     32.276995      8.341724
  O      17.193790     28.943647      6.114561
  O      17.250748     35.514294      6.112161
  O      19.636201     33.793390      6.196512
  O      19.597682     30.719395      6.200641
  Si     16.943099     38.491566      7.836841
  O      15.623517     39.314067      8.357365
  O      18.333031     39.105680      8.414199
  O      16.876183     36.937132      8.313265
  O      16.900729     38.503274      6.190397
  O      20.854853     29.885899      8.463504
  O      20.972792     34.532137      8.443737
  H       4.074658     24.986772      8.036591
  H       1.410409     29.602015      8.036749
  H       1.410409     35.007985      8.036749
  H       4.074657     39.623228      8.036591
  H       8.948181     22.173255      8.038302
  H       8.948181     42.436745      8.038302
  H      14.277762     22.173204      8.038282
  H      14.277762     42.436796      8.038282
  H      18.960557     24.876228      8.036406
  H      18.960556     39.733772      8.036406
  H      21.624717     29.491420      8.036583
  H      21.624717     35.118580      8.036583
  H      13.330450     34.214209      5.696629
  H      10.772428     34.778700      5.723279
  H       9.065961     32.804973      5.811652
  H       9.915934     30.411253      5.950382
  H      12.217655     29.875232      6.041243
  H      14.049950     31.719293      5.719312
  H      13.495095     39.728405      5.807327
  H      10.789044     39.107248      5.755098
  H       8.117858     39.642243      5.799147
  H       6.124926     37.674311      5.776900
  H       5.243823     35.083827      5.750230
  H       3.540719     32.974154      5.837691
  H       4.207785     30.292621      5.845098
  H       5.971507     28.277022      5.819029
  H       6.931215     25.724720      5.877196
  H       9.565812     24.919407      5.846775
  H      12.238672     25.357969      5.768313
  H      15.001454     24.982516      5.834715
  H      17.004634     26.900819      5.820513
  H      17.900488     29.502609      5.765495
  H      19.656019     31.609495      5.829139
  H      18.930111     34.332432      5.811608
  H      17.109890     36.396847      5.746898
  H      16.139776     38.982579      5.835176
  P      11.610861     29.591882     11.454912
  O      11.477625     31.066050     11.354576
  O      11.601969     28.774544     10.202966
  O      12.892478     29.194916     12.324258
  O      10.433181     28.971248     12.397721
  C       9.185028     28.876436     11.767610
  C       8.092663     29.310071     12.716017
  O       8.255787     30.675344     13.150996
  C       6.738191     29.267654     12.042070
  O       5.719070     29.134268     13.000094
  C       6.682060     30.665145     11.420500
  O       5.379282     31.099854     11.149600
  C       7.320792     31.492763     12.538187
  N       7.983245     32.710188     12.075812
  C       9.302193     32.860768     11.698974
  N       9.570255     34.074643     11.278330
  C       8.388034     34.734680     11.372940
  C       8.036242     36.014025     10.949093
  N       8.876965     36.858141     10.370854
  N       6.729601     36.321423     11.161567
  C       5.828489     35.459365     11.726348
  N       6.102700     34.256376     12.099123
  C       7.384408     33.909635     11.882255
  H      13.042604     29.887683     12.973751
  H       9.163103     29.466939     10.845684
  H       8.988589     27.837933     11.473182
  H       8.116144     28.690650     13.614133
  H       6.682338     28.475191     11.285014
  H       4.947045     29.591521     12.645160
  H       7.312125     30.704798     10.527003
  H       5.161712     30.837769     10.246123
  H       6.541857     31.822088     13.235282
  H      10.044266     32.053209     11.728999
  H       9.784625     36.488619     10.128399
  H       8.582842     37.706034      9.915706
  H       4.825954     35.853864     11.836523
  H       6.371425     37.190131     10.793692
163
Coordinates from ORCA-job /data/Seafile/amp/protonated/frames/frame02/dry/amp_prot02 E -13464.778140978851
  Si      3.509579     33.905729      7.825272
  Si      3.468874     30.806787      7.843799
  O       2.292097     34.826719      8.389248
  O       2.186820     30.012191      8.438190
  O       3.434997     32.365492      8.348393
  O       3.571726     33.871412      6.179508
  O       3.514326     30.866025      6.204673
  Si      6.138933     26.164035      7.876639
  Si      8.780585     24.540052      7.856260
  O       4.739536     25.556456      8.444723
  O       7.439335     25.334643      8.382750
  O       8.684487     23.017681      8.428721
  O       6.178681     26.218237      6.228699
  O       8.717435     24.603970      6.210006
  Si      6.121761     29.241459      7.784176
  Si      6.157157     35.456453      7.702517
  Si      8.905321     33.847037      7.700691
  Si      8.899673     30.798070      7.797782
  O       4.851228     30.111421      8.393319
  O       4.888604     34.643782      8.321933
  O       7.543074     34.703493      8.052171
  O       7.464786     30.069697      8.130463
  O       6.189177     27.732861      8.382189
  O       8.770766     32.359406      8.327497
  O       5.810819     29.155159      6.173167
  O       5.923685     35.662848      6.093139
  O       9.090776     33.728163      6.076214
  O       9.125928     30.922824      6.178659
  Si      6.192798     38.545577      7.791131
  Si      8.908401     40.057047      7.825066
  O       4.918596     39.341464      8.416159
  O       7.546239     39.288360      8.347421
  O       6.217847     36.990602      8.314005
  O       8.992840     41.556786      8.435328
  O       6.246140     38.562506      6.157593
  O       8.908628     40.032417      6.183859
  Si     11.479380     26.007815      7.729777
  Si     14.185045     24.526161      7.825983
  O      10.125135     25.310678      8.340954
  O      12.852735     25.327174      8.289980
  O      14.016361     23.018372      8.418652
  O      11.397694     25.662097      6.112786
  O      14.212204     24.542394      6.175665
  Si     11.524628     29.201634      8.127283
  Si     11.578889     35.362640      7.668721
  Si     14.242982     33.826678      7.661704
  Si     14.213215     30.756695      7.689950
  O      10.080123     29.976953      8.501829
  O      10.186514     34.714527      8.231765
  O      12.939432     34.670093      8.215058
  O      12.975510     29.977612      8.339070
  O      11.484170     27.565759      8.035689
  O      14.320715     32.310967      8.218310
  O      11.397387     29.514240      6.458048
  O      11.581974     35.200762      6.037442
  O      14.082921     33.720785      6.029173
  O      13.965445     30.826323      6.063255
  Si     11.589479     38.533197      7.738947
  Si     14.267875     40.063503      7.851306
  O      10.203673     39.199817      8.332614
  O      12.929703     39.237559      8.327971
  O      11.576655     36.948654      8.092413
  O      14.203055     41.570728      8.459359
  O      11.624264     38.810861      6.123672
  O      14.319772     40.042632      6.206102
  Si     16.894807     26.051382      7.842900
  O      15.557123     25.257612      8.333658
  O      18.206174     25.304713      8.460506
  O      16.861981     26.016266      6.195226
  Si     16.957969     29.135154      7.717000
  Si     16.989805     35.416610      7.722575
  Si     19.634231     33.827547      7.837100
  Si     19.599910     30.718483      7.843473
  O      15.589820     29.946971      8.008677
  O      15.615680     34.612539      8.037015
  O      18.270249     34.605593      8.315517
  O      18.225218     29.978555      8.308195
  O      16.868974     27.619789      8.312473
  O      19.613200     32.277166      8.337558
  O      17.207170     28.935295      6.100716
  O      17.258428     35.518600      6.102599
  O      19.639524     33.793652      6.191415
  O      19.603870     30.720518      6.193469
  Si     16.942936     38.493259      7.830472
  O      15.623547     39.314838      8.352413
  O      18.331621     39.106063      8.412339
  O      16.875193     36.937684      8.306927
  O      16.902959     38.506338      6.184166
  O      20.854270     29.887163      8.461134
  O      20.971998     34.531958      8.442382
  H       4.074658     24.986772      8.036591
  H       1.410409     29.602015      8.036749
  H       1.410409     35.007985      8.036749
  H       4.074657     39.623228      8.036591
  H       8.948181     22.173255      8.038302
  H       8.948181     42.436745      8.038302
  H      14.277762     22.173204      8.038282
  H      14.277762     42.436796      8.038282
  H      18.960557     24.876228      8.036406
  H      18.960556     39.733772      8.036406
  H      21.624717     29.491420      8.036583
  H      21.624717     35.118580      8.036583
  H      13.332439     34.217500      5.675878
  H      10.775072     34.782088      5.698536
  H       9.080353     32.794918      5.787367
  H       9.934277     30.400956      5.954304
  H      12.209227     29.876411      6.080367
  H      14.047211     31.719168      5.700100
  H      13.498733     39.734134      5.799397
  H      10.790646     39.116482      5.744160
  H       8.115108     39.645520      5.789990
  H       6.119070     37.684668      5.762630
  H       5.228365     35.093906      5.728379
  H       3.533890     32.969919      5.824593
  H       4.199894     30.286131      5.832509
  H       5.968415     28.272903      5.804144
  H       6.932465     25.724518      5.868788
  H       9.561902     24.914104      5.838991
  H      12.235938     25.336884      5.758635
  H      15.003771     24.975714      5.826614
  H      17.008258     26.893372      5.809738
  H      17.914801     29.492596      5.751390
  H      19.662969     31.610080      5.821207
  H      18.935799     34.333393      5.803539
  H      17.118254     36.401117      5.736809
  H      16.142935     38.986319      5.827973
  P      11.590905     29.686006     11.310914
  O      11.438343     31.158182     11.283133
  O      11.545174     28.926340     10.015233
  O      12.912444     29.256612     12.096993
  O      10.460365     29.009043     12.262181
  C       9.186300     28.917368     11.677665
  C       8.105826     29.324361     12.655792
  O       8.269611     30.685188     13.101326
  C       6.746151     29.278803     11.993553
  O       5.732791     29.126464     12.951357
  C       6.683338     30.678649     11.389173
  O       5.380623     31.119463     11.127987
  C       7.326503     31.504206     12.504831
  N       7.991561     32.726739     12.058560
  C       9.311690     32.879867     11.687268
  N       9.583327     34.096392     11.277270
  C       8.400712     34.755003     11.372800
  C       8.050590     36.034119     10.954496
  N       8.891882     36.881530     10.382882
  N       6.742204     36.341556     11.161045
  C       5.836338     35.476308     11.715218
  N       6.109392     34.270966     12.082308
  C       7.392801     33.926571     11.870293
  H      13.097111     29.915895     12.771881
  H       9.134158     29.531491     10.773015
  H       8.998518     27.884147     11.360120
  H       8.144131     28.695261     13.546804
  H       6.689142     28.496104     11.226855
  H       4.959044     29.583754     12.597105
  H       7.307746     30.711761     10.497264
  H       5.154312     30.855479     10.225870
  H       6.549272     31.822701     13.208880
  H      10.050230     32.069927     11.717385
  H       9.801519     36.517226     10.140060
  H       8.593618     37.723642      9.921890
  H       4.832398     35.870088     11.822004
  H       6.387441     37.212137     10.794349
163
Coordinates from ORCA-job /data/Seafile/amp/protonated/frames/frame02/dry/amp_prot02 E -13464.781133212053
  Si      3.510370     33.907718      7.826423
  Si      3.466641     30.808890      7.847690
  O       2.293646     34.832293      8.386998
  O       2.182973     30.016409      8.440725
  O       3.432242     32.368004      8.354152
  O       3.577924     33.869097      6.181088
  O       3.513833     30.869888      6.208881
  Si      6.137511     26.167711      7.873705
  Si      8.774861     24.539322      7.857135
  O       4.735993     25.562602      8.440443
  O       7.434031     25.333760      8.384795
  O       8.672834     23.015195      8.426593
  O       6.185407     26.225700      6.226540
  O       8.714785     24.610772      6.211537
  Si      6.116544     29.243366      7.781005
  Si      6.154437     35.461661      7.699830
  Si      8.904420     33.849857      7.700070
  Si      8.896297     30.804106      7.807376
  O       4.848781     30.111881      8.398542
  O       4.887942     34.648398      8.323876
  O       7.541333     34.709095      8.041370
  O       7.456421     30.075990      8.122410
  O       6.186703     27.735197      8.382504
  O       8.756142     32.368087      8.335244
  O       5.798354     29.153378      6.171897
  O       5.915119     35.673428      6.091990
  O       9.101761     33.721172      6.078433
  O       9.157029     30.923119      6.195262
  Si      6.193307     38.548854      7.791048
  Si      8.909566     40.056084      7.824892
  O       4.918605     39.342872      8.416848
  O       7.547365     39.288836      8.350948
  O       6.217672     36.994085      8.315451
  O       8.992358     41.556372      8.433464
  O       6.248609     38.566009      6.157605
  O       8.910384     40.025591      6.183858
  Si     11.474441     26.004447      7.736270
  Si     14.183479     24.525218      7.830439
  O      10.120217     25.305456      8.349738
  O      12.849541     25.322640      8.299305
  O      14.016342     23.016497      8.423701
  O      11.390757     25.649900      6.121227
  O      14.208852     24.545613      6.180992
  Si     11.518661     29.199970      8.235016
  Si     11.578465     35.362567      7.673268
  Si     14.243270     33.827775      7.666819
  Si     14.215068     30.757269      7.704527
  O      10.052129     29.988244      8.553927
  O      10.182766     34.720562      8.235750
  O      12.940597     34.672161      8.222605
  O      12.989960     29.984874      8.381161
  O      11.485595     27.558894      8.043528
  O      14.329997     32.313856      8.229608
  O      11.382799     29.525685      6.554752
  O      11.584880     35.198012      6.042783
  O      14.081402     33.716332      6.035589
  O      13.953170     30.820657      6.081756
  Si     11.590051     38.533294      7.741545
  Si     14.267131     40.063960      7.852699
  O      10.203385     39.198096      8.334953
  O      12.929512     39.238702      8.331949
  O      11.573930     36.949082      8.095305
  O      14.199843     41.571000      8.460815
  O      11.627763     38.812258      6.126767
  O      14.320057     40.040747      6.207800
  Si     16.894075     26.049829      7.846612
  O      15.557100     25.254759      8.339949
  O      18.205996     25.302123      8.462283
  O      16.857128     26.017144      6.199762
  Si     16.962972     29.132698      7.722828
  Si     16.991598     35.419746      7.726489
  Si     19.633987     33.828468      7.841048
  Si     19.601701     30.720019      7.847719
  O      15.597081     29.948165      8.011169
  O      15.615809     34.617310      8.037820
  O      18.271514     34.608509      8.322303
  O      18.229030     29.976778      8.316829
  O      16.870867     27.617717      8.321212
  O      19.614016     32.278278      8.344382
  O      17.214446     28.927944      6.107884
  O      17.264278     35.521141      6.107410
  O      19.636315     33.791284      6.195831
  O      19.600313     30.722572      6.198209
  Si     16.942316     38.495185      7.832754
  O      15.624007     39.317525      8.355769
  O      18.330374     39.109400      8.414751
  O      16.874964     36.939868      8.312949
  O      16.900591     38.503795      6.186744
  O      20.858170     29.890625      8.463967
  O      20.973152     34.532434      8.444452
  H       4.074658     24.986772      8.036591
  H       1.410409     29.602015      8.036749
  H       1.410409     35.007985      8.036749
  H       4.074657     39.623228      8.036591
  H       8.948181     22.173255      8.038302
  H       8.948181     42.436745      8.038302
  H      14.277762     22.173204      8.038282
  H      14.277762     42.436796      8.038282
  H      18.960557     24.876228      8.036406
  H      18.960556     39.733772      8.036406
  H      21.624717     29.491420      8.036583
  H      21.624717     35.118580      8.036583
  H      13.331623     34.211818      5.679905
  H      10.780808     34.774821      5.703272
  H       9.099106     32.784279      5.798109
  H       9.976723     30.397249      6.008711
  H      12.191583     29.880379      6.167140
  H      14.033211     31.710566      5.712573
  H      13.498140     39.732956      5.802209
  H      10.793364     39.112743      5.745477
  H       8.115798     39.639912      5.791290
  H       6.116756     37.688313      5.764093
  H       5.223093     35.101336      5.727290
  H       3.541011     32.966928      5.829061
  H       4.198091     30.287383      5.838273
  H       5.961476     28.271821      5.803317
  H       6.940730     25.731729      5.870061
  H       9.562403     24.917103      5.844419
  H      12.229911     25.331462      5.764266
  H      14.999368     24.979776      5.831356
  H      17.006834     26.893802      5.814926
  H      17.918473     29.487533      5.755864
  H      19.657352     31.612242      5.826259
  H      18.934635     34.333593      5.808024
  H      17.120833     36.402277      5.740148
  H      16.140856     38.984066      5.830667
  P      11.625362     29.652359     11.277261
  O      11.498391     31.122062     11.311551
  O      11.576242     28.940299      9.943141
  O      12.942214     29.156868     12.022495
  O      10.493743     28.942699     12.185306
  C       9.206023     28.880567     11.615015
  C       8.138079     29.284959     12.612358
  O       8.311030     30.641207     13.068276
  C       6.768574     29.252435     11.965443
  O       5.766794     29.090336     12.933879
  C       6.698057     30.658912     11.377894
  O       5.393706     31.108389     11.138245
  C       7.355055     31.468504     12.494187
  N       8.006999     32.697619     12.054270
  C       9.320934     32.868186     11.674097
  N       9.578708     34.089632     11.273580
  C       8.389739     34.735536     11.381766
  C       8.021236     36.012577     10.972749
  N       8.846163     36.877216     10.402892
  N       6.709904     36.301538     11.188197
  C       5.816986     35.421682     11.738699
  N       6.106858     34.217543     12.097056
  C       7.393441     33.892294     11.876079
  H      13.163371     29.784929     12.715855
  H       9.151016     29.505958     10.718760
  H       9.008036     27.854049     11.285627
  H       8.185911     28.645334     13.495381
  H       6.700040     28.479871     11.189241
  H       4.989122     29.550243     12.591551
  H       7.309974     30.695741     10.478727
  H       5.150215     30.854477     10.237010
  H       6.586147     31.773958     13.212949
  H      10.063830     32.067283     11.696908
  H       9.757930     36.528384     10.144646
  H       8.525186     37.708891      9.937200
  H       4.809138     35.802296     11.852513
  H       6.341836     37.167499     10.823627
163
Coordinates from ORCA-job /data/Seafile/amp/protonated/frames/frame02/dry/amp_prot02 E -13464.784967491480
  Si      3.513848     33.911058      7.849286
  Si      3.464718     30.814083      7.874141
  O       2.293391     34.841632      8.391795
  O       2.174205     30.022101      8.453495
  O       3.426954     32.372830      8.382311
  O       3.596079     33.867780      6.205282
  O       3.523765     30.879627      6.236467
  Si      6.136054     26.172547      7.885967
  Si      8.770121     24.541848      7.869178
  O       4.730049     25.568374      8.442312
  O       7.428679     25.333258      8.400157
  O       8.659492     23.012753      8.425710
  O       6.194138     26.242333      6.240285
  O       8.712976     24.628027      6.224800
  Si      6.108595     29.245125      7.807645
  Si      6.156618     35.465337      7.735064
  Si      8.904434     33.851848      7.740319
  Si      8.889196     30.808566      7.846434
  O       4.841942     30.109852      8.431366
  O       4.887826     34.652771      8.356373
  O       7.544286     34.715178      8.079159
  O       7.445803     30.080876      8.149680
  O       6.182763     27.735908      8.405898
  O       8.747080     32.372309      8.377958
  O       5.788234     29.156787      6.199459
  O       5.924539     35.672894      6.125778
  O       9.102936     33.715469      6.119965
  O       9.175781     30.923517      6.240062
  Si      6.195504     38.549900      7.808426
  Si      8.911044     40.054799      7.835961
  O       4.918185     39.347752      8.423964
  O       7.549311     39.291281      8.367161
  O       6.218117     36.999226      8.344177
  O       8.993028     41.557794      8.437683
  O       6.256967     38.556931      6.175097
  O       8.911685     40.015335      6.195440
  Si     11.469742     26.008649      7.761053
  Si     14.179547     24.527322      7.846603
  O      10.116603     25.302254      8.372226
  O      12.844931     25.322071      8.322565
  O      14.016606     23.014083      8.431388
  O      11.383294     25.656130      6.146518
  O      14.204485     24.554433      6.197952
  Si     11.508284     29.207238      8.300176
  Si     11.580082     35.359811      7.707158
  Si     14.245714     33.825545      7.703828
  Si     14.214848     30.755460      7.761849
  O      10.032514     29.993744      8.608068
  O      10.184747     34.721054      8.274937
  O      12.944283     34.672558      8.257951
  O      12.988576     29.988377      8.441536
  O      11.480482     27.563974      8.070781
  O      14.335217     32.315392      8.278207
  O      11.367539     29.553123      6.616864
  O      11.584217     35.188382      6.077618
  O      14.081348     33.707769      6.073728
  O      13.955921     30.812393      6.139632
  Si     11.590479     38.530702      7.761560
  Si     14.265611     40.062526      7.864335
  O      10.204240     39.198182      8.351658
  O      12.929571     39.238830      8.349912
  O      11.573165     36.947838      8.122816
  O      14.196237     41.572385      8.465435
  O      11.628871     38.801618      6.145520
  O      14.316192     40.030965      6.219961
  Si     16.890953     26.050552      7.867403
  O      15.554563     25.252525      8.360052
  O      18.205347     25.296365      8.470465
  O      16.847756     26.032269      6.221161
  Si     16.962148     29.132583      7.765598
  Si     16.992328     35.420759      7.753093
  Si     19.632393     33.827575      7.859550
  Si     19.600049     30.720226      7.871144
  O      15.599554     29.949011      8.064867
  O      15.616770     34.620153      8.070392
  O      18.274128     34.610685      8.347593
  O      18.233532     29.972944      8.353939
  O      16.871480     27.614183      8.356908
  O      19.615662     32.278452      8.368259
  O      17.201254     28.934324      6.148325
  O      17.260014     35.517731      6.133165
  O      19.623598     33.785647      6.214986
  O      19.585125     30.723513      6.222333
  Si     16.940942     38.495420      7.847584
  O      15.624300     39.320304      8.370498
  O      18.329727     39.114149      8.422931
  O      16.876777     36.942033      8.336695
  O      16.895655     38.495725      6.202070
  O      20.864959     29.894107      8.474414
  O      20.976282     34.532821      8.451554
  H       4.074658     24.986772      8.036591
  H       1.410409     29.602015      8.036749
  H       1.410409     35.007985      8.036749
  H       4.074657     39.623228      8.036591
  H       8.948181     22.173255      8.038302
  H       8.948181     42.436745      8.038302
  H      14.277762     22.173204      8.038282
  H      14.277762     42.436796      8.038282
  H      18.960557     24.876228      8.036406
  H      18.960556     39.733772      8.036406
  H      21.624717     29.491420      8.036583
  H      21.624717     35.118580      8.036583
  H      13.332971     34.205576      5.716329
  H      10.782977     34.756362      5.741223
  H       9.112554     32.775724      5.845910
  H      10.005126     30.397948      6.081244
  H      12.180282     29.890190      6.221989
  H      14.039499     31.699649      5.765164
  H      13.491975     39.724543      5.816295
  H      10.791985     39.091370      5.760704
  H       8.115615     39.631139      5.804611
  H       6.118096     37.679090      5.785503
  H       5.242399     35.093741      5.755853
  H       3.562863     32.966208      5.852963
  H       4.205439     30.293439      5.866931
  H       5.961123     28.278336      5.826901
  H       6.952262     25.752445      5.883758
  H       9.563129     24.929685      5.859929
  H      12.225737     25.354583      5.781451
  H      14.994196     24.990146      5.847381
  H      17.004146     26.910155      5.840985
  H      17.895448     29.502442      5.789200
  H      19.638082     31.613323      5.848394
  H      18.923920     34.332882      5.828744
  H      17.108098     36.396075      5.761343
  H      16.135788     38.975334      5.844012
  P      11.701518     29.524713     11.435042
  O      11.658634     30.996177     11.521521
  O      11.658619     28.852086     10.077040
  O      12.970107     28.923489     12.181839
  O      10.515240     28.841926     12.282149
  C       9.235100     28.811980     11.680437
  C       8.161898     29.248578     12.657863
  O       8.348414     30.608657     13.098325
  C       6.791239     29.228581     12.006057
  O       5.789829     29.073043     12.978293
  C       6.718141     30.636593     11.415282
  O       5.412778     31.091272     11.187321
  C       7.385402     31.436074     12.528019
  N       8.021195     32.660679     12.062185
  C       9.327680     32.835717     11.659975
  N       9.567084     34.056518     11.246744
  C       8.373892     34.695079     11.363181
  C       7.986172     35.967102     10.950271
  N       8.792884     36.842678     10.370098
  N       6.675848     36.245287     11.181868
  C       5.799882     35.359986     11.747736
  N       6.106765     34.161432     12.111468
  C       7.392650     33.846539     11.875992
  H      13.240399     29.526587     12.880834
  H       9.208742     29.425043     10.773826
  H       9.020093     27.785384     11.363682
  H       8.196831     28.617800     13.548049
  H       6.718600     28.455761     11.230324
  H       5.009767     29.528615     12.635719
  H       7.320547     30.683375     10.507034
  H       5.157851     30.845670     10.286645
  H       6.624339     31.745886     13.253574
  H      10.075198     32.040886     11.681363
  H       9.704782     36.506378     10.096973
  H       8.450156     37.666585      9.902404
  H       4.791352     35.732185     11.874437
  H       6.293494     37.104982     10.815398
163
Coordinates from ORCA-job /data/Seafile/amp/protonated/frames/frame02/dry/amp_prot02 E -13464.786692965545
  Si      3.515184     33.913391      7.850268
  Si      3.461756     30.818295      7.882516
  O       2.296734     34.850402      8.386709
  O       2.166191     30.031258      8.457247
  O       3.424261     32.377765      8.388464
  O       3.598840     33.863957      6.206388
  O       3.526520     30.883785      6.244870
  Si      6.134320     26.177291      7.890810
  Si      8.765201     24.543544      7.869667
  O       4.723809     25.576850      8.439903
  O       7.424166     25.334363      8.404222
  O       8.647637     23.011661      8.419322
  O       6.197922     26.252907      6.245263
  O       8.705390     24.637109      6.225426
  Si      6.102086     29.247540      7.818774
  Si      6.155667     35.469133      7.730772
  Si      8.902916     33.851169      7.734940
  Si      8.884671     30.809617      7.855996
  O       4.834391     30.110245      8.444173
  O       4.889751     34.655042      8.355573
  O       7.544948     34.720934      8.069672
  O       7.437282     30.085790      8.157754
  O       6.180875     27.738656      8.415739
  O       8.738744     32.376695      8.381396
  O       5.775517     29.157699      6.211611
  O       5.916598     35.681580      6.122915
  O       9.102708     33.704790      6.115521
  O       9.178477     30.918649      6.251381
  Si      6.196613     38.552562      7.807083
  Si      8.913010     40.054135      7.833962
  O       4.919496     39.350911      8.422778
  O       7.552006     39.289862      8.365997
  O       6.217581     37.002129      8.343063
  O       8.994317     41.556896      8.435956
  O       6.259360     38.559851      6.173923
  O       8.910084     40.014205      6.193491
  Si     11.466222     26.007151      7.755889
  Si     14.177236     24.527253      7.846928
  O      10.114058     25.299559      8.371649
  O      12.841572     25.320680      8.319104
  O      14.017295     23.013255      8.432130
  O      11.375443     25.637727      6.144607
  O      14.205372     24.551400      6.197798
  Si     11.507649     29.206834      8.308348
  Si     11.580479     35.357497      7.697966
  Si     14.247818     33.824584      7.696892
  Si     14.216878     30.753361      7.760038
  O      10.028109     29.996172      8.616887
  O      10.184075     34.721014      8.266852
  O      12.943325     34.669346      8.248371
  O      12.992501     29.986386      8.438295
  O      11.481609     27.564216      8.051705
  O      14.339625     32.315935      8.271357
  O      11.357237     29.572735      6.622530
  O      11.581621     35.186010      6.068336
  O      14.084243     33.709667      6.066314
  O      13.961778     30.808403      6.136571
  Si     11.592024     38.529450      7.757020
  Si     14.265053     40.062404      7.864084
  O      10.205497     39.196477      8.348100
  O      12.930194     39.236021      8.347457
  O      11.572397     36.945984      8.114467
  O      14.190807     41.572687      8.464017
  O      11.630815     38.806092      6.141625
  O      14.316375     40.030489      6.219477
  Si     16.889294     26.050177      7.869224
  O      15.552125     25.253111      8.360497
  O      18.203891     25.293385      8.470321
  O      16.846145     26.034031      6.222608
  Si     16.965594     29.131628      7.767916
  Si     16.993091     35.422799      7.753967
  Si     19.631325     33.828143      7.863387
  Si     19.601559     30.721775      7.875703
  O      15.603953     29.950185      8.062687
  O      15.615900     34.623698      8.065077
  O      18.273348     34.612041      8.350224
  O      18.237953     29.970201      8.357629
  O      16.871526     27.613420      8.359304
  O      19.615372     32.279789      8.372897
  O      17.211306     28.930072      6.151445
  O      17.267279     35.523538      6.134937
  O      19.621142     33.784654      6.218516
  O      19.587787     30.727676      6.226491
  Si     16.940565     38.496681      7.849717
  O      15.623992     39.322665      8.371086
  O      18.328592     39.117130      8.424911
  O      16.876814     36.943941      8.338287
  O      16.895740     38.497809      6.203852
  O      20.869880     29.899341      8.476989
  O      20.976210     34.534108      8.452859
  H       4.074658     24.986772      8.036591
  H       1.410409     29.602015      8.036749
  H       1.410409     35.007985      8.036749
  H       4.074657     39.623228      8.036591
  H       8.948181     22.173255      8.038302
  H       8.948181     42.436745      8.038302
  H      14.277762     22.173204      8.038282
  H      14.277762     42.436796      8.038282
  H      18.960557     24.876228      8.036406
  H      18.960556     39.733772      8.036406
  H      21.624717     29.491420      8.036583
  H      21.624717     35.118580      8.036583
  H      13.335937     34.208013      5.710006
  H      10.782854     34.745933      5.735168
  H       9.128951     32.761683      5.851159
  H      10.025369     30.404393      6.114974
  H      12.180961     29.868817      6.216943
  H      14.044788     31.694872      5.760769
  H      13.491498     39.725736      5.815941
  H      10.791794     39.087532      5.755730
  H       8.112034     39.631855      5.804785
  H       6.114361     37.682701      5.783899
  H       5.241489     35.094637      5.751314
  H       3.566115     32.960615      5.857280
  H       4.205272     30.292042      5.877555
  H       5.956466     28.281016      5.838424
  H       6.957459     25.763185      5.890909
  H       9.559087     24.931372      5.861841
  H      12.221763     25.350799      5.776957
  H      14.994056     24.989930      5.848621
  H      17.005614     26.912468      5.844440
  H      17.899402     29.505575      5.792267
  H      19.639184     31.618537      5.854720
  H      18.924534     34.336206      5.832803
  H      17.109624     36.401039      5.763622
  H      16.136387     38.978332      5.846065
  P      11.645069     29.557412     11.367389
  O      11.555144     31.028521     11.335153
  O      11.562377     28.774383     10.070025
  O      12.961817     29.050229     12.098089
  O      10.511513     28.902471     12.301929
  C       9.226003     28.795303     11.729520
  C       8.163695     29.278582     12.691331
  O       8.362727     30.648373     13.093473
  C       6.796406     29.244642     12.035263
  O       5.794497     29.095870     13.008663
  C       6.719070     30.649444     11.428473
  O       5.411146     31.096476     11.207752
  C       7.391785     31.463909     12.528491
  N       8.023397     32.689813     12.057018
  C       9.335054     32.871290     11.671700
  N       9.571572     34.090570     11.252475
  C       8.374645     34.723486     11.354327
  C       7.985992     35.994534     10.937951
  N       8.794091     36.875334     10.367031
  N       6.673926     36.269753     11.162471
  C       5.797666     35.383264     11.726730
  N       6.105683     34.186865     12.095090
  C       7.393106     33.873468     11.865655
  H      13.272995     29.734465     12.698030
  H       9.174530     29.343011     10.783616
  H       9.027475     27.744440     11.491436
  H       8.189139     28.675372     13.600537
  H       6.729623     28.462407     11.268251
  H       5.011334     29.540513     12.660085
  H       7.315147     30.696771     10.514189
  H       5.152163     30.850411     10.309778
  H       6.636049     31.773404     13.259497
  H      10.089853     32.082502     11.715851
  H       9.706447     36.539642     10.093912
  H       8.449002     37.696875      9.896223
  H       4.787385     35.753473     11.847578
  H       6.290848     37.125901     10.788960
163
Coordinates from ORCA-job /data/Seafile/amp/protonated/frames/frame02/dry/amp_prot02 E -13464.774367089527
  Si      3.518195     33.915612      7.860626
  Si      3.459561     30.822533      7.900444
  O       2.299333     34.858488      8.387634
  O       2.156980     30.040824      8.468243
  O       3.422167     32.382438      8.405332
  O       3.606663     33.859678      6.217247
  O       3.533853     30.886710      6.262796
  Si      6.134217     26.182670      7.902003
  Si      8.761297     24.543705      7.873713
  O       4.719805     25.581812      8.442587
  O       7.422324     25.335367      8.413858
  O       8.638346     23.009997      8.418011
  O       6.200722     26.266629      6.256711
  O       8.697010     24.642241      6.229959
  Si      6.097186     29.252177      7.844846
  Si      6.157030     35.471559      7.744663
  Si      8.902271     33.849619      7.755557
  Si      8.879163     30.813430      7.883630
  O       4.826621     30.110248      8.470858
  O       4.891843     34.657054      8.369735
  O       7.547271     34.726418      8.085393
  O       7.430166     30.092569      8.183831
  O       6.179650     27.741422      8.436789
  O       8.735904     32.379275      8.411260
  O       5.773194     29.164866      6.237639
  O       5.919316     35.681033      6.136994
  O       9.101217     33.691993      6.136889
  O       9.174238     30.919279      6.280794
  Si      6.197006     38.554530      7.812033
  Si      8.913714     40.054205      7.836589
  O       4.920379     39.355312      8.424587
  O       7.552460     39.291147      8.370377
  O       6.217032     37.005571      8.353507
  O       8.995814     41.557223      8.437067
  O       6.261577     38.556533      6.178735
  O       8.908647     40.013311      6.196172
  Si     11.465035     26.002853      7.757474
  Si     14.177707     24.528117      7.851117
  O      10.113551     25.293457      8.375519
  O      12.840781     25.319506      8.323472
  O      14.019228     23.012850      8.434270
  O      11.373689     25.627152      6.146415
  O      14.211414     24.549114      6.202161
  Si     11.501538     29.211352      8.327618
  Si     11.579503     35.355415      7.709372
  Si     14.247443     33.822674      7.706980
  Si     14.218377     30.750401      7.773018
  O      10.021239     30.000390      8.639591
  O      10.185437     34.718744      8.284189
  O      12.942335     34.666645      8.258810
  O      12.993527     29.984886      8.449386
  O      11.467608     27.560745      8.045657
  O      14.339973     32.314651      8.283056
  O      11.341299     29.605313      6.635705
  O      11.573327     35.181191      6.079710
  O      14.081706     33.709987      6.076225
  O      13.972068     30.805160      6.148665
  Si     11.592682     38.528210      7.763522
  Si     14.264287     40.061680      7.869671
  O      10.206696     39.197588      8.352015
  O      12.930632     39.234379      8.354691
  O      11.572651     36.944719      8.123221
  O      14.187631     41.574217      8.465748
  O      11.632404     38.802301      6.147757
  O      14.314883     40.026610      6.225194
  Si     16.888153     26.052005      7.877038
  O      15.550662     25.254841      8.367550
  O      18.203077     25.291470      8.473746
  O      16.845988     26.040951      6.230562
  Si     16.966745     29.131869      7.781996
  Si     16.991564     35.422687      7.763822
  Si     19.628938     33.828143      7.871137
  Si     19.600997     30.723060      7.885205
  O      15.607196     29.951734      8.078891
  O      15.614036     34.624890      8.076013
  O      18.272022     34.611946      8.360082
  O      18.240927     29.967958      8.371483
  O      16.871438     27.613212      8.372042
  O      19.614494     32.280668      8.383279
  O      17.212122     28.931713      6.165081
  O      17.265518     35.523323      6.144708
  O      19.615143     33.783021      6.226342
  O      19.586176     30.730393      6.236060
  Si     16.939413     38.496187      7.856463
  O      15.623846     39.323647      8.377996
  O      18.327785     39.118568      8.428962
  O      16.876967     36.944109      8.347796
  O      16.894455     38.496710      6.210533
  O      20.873633     29.903854      8.482070
  O      20.975811     34.535253      8.456008
  H       4.074658     24.986772      8.036591
  H       1.410409     29.602015      8.036749
  H       1.410409     35.007985      8.036749
  H       4.074657     39.623228      8.036591
  H       8.948181     22.173255      8.038302
  H       8.948181     42.436745      8.038302
  H      14.277762     22.173204      8.038282
  H      14.277762     42.436796      8.038282
  H      18.960557     24.876228      8.036406
  H      18.960556     39.733772      8.036406
  H      21.624717     29.491420      8.036583
  H      21.624717     35.118580      8.036583
  H      13.331334     34.208895      5.722298
  H      10.773644     34.736640      5.751462
  H       9.127438     32.745900      5.878663
  H      10.029471     30.402990      6.157673
  H      12.176109     29.877405      6.228558
  H      14.051556     31.692387      5.772726
  H      13.488706     39.724325      5.821143
  H      10.790804     39.076980      5.759587
  H       8.110102     39.630464      5.807898
  H       6.113666     37.678961      5.789531
  H       5.249375     35.088001      5.763182
  H       3.577487     32.954811      5.869965
  H       4.211938     30.291709      5.897226
  H       5.959980     28.289945      5.860801
  H       6.961925     25.780920      5.899580
  H       9.551660     24.931417      5.862853
  H      12.222833     25.350344      5.774891
  H      14.999977     24.988658      5.852545
  H      17.008302     26.919960      5.853032
  H      17.896360     29.512265      5.803853
  H      19.635961     31.621757      5.863255
  H      18.920061     34.337343      5.839909
  H      17.104121     36.400370      5.771653
  H      16.135229     38.977455      5.851220
  P      11.702177     29.642121     11.427716
  O      11.602139     31.151259     11.410245
  O      11.617611     28.813830     10.061843
  O      13.080167     29.106237     12.193763
  O      10.547395     29.016055     12.374274
  C       9.255357     28.873925     11.799377
  C       8.179969     29.347291     12.752425
  O       8.363507     30.723415     13.130892
  C       6.813913     29.286866     12.092878
  O       5.814374     29.133406     13.072037
  C       6.719279     30.682667     11.465672
  O       5.406441     31.109892     11.243131
  C       7.384352     31.518550     12.554210
  N       8.012232     32.738419     12.059439
  C       9.323611     32.907158     11.664824
  N       9.564008     34.122518     11.234134
  C       8.369812     34.761789     11.329688
  C       7.987580     36.031740     10.899994
  N       8.801785     36.903142     10.320341
  N       6.676976     36.317763     11.120667
  C       5.796964     35.440343     11.696891
  N       6.099549     34.245119     12.079456
  C       7.384673     33.920483     11.852111
  H      13.436756     29.835829     12.805472
  H       9.192475     29.406008     10.836128
  H       9.072990     27.812489     11.584949
  H       8.207074     28.759078     13.674686
  H       6.757813     28.494739     11.334349
  H       5.024928     29.564134     12.719907
  H       7.310845     30.730718     10.546412
  H       5.149108     30.860350     10.344803
  H       6.625932     31.834572     13.279745
  H      10.067330     32.109125     11.697397
  H       9.713316     36.559586     10.050066
  H       8.462314     37.723654      9.838771
  H       4.788190     35.816819     11.814357
  H       6.299276     37.175158     10.736427
163
Coordinates from ORCA-job /data/Seafile/amp/protonated/frames/frame02/dry/amp_prot02 E -13464.783237368525
  Si      3.519487     33.915692      7.868727
  Si      3.454205     30.823896      7.911137
  O       2.300543     34.863262      8.389255
  O       2.148852     30.045178      8.479361
  O       3.418279     32.382974      8.422057
  O       3.611112     33.855666      6.227984
  O       3.533175     30.887535      6.274916
  Si      6.134506     26.186730      7.902564
  Si      8.760274     24.544007      7.878803
  O       4.717282     25.587239      8.440140
  O       7.421941     25.335667      8.422574
  O       8.631545     23.007425      8.417059
  O       6.204819     26.271306      6.260022
  O       8.699348     24.649483      6.237698
  Si      6.089719     29.255570      7.849145
  Si      6.155650     35.474946      7.761102
  Si      8.898417     33.851423      7.768181
  Si      8.868935     30.821575      7.888749
  O       4.819720     30.105712      8.485196
  O       4.891894     34.657288      8.387160
  O       7.549551     34.730860      8.102054
  O       7.422056     30.099432      8.186242
  O       6.178421     27.744231      8.444007
  O       8.731495     32.380915      8.429704
  O       5.771762     29.168882      6.243370
  O       5.923844     35.676991      6.153706
  O       9.092483     33.684548      6.151170
  O       9.170673     30.918744      6.291971
  Si      6.195684     38.557205      7.821595
  Si      8.913461     40.054595      7.840466
  O       4.918930     39.360553      8.430265
  O       7.552636     39.293264      8.379636
  O       6.214496     37.007683      8.366309
  O       8.997725     41.558764      8.439721
  O       6.262354     38.554709      6.188153
  O       8.907872     40.012150      6.200945
  Si     11.468076     25.999980      7.771667
  Si     14.180417     24.529362      7.859765
  O      10.115894     25.289693      8.391617
  O      12.843253     25.320882      8.346047
  O      14.023661     23.011634      8.438385
  O      11.377347     25.626333      6.163471
  O      14.214203     24.551806      6.213301
  Si     11.498177     29.217052      8.336374
  Si     11.577181     35.354547      7.720681
  Si     14.245061     33.819745      7.718814
  Si     14.225599     30.745902      7.784599
  O      10.015439     30.011969      8.644888
  O      10.186175     34.714316      8.298963
  O      12.939950     34.659174      8.275020
  O      12.993704     29.983477      8.461044
  O      11.455055     27.565160      8.046579
  O      14.340912     32.308973      8.300592
  O      11.345150     29.625147      6.634682
  O      11.565409     35.179377      6.091334
  O      14.080086     33.711141      6.088942
  O      13.997820     30.799109      6.161415
  Si     11.592789     38.527753      7.770234
  Si     14.263604     40.061298      7.871420
  O      10.211031     39.201045      8.356983
  O      12.932506     39.233303      8.363527
  O      11.573200     36.942452      8.134013
  O      14.185056     41.576195      8.466510
  O      11.634871     38.793739      6.153787
  O      14.315113     40.020295      6.228745
  Si     16.889144     26.053366      7.886012
  O      15.551367     25.255237      8.383111
  O      18.204438     25.289139      8.478313
  O      16.844012     26.048486      6.242163
  Si     16.969418     29.131048      7.799178
  Si     16.987424     35.421166      7.775312
  Si     19.625880     33.828662      7.877092
  Si     19.600530     30.724219      7.892465
  O      15.611741     29.951196      8.106148
  O      15.609744     34.623805      8.095733
  O      18.270255     34.611118      8.373812
  O      18.243985     29.964357      8.391536
  O      16.872773     27.611780      8.392521
  O      19.614024     32.280595      8.396581
  O      17.207355     28.935007      6.182505
  O      17.255736     35.516549      6.156468
  O      19.605482     33.779682      6.234161
  O      19.580523     30.731332      6.245427
  Si     16.938461     38.495114      7.860641
  O      15.625135     39.324011      8.385366
  O      18.326995     39.119799      8.432649
  O      16.876566     36.942024      8.361184
  O      16.894116     38.490399      6.216086
  O      20.877825     29.908367      8.486258
  O      20.975695     34.536723      8.458413
  H       4.074658     24.986772      8.036591
  H       1.410409     29.602015      8.036749
  H       1.410409     35.007985      8.036749
  H       4.074657     39.623228      8.036591
  H       8.948181     22.173255      8.038302
  H       8.948181     42.436745      8.038302
  H      14.277762     22.173204      8.038282
  H      14.277762     42.436796      8.038282
  H      18.960557     24.876228      8.036406
  H      18.960556     39.733772      8.036406
  H      21.624717     29.491420      8.036583
  H      21.624717     35.118580      8.036583
  H      13.327251     34.210013      5.737690
  H      10.764614     34.732960      5.766162
  H       9.116795     32.737840      5.894163
  H      10.039111     30.399718      6.188845
  H      12.186761     29.877319      6.225937
  H      14.074921     31.686843      5.783637
  H      13.489481     39.720173      5.821770
  H      10.792234     39.064258      5.762825
  H       8.110901     39.626822      5.810720
  H       6.112483     37.678506      5.796428
  H       5.259112     35.081151      5.774060
  H       3.585990     32.952101      5.876069
  H       4.207985     30.292181      5.903164
  H       5.961462     28.297187      5.858840
  H       6.965357     25.790435      5.895220
  H       9.551528     24.932978      5.861960
  H      12.223209     25.358894      5.779117
  H      14.998153     24.992040      5.855183
  H      17.007261     26.924852      5.859147
  H      17.886425     29.517188      5.813425
  H      19.626189     31.619989      5.865553
  H      18.912687     34.334097      5.843333
  H      17.091674     36.390756      5.776824
  H      16.135858     38.968390      5.850892
  P      11.756963     29.716432     11.362745
  O      11.680101     31.160951     11.370685
  O      11.654384     28.981206     10.046656
  O      13.090187     29.199876     12.037013
  O      10.616732     29.047851     12.278004
  C       9.314103     28.905908     11.732708
  C       8.247909     29.318593     12.708592
  O       8.417389     30.686079     13.108223
  C       6.883607     29.242452     12.063942
  O       5.902960     29.034029     13.041804
  C       6.752033     30.642689     11.472471
  O       5.430451     31.046976     11.270675
  C       7.410350     31.471162     12.567016
  N       8.011234     32.705147     12.073343
  C       9.316506     32.884043     11.665451
  N       9.542981     34.099354     11.229374
  C       8.345073     34.726224     11.329686
  C       7.949444     35.985287     10.890574
  N       8.749556     36.859106     10.288075
  N       6.638776     36.266271     11.124015
  C       5.770660     35.387085     11.720066
  N       6.085932     34.195905     12.107904
  C       7.371272     33.880459     11.871781
  H      13.463803     29.877777     12.617528
  H       9.220392     29.478194     10.792309
  H       9.153455     27.851578     11.494600
  H       8.292935     28.712461     13.617527
  H       6.840565     28.474319     11.286407
  H       5.102273     29.453969     12.704710
  H       7.334756     30.718592     10.554073
  H       5.165976     30.816453     10.369996
  H       6.656912     31.758428     13.309587
  H      10.056222     32.083899     11.680160
  H       9.664822     36.531876     10.013032
  H       8.391579     37.670649      9.800442
  H       4.759990     35.756726     11.844885
  H       6.252907     37.120624     10.740887
163
Coordinates from ORCA-job /data/Seafile/amp/protonated/frames/frame02/dry/amp_prot02 E -13464.783794225636
  Si      3.515075     33.914901      7.836403
  Si      3.453117     30.822964      7.872468
  O       2.303349     34.859952      8.374967
  O       2.155833     30.046513      8.458346
  O       3.421633     32.381705      8.381372
  O       3.594639     33.859351      6.194324
  O       3.516507     30.884391      6.235760
  Si      6.132943     26.182983      7.880582
  Si      8.760908     24.543509      7.861117
  O       4.718659     25.590595      8.429968
  O       7.421899     25.338201      8.399174
  O       8.632617     23.011239      8.409443
  O       6.197120     26.254340      6.236868
  O       8.698197     24.638326      6.218374
  Si      6.090379     29.252298      7.801078
  Si      6.152271     35.472293      7.714107
  Si      8.899432     33.850147      7.724907
  Si      8.875443     30.817048      7.844416
  O       4.821841     30.108133      8.433275
  O       4.891483     34.653526      8.342947
  O       7.544874     34.727775      8.050794
  O       7.423453     30.095461      8.136407
  O       6.179482     27.745171      8.405078
  O       8.729263     32.379405      8.381572
  O       5.758726     29.155595      6.195617
  O       5.907486     35.687622      6.107713
  O       9.104706     33.691890      6.107951
  O       9.186373     30.924428      6.244517
  Si      6.196755     38.555128      7.804090
  Si      8.915106     40.052093      7.834849
  O       4.921111     39.353326      8.423064
  O       7.554881     39.284545      8.369157
  O       6.214189     37.002081      8.332448
  O       8.997143     41.555487      8.436746
  O       6.260580     38.567825      6.171616
  O       8.909746     40.014527      6.195108
  Si     11.465953     26.001168      7.742650
  Si     14.179088     24.528738      7.844016
  O      10.114528     25.292616      8.364731
  O      12.841993     25.322768      8.316137
  O      14.021870     23.014442      8.432432
  O      11.375333     25.614418      6.135310
  O      14.213904     24.544630      6.196128
  Si     11.505445     29.209437      8.300966
  Si     11.577040     35.354536      7.693273
  Si     14.246553     33.823473      7.686036
  Si     14.225823     30.750716      7.739726
  O      10.019137     30.001190      8.607766
  O      10.182297     34.713990      8.263194
  O      12.938606     34.660852      8.242549
  O      13.001805     29.983117      8.416114
  O      11.458201     27.564092      8.011115
  O      14.343177     32.313301      8.257191
  O      11.344842     29.609516      6.607425
  O      11.574701     35.185803      6.063568
  O      14.083512     33.714583      6.055516
  O      13.984600     30.804881      6.115013
  Si     11.594409     38.527484      7.755561
  Si     14.264574     40.062281      7.864274
  O      10.210543     39.197176      8.346255
  O      12.932980     39.231401      8.349555
  O      11.572491     36.942353      8.111378
  O      14.184270     41.573986      8.463711
  O      11.637283     38.805140      6.140214
  O      14.317834     40.029331      6.220549
  Si     16.889788     26.052619      7.866614
  O      15.550779     25.258597      8.361244
  O      18.202719     25.292486      8.469294
  O      16.848941     26.036544      6.221296
  Si     16.972613     29.131800      7.761552
  Si     16.990570     35.424024      7.751446
  Si     19.628407     33.829624      7.862141
  Si     19.604150     30.724889      7.874012
  O      15.613309     29.954094      8.054770
  O      15.611513     34.626527      8.061692
  O      18.269959     34.611889      8.350622
  O      18.244392     29.966952      8.358189
  O      16.872373     27.615236      8.358772
  O      19.613669     32.281809      8.375713
  O      17.225707     28.925363      6.146658
  O      17.269393     35.526172      6.133395
  O      19.617210     33.783542      6.218050
  O      19.592926     30.732601      6.225719
  Si     16.940199     38.497545      7.849956
  O      15.624646     39.324069      8.373667
  O      18.327378     39.119608      8.426721
  O      16.877224     36.944152      8.340255
  O      16.897023     38.499045      6.204558
  O      20.875666     29.908424      8.477813
  O      20.973739     34.536189      8.452131
  H       4.074658     24.986772      8.036591
  H       1.410409     29.602015      8.036749
  H       1.410409     35.007985      8.036749
  H       4.074657     39.623228      8.036591
  H       8.948181     22.173255      8.038302
  H       8.948181     42.436745      8.038302
  H      14.277762     22.173204      8.038282
  H      14.277762     42.436796      8.038282
  H      18.960557     24.876228      8.036406
  H      18.960556     39.733772      8.036406
  H      21.624717     29.491420      8.036583
  H      21.624717     35.118580      8.036583
  H      13.331422     34.209606      5.702537
  H      10.777969     34.740096      5.733244
  H       9.134267     32.745441      5.850466
  H      10.058213     30.416085      6.134773
  H      12.178098     29.870355      6.196827
  H      14.056052     31.691484      5.737850
  H      13.492851     39.730035      5.813894
  H      10.797783     39.079190      5.751258
  H       8.114107     39.629720      5.804820
  H       6.110134     37.693825      5.776150
  H       5.238475     35.094535      5.733252
  H       3.565929     32.954354      5.846107
  H       4.190573     30.287348      5.866322
  H       5.944913     28.279972      5.821814
  H       6.957549     25.767583      5.879464
  H       9.552351     24.920948      5.847144
  H      12.222477     25.342547      5.760093
  H      14.999605     24.985049      5.843318
  H      17.012796     26.912707      5.839399
  H      17.909015     29.504856      5.784908
  H      19.641139     31.622852      5.851931
  H      18.925300     34.338823      5.829083
  H      17.108466     36.401943      5.759612
  H      16.138545     38.978345      5.843650
  P      11.674342     29.562823     11.356134
  O      11.634290     31.068665     11.371329
  O      11.595763     28.838586     10.044311
  O      12.927483     28.980007     12.079613
  O      10.531845     28.887343     12.242546
  C       9.258358     28.783855     11.658467
  C       8.195562     29.245841     12.630967
  O       8.399589     30.614640     13.040161
  C       6.822484     29.215572     11.983936
  O       5.831754     29.043256     12.963372
  C       6.732481     30.623735     11.398404
  O       5.417566     31.060905     11.199709
  C       7.413060     31.434289     12.500825
  N       8.028088     32.671551     12.027961
  C       9.333841     32.870268     11.626991
  N       9.552152     34.094753     11.210758
  C       8.347584     34.712767     11.327271
  C       7.935293     35.978208     10.919798
  N       8.716703     36.873905     10.340486
  N       6.622623     36.232430     11.161507
  C       5.765605     35.333943     11.731990
  N       6.093914     34.143053     12.090979
  C       7.382493     33.847986     11.848378
  H      13.236647     29.633536     12.656600
  H       9.202888     29.351621     10.731547
  H       9.076495     27.736543     11.407501
  H       8.224061     28.636742     13.536810
  H       6.754608     28.445291     11.204624
  H       5.036847     29.486121     12.632879
  H       7.319040     30.687094     10.479416
  H       5.151740     30.830017     10.301962
  H       6.664301     31.730071     13.247044
  H      10.089555     32.082359     11.642731
  H       9.630167     36.560938     10.056387
  H       8.344874     37.683804      9.873409
  H       4.750432     35.687469     11.861448
  H       6.225944     37.081295     10.800477
163
Coordinates from ORCA-job /data/Seafile/amp/protonated/frames/frame02/dry/amp_prot02 E -13464.785179036753
  Si      3.512939     33.915216      7.827415
  Si      3.452252     30.823760      7.867602
  O       2.305387     34.863263      8.369655
  O       2.154612     30.049299      8.455665
  O       3.421735     32.383294      8.373693
  O       3.584653     33.858560      6.185102
  O       3.512125     30.885239      6.230874
  Si      6.132124     26.181512      7.878891
  Si      8.760508     24.544352      7.864698
  O       4.716186     25.592607      8.427345
  O       7.419962     25.338839      8.399300
  O       8.630294     23.010422      8.408333
  O       6.196551     26.248484      6.234625
  O       8.698949     24.640630      6.221359
  Si      6.087366     29.249694      7.788726
  Si      6.150244     35.471307      7.688781
  Si      8.899952     33.848147      7.692870
  Si      8.875546     30.813929      7.812344
  O       4.821612     30.108730      8.424330
  O       4.893117     34.652393      8.324241
  O       7.544481     34.726819      8.018691
  O       7.423742     30.093205      8.110331
  O       6.179430     27.745187      8.396436
  O       8.729373     32.377567      8.349201
  O       5.742329     29.145687      6.185160
  O       5.894063     35.693341      6.083453
  O       9.106668     33.689781      6.075990
  O       9.189984     30.921105      6.211968
  Si      6.196578     38.555187      7.791370
  Si      8.914917     40.052004      7.826637
  O       4.922699     39.350776      8.417511
  O       7.556194     39.279593      8.358469
  O       6.214777     37.000208      8.311690
  O       8.997603     41.553640      8.432877
  O       6.257225     38.574829      6.159325
  O       8.905262     40.020909      6.186880
  Si     11.463503     26.004364      7.749937
  Si     14.176867     24.531099      7.849548
  O      10.112246     25.293148      8.369438
  O      12.840292     25.325866      8.320872
  O      14.022470     23.014630      8.434357
  O      11.373721     25.614222      6.141478
  O      14.210947     24.545516      6.201046
  Si     11.502279     29.208385      8.273965
  Si     11.578340     35.353272      7.662637
  Si     14.249099     33.822996      7.657318
  Si     14.225271     30.749547      7.715488
  O      10.016517     29.998674      8.577315
  O      10.182962     34.711562      8.232146
  O      12.938686     34.659500      8.209363
  O      13.001306     29.981186      8.388548
  O      11.449710     27.569517      8.010021
  O      14.342659     32.314428      8.227474
  O      11.340247     29.595178      6.580332
  O      11.575951     35.186624      6.032293
  O      14.087599     33.714848      6.025861
  O      13.983742     30.800410      6.088767
  Si     11.595013     38.527926      7.737528
  Si     14.265009     40.062004      7.857516
  O      10.210548     39.195184      8.331686
  O      12.932736     39.228131      8.335505
  O      11.573314     36.940850      8.084351
  O      14.182033     41.571677      8.460479
  O      11.637085     38.816578      6.123047
  O      14.320359     40.035288      6.213486
  Si     16.889141     26.052145      7.865924
  O      15.549952     25.261126      8.362316
  O      18.203250     25.293132      8.468062
  O      16.848762     26.031149      6.220073
  Si     16.974096     29.131166      7.749684
  Si     16.992948     35.425185      7.735176
  Si     19.629385     33.829260      7.856023
  Si     19.605537     30.724829      7.868863
  O      15.613195     29.955040      8.035085
  O      15.612186     34.626976      8.036703
  O      18.269050     34.611624      8.337579
  O      18.245108     29.967044      8.347283
  O      16.872060     27.616628      8.350366
  O      19.613186     32.282038      8.368606
  O      17.235121     28.919266      6.135005
  O      17.280410     35.533298      6.117604
  O      19.623769     33.783624      6.211512
  O      19.599995     30.732800      6.219929
  Si     16.941285     38.498578      7.842908
  O      15.624026     39.323293      8.365495
  O      18.327548     39.119347      8.422857
  O      16.877652     36.944500      8.326404
  O      16.900739     38.506619      6.197012
  O      20.876400     29.909459      8.475091
  O      20.972330     34.536943      8.449125
  H       4.074658     24.986772      8.036591
  H       1.410409     29.602015      8.036749
  H       1.410409     35.007985      8.036749
  H       4.074657     39.623228      8.036591
  H       8.948181     22.173255      8.038302
  H       8.948181     42.436745      8.038302
  H      14.277762     22.173204      8.038282
  H      14.277762     42.436796      8.038282
  H      18.960557     24.876228      8.036406
  H      18.960556     39.733772      8.036406
  H      21.624717     29.491420      8.036583
  H      21.624717     35.118580      8.036583
  H      13.335601     34.209059      5.673912
  H      10.780798     34.739281      5.702421
  H       9.139230     32.741671      5.820968
  H      10.062970     30.418036      6.103392
  H      12.170593     29.853254      6.168478
  H      14.052366     31.686147      5.712295
  H      13.496220     39.737553      5.805305
  H      10.798486     39.092496      5.737273
  H       8.108994     39.637910      5.797140
  H       6.105647     37.703046      5.761145
  H       5.223247     35.102351      5.712752
  H       3.553287     32.953885      5.838644
  H       4.184924     30.288117      5.861288
  H       5.925665     28.268390      5.816689
  H       6.956862     25.759881      5.880592
  H       9.553134     24.922997      5.852495
  H      12.220866     25.344374      5.767516
  H      14.996223     24.986002      5.849287
  H      17.012964     26.905928      5.837646
  H      17.919302     29.498239      5.776555
  H      19.649808     31.623241      5.848075
  H      18.933555     34.339062      5.821963
  H      17.121180     36.410095      5.747705
  H      16.143103     38.987427      5.837601
  P      11.655966     29.517502     11.325891
  O      11.568358     30.970159     11.271256
  O      11.582961     28.719140     10.016179
  O      12.988408     29.031819     12.056333
  O      10.514244     28.899134     12.274080
  C       9.239619     28.768068     11.695664
  C       8.182409     29.286170     12.657381
  O       8.408027     30.669174     13.035403
  C       6.811807     29.261821     12.003161
  O       5.804949     29.126461     12.980627
  C       6.746244     30.668473     11.389437
  O       5.435231     31.120191     11.181819
  C       7.438280     31.489729     12.479744
  N       8.072729     32.715842     12.002789
  C       9.386541     32.906616     11.618673
  N       9.614086     34.131856     11.209507
  C       8.413000     34.758280     11.314937
  C       8.012410     36.032526     10.915984
  N       8.807028     36.932296     10.360255
  N       6.695989     36.291032     11.138269
  C       5.826666     35.391315     11.684955
  N       6.145679     34.196913     12.040997
  C       7.436538     33.895309     11.813889
  H      13.362608     29.761159     12.603733
  H       9.196256     29.296244     10.747402
  H       9.038116     27.707007     11.476488
  H       8.189822     28.701914     13.576414
  H       6.738572     28.471455     11.238448
  H       5.020605     29.573676     12.635515
  H       7.334326     30.713607     10.467317
  H       5.168689     30.869828     10.287570
  H       6.691074     31.808382     13.216299
  H      10.145544     32.119077     11.654525
  H       9.725043     36.612207     10.087636
  H       8.446427     37.751593      9.895993
  H       4.810074     35.748201     11.799095
  H       6.305748     37.145943     10.777467
163
Coordinates from ORCA-job /data/Seafile/amp/protonated/frames/frame02/dry/amp_prot02 E -13464.788485087591
  Si      3.515504     33.915300      7.843401
  Si      3.452927     30.824515      7.886724
  O       2.304270     34.865495      8.375332
  O       2.149983     30.051562      8.467346
  O       3.420046     32.383869      8.394500
  O       3.595775     33.855836      6.201876
  O       3.520120     30.886019      6.250174
  Si      6.133429     26.184549      7.887894
  Si      8.759996     24.543869      7.864555
  O       4.715578     25.593272      8.430865
  O       7.421488     25.337516      8.406329
  O       8.628911     23.009779      8.407800
  O       6.199597     26.259201      6.244414
  O       8.695935     24.643205      6.222337
  Si      6.088463     29.253277      7.817256
  Si      6.151747     35.472911      7.719786
  Si      8.897704     33.848426      7.728588
  Si      8.872037     30.817768      7.846744
  O       4.819960     30.107698      8.452069
  O       4.892230     34.653830      8.350748
  O       7.545810     34.729362      8.054767
  O       7.422230     30.097678      8.145376
  O       6.180461     27.745148      8.418315
  O       8.728710     32.378381      8.389413
  O       5.754833     29.157784      6.212882
  O       5.906515     35.687845      6.114148
  O       9.099905     33.686583      6.112293
  O       9.175232     30.923064      6.248156
  Si      6.195950     38.556485      7.805934
  Si      8.913772     40.053473      7.835231
  O       4.920734     39.355879      8.423824
  O       7.555032     39.283777      8.371261
  O       6.212939     37.003335      8.335515
  O       8.997111     41.557015      8.436702
  O       6.260472     38.568400      6.173289
  O       8.905485     40.016249      6.195641
  Si     11.465717     25.999252      7.743302
  Si     14.179369     24.530207      7.847194
  O      10.115263     25.290210      8.368294
  O      12.841785     25.324822      8.320067
  O      14.023241     23.014808      8.433105
  O      11.376053     25.606550      6.137132
  O      14.216732     24.544536      6.199731
  Si     11.503358     29.211633      8.286124
  Si     11.575203     35.353519      7.693976
  Si     14.245596     33.822466      7.690173
  Si     14.228039     30.748401      7.742155
  O      10.019773     30.001421      8.600017
  O      10.181980     34.711252      8.265866
  O      12.935667     34.658025      8.244407
  O      12.999228     29.978981      8.408566
  O      11.447181     27.565710      7.998789
  O      14.341259     32.311412      8.260489
  O      11.345020     29.621191      6.589400
  O      11.569902     35.184492      6.063973
  O      14.085063     33.717514      6.059115
  O      14.000835     30.802565      6.116123
  Si     11.593456     38.527475      7.756259
  Si     14.263584     40.061202      7.866136
  O      10.210502     39.199116      8.345601
  O      12.932427     39.229552      8.351730
  O      11.571214     36.941518      8.111372
  O      14.181040     41.573788      8.463935
  O      11.636838     38.804887      6.140864
  O      14.317517     40.027200      6.222704
  Si     16.889362     26.053432      7.871708
  O      15.549746     25.260331      8.366666
  O      18.202502     25.290906      8.471346
  O      16.848848     26.039441      6.226686
  Si     16.973216     29.131849      7.770993
  Si     16.988414     35.423305      7.758615
  Si     19.626496     33.829713      7.867808
  Si     19.603774     30.725846      7.880768
  O      15.614664     29.954595      8.066265
  O      15.608885     34.626906      8.070061
  O      18.268342     34.611501      8.357722
  O      18.246032     29.965440      8.367688
  O      16.872172     27.614911      8.367071
  O      19.613122     32.282388      8.383594
  O      17.224507     28.926622      6.156045
  O      17.266135     35.524214      6.140587
  O      19.612952     33.781990      6.223936
  O      19.591383     30.734016      6.232775
  Si     16.939200     38.496902      7.853834
  O      15.623978     39.324207      8.377218
  O      18.326643     39.120198      8.429087
  O      16.876563     36.943943      8.346369
  O      16.896375     38.497684      6.208571
  O      20.878514     29.911782      8.481342
  O      20.973201     34.537446      8.454094
  H       4.074658     24.986772      8.036591
  H       1.410409     29.602015      8.036749
  H       1.410409     35.007985      8.036749
  H       4.074657     39.623228      8.036591
  H       8.948181     22.173255      8.038302
  H       8.948181     42.436745      8.038302
  H      14.277762     22.173204      8.038282
  H      14.277762     42.436796      8.038282
  H      18.960557     24.876228      8.036406
  H      18.960556     39.733772      8.036406
  H      21.624717     29.491420      8.036583
  H      21.624717     35.118580      8.036583
  H      13.331783     34.212648      5.707357
  H      10.773418     34.734936      5.735711
  H       9.131557     32.739004      5.857312
  H      10.047113     30.414546      6.140433
  H      12.180681     29.872956      6.178914
  H      14.070941     31.690190      5.739932
  H      13.492555     39.728733      5.814441
  H      10.796466     39.077734      5.750863
  H       8.109232     39.631131      5.805419
  H       6.109111     37.695550      5.776094
  H       5.239191     35.094913      5.737851
  H       3.567865     32.951639      5.853713
  H       4.192659     30.289247      5.879043
  H       5.941724     28.283644      5.836235
  H       6.959800     25.774015      5.885147
  H       9.549546     24.924093      5.848556
  H      12.223076     25.337594      5.758826
  H      15.001984     24.985499      5.845905
  H      17.013968     26.915057      5.843896
  H      17.905710     29.507687      5.792232
  H      19.638303     31.623793      5.857559
  H      18.921810     34.337571      5.833872
  H      17.104057     36.399350      5.765108
  H      16.138150     38.976459      5.846132
  P      11.702666     29.603153     11.346472
  O      11.632506     31.080855     11.319957
  O      11.609295     28.833129     10.024399
  O      13.034929     29.069551     12.060061
  O      10.562784     28.955297     12.280103
  C       9.267504     28.826926     11.716400
  C       8.204357     29.299696     12.682600
  O       8.408776     30.672265     13.070193
  C       6.837149     29.258186     12.028777
  O       5.839748     29.091466     13.001252
  C       6.746859     30.661292     11.426433
  O       5.432503     31.094476     11.216276
  C       7.424276     31.481019     12.522093
  N       8.051245     32.708235     12.043058
  C       9.365414     32.885055     11.661355
  N       9.605478     34.100508     11.234173
  C       8.409209     34.735559     11.323655
  C       8.023314     36.002701     10.890860
  N       8.830748     36.878969     10.307713
  N       6.709760     36.281934     11.106552
  C       5.830268     35.401660     11.677554
  N       6.135963     34.207958     12.060121
  C       7.423742     33.890059     11.840595
  H      13.412712     29.776738     12.620441
  H       9.199973     29.377689     10.769940
  H       9.081750     27.771744     11.486778
  H       8.226072     28.704721     13.597750
  H       6.778201     28.480082     11.258309
  H       5.050878     29.527794     12.655951
  H       7.335172     30.719083     10.508633
  H       5.168452     30.851078     10.318747
  H       6.674215     31.786874     13.260679
  H      10.110207     32.088265     11.703740
  H       9.746779     36.545494     10.042418
  H       8.479865     37.691541      9.816533
  H       4.818277     35.772095     11.785235
  H       6.328969     37.138223     10.721812
163
Coordinates from ORCA-job /data/Seafile/amp/protonated/frames/frame02/dry/amp_prot02 E -13464.788396767952
  Si      3.515817     33.914933      7.845515
  Si      3.452663     30.823872      7.887048
  O       2.304649     34.866705      8.375466
  O       2.149246     30.051444      8.467655
  O       3.419511     32.383080      8.396040
  O       3.596109     33.856129      6.204075
  O       3.519232     30.886151      6.250456
  Si      6.133525     26.184401      7.886465
  Si      8.759944     24.543967      7.862890
  O       4.714569     25.595189      8.429053
  O       7.421239     25.337095      8.405049
  O       8.627515     23.009812      8.405777
  O       6.200078     26.258317      6.242947
  O       8.696386     24.644237      6.220684
  Si      6.089105     29.253048      7.816293
  Si      6.152354     35.472935      7.724784
  Si      8.897770     33.848452      7.732591
  Si      8.872161     30.818023      7.849171
  O       4.820176     30.106863      8.450935
  O       4.892490     34.653341      8.354408
  O       7.546771     34.729994      8.059692
  O       7.421839     30.098237      8.145955
  O       6.180847     27.744978      8.416995
  O       8.728728     32.378085      8.393605
  O       5.757284     29.158365      6.211757
  O       5.908916     35.688415      6.119349
  O       9.097489     33.687833      6.116120
  O       9.171759     30.924648      6.250466
  Si      6.196312     38.556820      7.809330
  Si      8.913459     40.053971      7.837350
  O       4.920515     39.357068      8.425102
  O       7.556007     39.282874      8.374857
  O       6.212584     37.003700      8.339747
  O       8.996456     41.557910      8.437563
  O       6.262149     38.568689      6.176532
  O       8.903816     40.015581      6.197759
  Si     11.465740     25.998645      7.740496
  Si     14.179375     24.530934      7.847793
  O      10.115314     25.289858      8.366138
  O      12.841277     25.325618      8.319141
  O      14.022129     23.015067      8.431798
  O      11.377701     25.602457      6.135076
  O      14.219656     24.546037      6.200285
  Si     11.505103     29.213363      8.284625
  Si     11.575665     35.353842      7.698343
  Si     14.246036     33.822442      7.701467
  Si     14.229295     30.748107      7.757963
  O      10.021934     30.002287      8.600429
  O      10.181916     34.712083      8.269091
  O      12.935225     34.658913      8.251645
  O      12.996272     29.978458      8.417463
  O      11.444586     27.565494      7.991845
  O      14.340548     32.311964      8.274106
  O      11.351072     29.628519      6.587973
  O      11.570489     35.184844      6.068181
  O      14.087619     33.717759      6.070084
  O      14.012167     30.802534      6.131045
  Si     11.593629     38.528072      7.758977
  Si     14.263992     40.060939      7.867641
  O      10.210655     39.200053      8.347752
  O      12.932831     39.229800      8.354080
  O      11.570681     36.942204      8.114732
  O      14.180207     41.574303      8.463597
  O      11.636268     38.804771      6.143477
  O      14.317623     40.025176      6.224190
  Si     16.889015     26.053703      7.877502
  O      15.549087     25.259816      8.370150
  O      18.202584     25.288653      8.473484
  O      16.848173     26.043649      6.232330
  Si     16.972276     29.132150      7.785339
  Si     16.987900     35.423034      7.767403
  Si     19.625897     33.829606      7.874102
  Si     19.603133     30.725969      7.888586
  O      15.615278     29.955162      8.085158
  O      15.608613     34.627927      8.081567
  O      18.268677     34.611885      8.365498
  O      18.246969     29.964903      8.379040
  O      16.872558     27.613667      8.377434
  O      19.613535     32.282628      8.391189
  O      17.218692     28.930422      6.169663
  O      17.263052     35.521969      6.149015
  O      19.609516     33.780727      6.230180
  O      19.587335     30.734672      6.240569
  Si     16.939410     38.496652      7.857366
  O      15.624637     39.325190      8.379777
  O      18.327317     39.120874      8.430561
  O      16.876749     36.944611      8.352532
  O      16.895680     38.495701      6.212075
  O      20.880630     29.912375      8.484583
  O      20.974075     34.538446      8.456299
  H       4.074658     24.986772      8.036591
  H       1.410409     29.602015      8.036749
  H       1.410409     35.007985      8.036749
  H       4.074657     39.623228      8.036591
  H       8.948181     22.173255      8.038302
  H       8.948181     42.436745      8.038302
  H      14.277762     22.173204      8.038282
  H      14.277762     42.436796      8.038282
  H      18.960557     24.876228      8.036406
  H      18.960556     39.733772      8.036406
  H      21.624717     29.491420      8.036583
  H      21.624717     35.118580      8.036583
  H      13.333983     34.212500      5.717958
  H      10.774399     34.733622      5.740495
  H       9.130063     32.740647      5.860692
  H      10.043711     30.418425      6.139630
  H      12.187095     29.882576      6.179724
  H      14.083820     31.690373      5.755606
  H      13.492845     39.725544      5.816190
  H      10.795805     39.078301      5.753559
  H       8.106997     39.630525      5.808238
  H       6.111336     37.696181      5.778503
  H       5.242113     35.095856      5.741176
  H       3.567003     32.952217      5.854988
  H       4.192033     30.289925      5.878266
  H       5.945677     28.284223      5.834457
  H       6.960356     25.772234      5.884064
  H       9.550630     24.925427      5.847338
  H      12.224536     25.330936      5.758022
  H      15.005639     24.987158      5.848090
  H      17.012729     26.920104      5.851192
  H      17.898760     29.512034      5.804483
  H      19.633805     31.624478      5.865233
  H      18.917360     34.335464      5.840566
  H      17.100863     36.396818      5.772566
  H      16.137483     38.974628      5.849446
  P      11.692667     29.597428     11.327078
  O      11.598667     31.062342     11.286692
  O      11.602722     28.819716     10.020832
  O      13.002164     29.101544     12.047386
  O      10.564595     28.939471     12.260688
  C       9.274826     28.807076     11.696809
  C       8.211326     29.270360     12.662238
  O       8.416795     30.638455     13.055822
  C       6.844408     29.228703     12.008105
  O       5.848824     29.050183     12.977776
  C       6.748303     30.635016     11.419703
  O       5.433546     31.068735     11.214687
  C       7.423606     31.444331     12.520695
  N       8.036761     32.679121     12.046601
  C       9.348674     32.868959     11.660369
  N       9.575755     34.090271     11.242145
  C       8.374537     34.714468     11.344473
  C       7.977370     35.981212     10.930348
  N       8.776309     36.870061     10.355974
  N       6.663214     36.248617     11.156381
  C       5.791329     35.355189     11.718841
  N       6.107880     34.160756     12.085352
  C       7.397332     33.856134     11.856697
  H      13.331898     29.794565     12.588929
  H       9.204524     29.364397     10.755056
  H       9.096100     27.754673     11.460871
  H       8.234160     28.672224     13.575911
  H       6.788460     28.458668     11.230625
  H       5.058496     29.487547     12.634965
  H       7.337530     30.702601     10.504307
  H       5.169383     30.833375     10.316089
  H       6.673868     31.736884     13.266273
  H      10.101913     32.078403     11.699241
  H       9.692249     36.545995     10.081773
  H       8.418560     37.682156      9.881479
  H       4.776691     35.715944     11.835204
  H       6.276233     37.103133     10.786413
163
Coordinates from ORCA-job /data/Seafile/amp/protonated/frames/frame02/dry/amp_prot02 E -13464.789095369399
  Si      3.515710     33.916015      7.838136
  Si      3.450917     30.825499      7.880249
  O       2.307099     34.869409      8.370727
  O       2.147767     30.055874      8.465293
  O       3.419958     32.384622      8.389363
  O       3.593328     33.856198      6.196897
  O       3.513763     30.887067      6.243858
  Si      6.132462     26.185813      7.880672
  Si      8.757667     24.544001      7.860582
  O       4.712592     25.600401      8.424685
  O       7.419282     25.338521      8.401706
  O       8.622140     23.009906      8.402939
  O       6.199465     26.256261      6.237374
  O       8.694523     24.644350      6.218467
  Si      6.087032     29.253937      7.803039
  Si      6.151645     35.473933      7.712971
  Si      8.897332     33.848228      7.718324
  Si      8.872412     30.818638      7.833365
  O       4.819212     30.107524      8.440664
  O       4.893752     34.653004      8.344680
  O       7.547130     34.731432      8.044420
  O       7.420479     30.100094      8.128213
  O       6.181399     27.747335      8.407501
  O       8.726927     32.378301      8.380033
  O       5.749430     29.155459      6.199503
  O       5.904153     35.692136      6.108034
  O       9.099054     33.686614      6.102305
  O       9.179735     30.927024      6.235274
  Si      6.196706     38.557617      7.804313
  Si      8.914111     40.053487      7.833201
  O       4.922007     39.357335      8.423082
  O       7.557380     39.281075      8.370678
  O       6.212551     37.003527      8.331097
  O       8.997037     41.556364      8.435928
  O       6.261652     38.572847      6.171751
  O       8.903103     40.017232      6.193801
  Si     11.463831     25.996864      7.737861
  Si     14.178693     24.531199      7.847130
  O      10.113974     25.287795      8.364925
  O      12.840494     25.326470      8.318076
  O      14.022832     23.015430      8.432362
  O      11.375523     25.595318      6.133701
  O      14.218432     24.545096      6.199803
  Si     11.503825     29.209343      8.276208
  Si     11.575147     35.353023      7.686302
  Si     14.245399     33.821610      7.687873
  Si     14.229557     30.746788      7.741412
  O      10.019969     30.000815      8.588555
  O      10.181628     34.710469      8.256437
  O      12.933835     34.656597      8.239156
  O      12.998207     29.975503      8.402338
  O      11.439059     27.565091      7.980866
  O      14.340423     32.310715      8.258630
  O      11.346760     29.623257      6.579566
  O      11.571221     35.185265      6.056156
  O      14.088149     33.717089      6.056491
  O      14.010590     30.799757      6.114323
  Si     11.594278     38.527564      7.751351
  Si     14.263928     40.061147      7.863761
  O      10.211744     39.199297      8.341322
  O      12.933443     39.227763      8.348298
  O      11.570552     36.941006      8.104316
  O      14.177777     41.573426      8.461969
  O      11.638234     38.807634      6.136257
  O      14.319106     40.027586      6.220462
  Si     16.888820     26.053335      7.873667
  O      15.548401     25.261456      8.368328
  O      18.201811     25.288954      8.471826
  O      16.847862     26.040272      6.228708
  Si     16.974206     29.131607      7.774754
  Si     16.987483     35.423344      7.758582
  Si     19.625676     33.829955      7.869056
  Si     19.604416     30.726540      7.883104
  O      15.616615     29.955897      8.070910
  O      15.607048     34.628239      8.069980
  O      18.267135     34.611474      8.358393
  O      18.248073     29.964183      8.371085
  O      16.872390     27.614470      8.370324
  O      19.612760     32.283068      8.386257
  O      17.225299     28.926089      6.159938
  O      17.266333     35.524065      6.140668
  O      19.611703     33.780605      6.225250
  O      19.590596     30.735352      6.235188
  Si     16.939621     38.497194      7.853060
  O      15.624526     39.325278      8.375780
  O      18.326723     39.120932      8.428822
  O      16.876346     36.944380      8.345927
  O      16.897032     38.497828      6.207825
  O      20.881658     29.915146      8.482517
  O      20.972334     34.538897      8.454269
  H       4.074658     24.986772      8.036591
  H       1.410409     29.602015      8.036749
  H       1.410409     35.007985      8.036749
  H       4.074657     39.623228      8.036591
  H       8.948181     22.173255      8.038302
  H       8.948181     42.436745      8.038302
  H      14.277762     22.173204      8.038282
  H      14.277762     42.436796      8.038282
  H      18.960557     24.876228      8.036406
  H      18.960556     39.733772      8.036406
  H      21.624717     29.491420      8.036583
  H      21.624717     35.118580      8.036583
  H      13.333937     34.209719      5.703862
  H      10.776740     34.732676      5.727992
  H       9.132019     32.738566      5.848151
  H      10.056426     30.425108      6.128100
  H      12.183695     29.869688      6.167538
  H      14.077310     31.687120      5.738204
  H      13.494620     39.729394      5.811538
  H      10.798383     39.080596      5.746416
  H       8.106322     39.632184      5.804657
  H       6.109543     37.701355      5.772410
  H       5.238177     35.098735      5.730176
  H       3.564534     32.951733      5.848693
  H       4.185299     30.289927      5.870947
  H       5.937744     28.281076      5.823732
  H       6.959973     25.769809      5.879771
  H       9.549439     24.921945      5.845083
  H      12.222181     25.325754      5.756054
  H      15.003038     24.987564      5.847102
  H      17.012432     26.915957      5.846398
  H      17.904850     29.508376      5.795238
  H      19.636803     31.625389      5.860325
  H      18.920668     34.335889      5.834846
  H      17.104156     36.398938      5.764840
  H      16.139106     38.977033      5.845243
  P      11.694375     29.567478     11.316221
  O      11.638629     31.043360     11.302556
  O      11.593213     28.816938     10.008142
  O      12.998983     29.019991     12.019655
  O      10.561711     28.906103     12.232520
  C       9.277557     28.787830     11.664332
  C       8.218435     29.257373     12.633032
  O       8.432437     30.626231     13.029599
  C       6.848230     29.226655     11.983965
  O       5.853747     29.054757     12.958913
  C       6.759332     30.635741     11.398440
  O       5.445060     31.074537     11.198569
  C       7.441975     31.441326     12.500261
  N       8.058919     32.676928     12.031491
  C       9.371005     32.869709     11.647752
  N       9.597960     34.092700     11.234842
  C       8.395089     34.715163     11.334917
  C       7.994168     35.982096     10.921388
  N       8.789287     36.874627     10.350805
  N       6.678922     36.244580     11.145256
  C       5.809337     35.348612     11.703453
  N       6.128411     34.154923     12.068347
  C       7.419222     33.854150     11.842958
  H      13.390288     29.721682     12.563170
  H       9.215077     29.347657     10.728939
  H       9.093190     27.736466     11.424941
  H       8.239360     28.656561     13.543690
  H       6.783877     28.455977     11.204939
  H       5.063740     29.498442     12.621791
  H       7.346597     30.701355     10.480720
  H       5.176466     30.838526     10.301182
  H       6.695871     31.734360     13.249271
  H      10.123554     32.079873     11.681594
  H       9.706245     36.554871     10.078157
  H       8.427154     37.684964      9.875440
  H       4.793454     35.706317     11.817764
  H       6.289971     37.097579     10.777090
163
Coordinates from ORCA-job /data/Seafile/amp/protonated/frames/frame02/dry/amp_prot02 E -13464.789166185870
  Si      3.515693     33.916145      7.839005
  Si      3.449959     30.826391      7.884202
  O       2.307662     34.871625      8.369590
  O       2.144649     30.058870      8.468269
  O       3.419376     32.385675      8.392953
  O       3.593216     33.854326      6.198075
  O       3.513154     30.887652      6.247939
  Si      6.132355     26.186401      7.881359
  Si      8.756931     24.544034      7.860978
  O       4.711096     25.602421      8.423631
  O       7.418835     25.338623      8.403171
  O       8.619623     23.009424      8.401629
  O       6.199659     26.257241      6.238277
  O       8.692620     24.645083      6.219128
  Si      6.084952     29.253938      7.804574
  Si      6.150925     35.474233      7.712242
  Si      8.896304     33.847378      7.715009
  Si      8.870665     30.818729      7.826579
  O       4.817764     30.106872      8.445230
  O       4.894148     34.652627      8.345402
  O       7.547288     34.732016      8.041839
  O       7.419282     30.100704      8.124476
  O       6.182020     27.747551      8.409306
  O       8.726526     32.377381      8.377071
  O       5.744096     29.154690      6.201840
  O       5.901984     35.692119      6.107487
  O       9.097436     33.684745      6.099290
  O       9.178533     30.926923      6.228855
  Si      6.196356     38.558040      7.803326
  Si      8.913791     40.053557      7.831180
  O       4.922523     39.358628      8.422572
  O       7.557291     39.281073      8.369005
  O       6.212155     37.003778      8.330228
  O       8.997299     41.555838      8.435289
  O       6.260848     38.573001      6.170742
  O       8.901603     40.018477      6.191947
  Si     11.463629     25.995688      7.736378
  Si     14.178955     24.531393      7.846597
  O      10.114478     25.286222      8.365540
  O      12.840922     25.327694      8.318134
  O      14.023891     23.015560      8.432337
  O      11.374924     25.591096      6.133020
  O      14.218877     24.543277      6.199542
  Si     11.502579     29.208206      8.266199
  Si     11.574086     35.352071      7.682000
  Si     14.244644     33.821263      7.680136
  Si     14.230687     30.746203      7.729509
  O      10.018712     30.000195      8.578780
  O      10.181767     34.707860      8.253596
  O      12.932631     34.654119      8.233407
  O      12.999523     29.973687      8.389788
  O      11.434516     27.565755      7.972159
  O      14.340150     32.309656      8.248893
  O      11.344933     29.624009      6.568532
  O      11.568674     35.184922      6.051725
  O      14.087087     33.718842      6.048577
  O      14.013070     30.799601      6.101936
  Si     11.593999     38.526984      7.748591
  Si     14.263279     40.060954      7.862366
  O      10.212105     39.199594      8.338442
  O      12.933418     39.226164      8.346510
  O      11.570326     36.939880      8.100555
  O      14.175828     41.573101      8.461230
  O      11.638605     38.807642      6.133535
  O      14.319056     40.028033      6.219228
  Si     16.888901     26.053469      7.871260
  O      15.548053     25.263007      8.367548
  O      18.201271     25.289135      8.470831
  O      16.848737     26.038694      6.226563
  Si     16.975687     29.131424      7.768081
  Si     16.986767     35.423400      7.753968
  Si     19.625116     33.830154      7.866209
  Si     19.605241     30.727055      7.879722
  O      15.617894     29.956578      8.063038
  O      15.605733     34.628320      8.064479
  O      18.265859     34.610971      8.354716
  O      18.249057     29.963452      8.366508
  O      16.872293     27.615173      8.366118
  O      19.612103     32.283270      8.383798
  O      17.229383     28.924334      6.153651
  O      17.267064     35.525175      6.136266
  O      19.612195     33.780697      6.222546
  O      19.593286     30.736006      6.231964
  Si     16.939292     38.497394      7.851140
  O      15.624071     39.325139      8.374432
  O      18.326096     39.120931      8.428163
  O      16.876058     36.944044      8.342886
  O      16.897583     38.499211      6.205983
  O      20.882572     29.917450      8.481299
  O      20.970991     34.539306      8.452983
  H       4.074658     24.986772      8.036591
  H       1.410409     29.602015      8.036749
  H       1.410409     35.007985      8.036749
  H       4.074657     39.623228      8.036591
  H       8.948181     22.173255      8.038302
  H       8.948181     42.436745      8.038302
  H      14.277762     22.173204      8.038282
  H      14.277762     42.436796      8.038282
  H      18.960557     24.876228      8.036406
  H      18.960556     39.733772      8.036406
  H      21.624717     29.491420      8.036583
  H      21.624717     35.118580      8.036583
  H      13.331995     34.211000      5.697107
  H      10.774491     34.731561      5.724251
  H       9.130392     32.736068      5.845696
  H      10.055456     30.423925      6.122977
  H      12.181730     29.867030      6.156000
  H      14.077080     31.687539      5.726582
  H      13.494541     39.731012      5.809486
  H      10.798803     39.079701      5.743468
  H       8.104818     39.633088      5.803169
  H       6.107957     37.701857      5.771004
  H       5.237056     35.098267      5.729258
  H       3.565437     32.949880      5.850222
  H       4.183492     30.290252      5.874019
  H       5.932172     28.281167      5.825157
  H       6.960363     25.772362      5.879777
  H       9.546891     24.920265      5.843816
  H      12.221027     25.323249      5.753404
  H      15.002424     24.986459      5.845557
  H      17.013833     26.913624      5.842827
  H      17.908478     29.507212      5.788968
  H      19.639232     31.626073      5.856827
  H      18.922000     34.336486      5.831324
  H      17.104677     36.400004      5.760524
  H      16.139784     38.978275      5.842995
  P      11.710529     29.566751     11.323515
  O      11.642015     31.040419     11.306377
  O      11.605261     28.808026      9.991781
  O      13.043823     29.024394     12.026978
  O      10.575363     28.913688     12.255201
  C       9.282821     28.791235     11.692312
  C       8.222736     29.272590     12.658953
  O       8.437681     30.647026     13.043910
  C       6.853856     29.240440     12.006315
  O       5.855147     29.074924     12.981034
  C       6.767040     30.648613     11.410665
  O       5.452673     31.084725     11.205882
  C       7.449060     31.460920     12.509902
  N       8.071994     32.693290     12.037606
  C       9.386844     32.878315     11.659847
  N       9.621270     34.097277     11.239267
  C       8.420935     34.725401     11.327030
  C       8.027927     35.991689     10.898223
  N       8.830842     36.875363     10.322395
  N       6.712479     36.262873     11.111801
  C       5.836915     35.375302     11.675400
  N       6.148569     34.182265     12.053591
  C       7.438970     33.872528     11.837587
  H      13.427196     29.723501     12.577258
  H       9.219614     29.341825     10.749112
  H       9.093235     27.735180     11.462431
  H       8.238071     28.678386     13.574119
  H       6.790854     28.464165     11.231453
  H       5.067294     29.517550     12.639433
  H       7.354408     30.712513     10.491345
  H       5.184876     30.844541     10.308014
  H       6.702984     31.759315     13.255673
  H      10.134516     32.084572     11.698621
  H       9.748794     36.548568     10.057871
  H       8.474569     37.686013      9.833517
  H       4.822374     35.739210     11.781888
  H       6.328136     37.117893     10.731366
163
Coordinates from ORCA-job /data/Seafile/amp/protonated/frames/frame02/dry/amp_prot02 E -13464.789747385974
  Si      3.516444     33.917132      7.838388
  Si      3.448587     30.827843      7.884787
  O       2.309454     34.875268      8.367071
  O       2.141271     30.063657      8.468981
  O       3.419134     32.387193      8.393469
  O       3.594267     33.853716      6.197543
  O       3.511982     30.888798      6.248465
  Si      6.131754     26.188017      7.879649
  Si      8.754907     24.543916      7.858338
  O       4.708715     25.606978      8.420731
  O       7.417408     25.339093      8.401517
  O       8.614317     23.009090      8.397887
  O       6.200159     26.259197      6.236570
  O       8.690265     24.646703      6.216514
  Si      6.083545     29.255225      7.804324
  Si      6.151332     35.475377      7.712074
  Si      8.896198     33.847307      7.716417
  Si      8.869791     30.819732      7.829598
  O       4.815496     30.106491      8.445510
  O       4.895282     34.652811      8.345093
  O       7.548372     34.734705      8.041312
  O       7.416723     30.103328      8.124614
  O       6.182427     27.748843      8.408477
  O       8.724988     32.378336      8.380964
  O       5.742170     29.156383      6.201714
  O       5.902309     35.694234      6.107576
  O       9.097793     33.682420      6.100938
  O       9.178765     30.928959      6.232256
  Si      6.196830     38.559176      7.803780
  Si      8.914192     40.053798      7.831578
  O       4.923208     39.360602      8.422372
  O       7.558432     39.280341      8.370151
  O       6.211498     37.004854      8.330529
  O       8.997402     41.556143      8.435337
  O       6.262103     38.574711      6.171185
  O       8.900880     40.018501      6.192401
  Si     11.462248     25.993851      7.732058
  Si     14.178569     24.531908      7.845857
  O      10.113888     25.283445      8.362480
  O      12.839955     25.328288      8.315490
  O      14.023861     23.016070      8.431697
  O      11.374425     25.584815      6.129662
  O      14.220492     24.543016      6.198774
  Si     11.501646     29.208144      8.267416
  Si     11.573866     35.351721      7.683142
  Si     14.244485     33.821052      7.683685
  Si     14.231486     30.745486      7.734215
  O      10.017611     30.000031      8.581308
  O      10.181735     34.707627      8.254789
  O      12.931592     34.653492      8.235432
  O      12.999538     29.971275      8.391317
  O      11.429890     27.564260      7.962708
  O      14.339675     32.309580      8.252606
  O      11.342398     29.631788      6.570009
  O      11.568024     35.184727      6.052792
  O      14.088294     33.719601      6.051904
  O      14.019230     30.798471      6.106059
  Si     11.594428     38.526709      7.749008
  Si     14.263118     40.060869      7.862695
  O      10.212722     39.200054      8.338485
  O      12.933997     39.225099      8.346986
  O      11.569942     36.939749      8.101181
  O      14.173240     41.573243      8.460649
  O      11.639603     38.807137      6.133917
  O      14.319081     40.027318      6.219530
  Si     16.888409     26.053757      7.872965
  O      15.546865     25.263973      8.368133
  O      18.200472     25.287600      8.471283
  O      16.848373     26.040568      6.228151
  Si     16.976191     29.131738      7.773331
  Si     16.985828     35.423727      7.757431
  Si     19.624132     33.830691      7.869041
  Si     19.605480     30.728000      7.883245
  O      15.619576     29.958104      8.069577
  O      15.604471     34.629793      8.068554
  O      18.264966     34.611324      8.357873
  O      18.250826     29.962436      8.371057
  O      16.872321     27.614885      8.369650
  O      19.611543     32.284171      8.387415
  O      17.228683     28.925343      6.158766
  O      17.265783     35.524685      6.139666
  O      19.610222     33.780206      6.225318
  O      19.592308     30.737481      6.235449
  Si     16.939164     38.497730      7.852631
  O      15.624261     39.326365      8.375308
  O      18.325904     39.121772      8.429096
  O      16.875891     36.944839      8.345323
  O      16.897337     38.498910      6.207425
  O      20.885125     29.920666      8.483131
  O      20.970443     34.540630      8.454049
  H       4.074658     24.986772      8.036591
  H       1.410409     29.602015      8.036749
  H       1.410409     35.007985      8.036749
  H       4.074657     39.623228      8.036591
  H       8.948181     22.173255      8.038302
  H       8.948181     42.436745      8.038302
  H      14.277762     22.173204      8.038282
  H      14.277762     42.436796      8.038282
  H      18.960557     24.876228      8.036406
  H      18.960556     39.733772      8.036406
  H      21.624717     29.491420      8.036583
  H      21.624717     35.118580      8.036583
  H      13.332724     34.211091      5.700240
  H      10.774376     34.729477      5.725909
  H       9.132386     32.732948      5.849253
  H      10.056991     30.426281      6.127864
  H      12.180770     29.868984      6.156273
  H      14.080970     31.686501      5.730782
  H      13.494212     39.731173      5.809715
  H      10.799219     39.076977      5.742728
  H       8.104077     39.632506      5.804144
  H       6.108168     37.703998      5.770777
  H       5.239340     35.098599      5.728072
  H       3.567218     32.948758      5.850571
  H       4.181618     30.290095      5.874674
  H       5.932604     28.283217      5.824324
  H       6.961840     25.774810      5.878732
  H       9.546410     24.918400      5.841409
  H      12.221809     25.319573      5.750147
  H      15.003697     24.987741      5.845631
  H      17.014178     26.915855      5.845235
  H      17.905802     29.510087      5.793209
  H      19.637496     31.627732      5.860661
  H      18.920568     34.336743      5.834085
  H      17.102215     36.399104      5.763253
  H      16.139579     38.978019      5.844307
  P      11.709462     29.561550     11.316331
  O      11.644958     31.034152     11.298767
  O      11.599702     28.806298      9.993282
  O      13.026998     29.022247     12.016889
  O      10.578126     28.904079     12.244392
  C       9.287802     28.777483     11.680809
  C       8.228736     29.257474     12.647350
  O       8.446531     30.629672     13.033745
  C       6.859169     29.226575     11.995735
  O       5.862711     29.056229     12.970162
  C       6.769900     30.636054     11.406705
  O       5.455102     31.073232     11.206583
  C       7.453897     31.443097     12.507320
  N       8.071363     32.678063     12.036136
  C       9.385182     32.868955     11.656380
  N       9.613278     34.089720     11.236806
  C       8.410128     34.712612     11.328472
  C       8.010329     35.977168     10.902844
  N       8.807429     36.865662     10.326452
  N       6.694372     36.241830     11.120237
  C       5.823454     35.349303     11.683591
  N       6.141213     34.157421     12.058444
  C       7.432585     33.854408     11.839126
  H      13.417885     29.726937     12.541921
  H       9.222424     29.327617     10.736421
  H       9.100796     27.721493     11.452919
  H       8.244653     28.662467     13.562446
  H       6.796015     28.454370     11.218101
  H       5.073911     29.499344     12.630662
  H       7.355975     30.704667     10.487682
  H       5.185696     30.837298     10.308937
  H       6.709714     31.736445     13.257678
  H      10.136182     32.077700     11.692698
  H       9.725278     36.543303     10.057356
  H       8.446252     37.673351      9.840205
  H       4.807309     35.708011     11.792529
  H       6.306048     37.094385     10.742131
163
Coordinates from ORCA-job /data/Seafile/amp/protonated/frames/frame02/dry/amp_prot02 E -13464.789937623367
  Si      3.516643     33.917986      7.835903
  Si      3.446370     30.829379      7.883546
  O       2.311317     34.879266      8.363182
  O       2.136676     30.070067      8.469397
  O       3.418793     32.388656      8.392578
  O       3.594034     33.852919      6.195341
  O       3.508692     30.889654      6.247240
  Si      6.131032     26.189562      7.876309
  Si      8.752873     24.543918      7.855727
  O       4.705535     25.612979      8.416160
  O       7.415787     25.339632      8.399587
  O       8.608310     23.008534      8.393276
  O       6.200420     26.259538      6.233408
  O       8.688063     24.648870      6.214098
  Si      6.081483     29.256261      7.799899
  Si      6.151011     35.476359      7.710036
  Si      8.895462     33.847275      7.713354
  Si      8.868403     30.820900      7.823654
  O       4.812845     30.105570      8.442921
  O       4.896322     34.651962      8.343087
  O       7.549386     34.737321      8.037700
  O       7.414177     30.106263      8.117559
  O       6.183709     27.750420      8.404900
  O       8.724006     32.378427      8.378890
  O       5.737980     29.156636      6.197908
  O       5.901441     35.696549      6.105974
  O       9.097155     33.681755      6.098263
  O       9.177617     30.932462      6.226807
  Si      6.197166     38.560246      7.804254
  Si      8.914417     40.053838      7.831789
  O       4.924168     39.363224      8.422136
  O       7.559806     39.278822      8.371399
  O       6.210102     37.005341      8.329781
  O       8.997497     41.556250      8.435571
  O       6.263185     38.576837      6.171640
  O       8.899405     40.018978      6.192758
  Si     11.460914     25.992019      7.727855
  Si     14.178223     24.532559      7.844832
  O      10.113721     25.280402      8.360334
  O      12.839495     25.330258      8.313602
  O      14.024175     23.016716      8.430935
  O      11.373947     25.577642      6.127001
  O      14.221456     24.542346      6.197934
  Si     11.500838     29.206726      8.256957
  Si     11.572997     35.351170      7.681080
  Si     14.243509     33.820670      7.681559
  Si     14.232986     30.744442      7.729198
  O      10.017327     29.999194      8.572715
  O      10.181686     34.705801      8.252832
  O      12.929687     34.651215      8.233541
  O      12.999745     29.967395      8.381774
  O      11.423856     27.564255      7.949078
  O      14.338311     32.308408      8.248853
  O      11.342767     29.633699      6.559664
  O      11.566771     35.185326      6.050587
  O      14.088755     33.721537      6.049502
  O      14.027425     30.797699      6.100315
  Si     11.594787     38.526229      7.747919
  Si     14.262795     40.060725      7.861779
  O      10.213981     39.200806      8.337423
  O      12.934989     39.223004      8.346259
  O      11.569558     36.939017      8.099470
  O      14.169527     41.573099      8.459459
  O      11.640818     38.806788      6.132864
  O      14.319440     40.026904      6.218725
  Si     16.888113     26.053757      7.872561
  O      15.545570     25.265714      8.368071
  O      18.199416     25.286040      8.470812
  O      16.848303     26.040668      6.227844
  Si     16.977455     29.131725      7.773203
  Si     16.984229     35.423859      7.757154
  Si     19.622894     33.831405      7.869238
  Si     19.606283     30.729154      7.883603
  O      15.621671     29.959874      8.069838
  O      15.602216     34.630919      8.068625
  O      18.263125     34.611132      8.357838
  O      18.252997     29.960827      8.371547
  O      16.872296     27.614886      8.369605
  O      19.610438     32.285105      8.388528
  O      17.230043     28.924894      6.158900
  O      17.264423     35.524357      6.139513
  O      19.608933     33.779801      6.225586
  O      19.592738     30.739030      6.235933
  Si     16.939038     38.498128      7.852238
  O      15.624536     39.327531      8.374891
  O      18.325578     39.122273      8.429170
  O      16.875462     36.945172      8.345055
  O      16.897490     38.499292      6.207094
  O      20.888288     29.925481      8.483628
  O      20.968823     34.542444      8.453983
  H       4.074658     24.986772      8.036591
  H       1.410409     29.602015      8.036749
  H       1.410409     35.007985      8.036749
  H       4.074657     39.623228      8.036591
  H       8.948181     22.173255      8.038302
  H       8.948181     42.436745      8.038302
  H      14.277762     22.173204      8.038282
  H      14.277762     42.436796      8.038282
  H      18.960557     24.876228      8.036406
  H      18.960556     39.733772      8.036406
  H      21.624717     29.491420      8.036583
  H      21.624717     35.118580      8.036583
  H      13.332655     34.212441      5.698185
  H      10.774089     34.728343      5.723956
  H       9.133103     32.731961      5.847385
  H      10.056107     30.429482      6.121674
  H      12.182033     29.864275      6.144886
  H      14.086650     31.686386      5.725929
  H      13.494478     39.731890      5.808332
  H      10.800539     39.074974      5.740719
  H       8.102651     39.632174      5.805224
  H       6.108123     37.707025      5.769999
  H       5.240406     35.100049      5.724928
  H       3.567619     32.947665      5.849070
  H       4.177289     30.290266      5.872667
  H       5.929845     28.284183      5.819755
  H       6.963033     25.776313      5.875987
  H       9.544716     24.917297      5.838260
  H      12.221170     25.313779      5.746834
  H      15.003868     24.988377      5.844720
  H      17.014768     26.915648      5.844638
  H      17.905347     29.511004      5.792492
  H      19.637333     31.629326      5.861270
  H      18.919974     34.336663      5.833754
  H      17.100220     36.398309      5.762511
  H      16.139883     38.978331      5.843708
  P      11.713653     29.553400     11.303845
  O      11.652815     31.026154     11.289344
  O      11.598159     28.803531      9.982079
  O      13.031766     29.008994     11.997939
  O      10.584768     28.893496     12.232744
  C       9.294557     28.766967     11.670193
  C       8.236245     29.246836     12.635751
  O       8.456537     30.618075     13.021704
  C       6.867697     29.217393     11.983280
  O       5.871563     29.042305     12.955909
  C       6.776994     30.628269     11.399278
  O       5.461918     31.064960     11.201773
  C       7.461516     31.431851     12.501419
  N       8.076284     32.668990     12.032429
  C       9.390098     32.864295     11.654796
  N       9.615010     34.086067     11.236764
  C       8.409764     34.705193     11.327355
  C       8.006196     35.968669     10.903916
  N       8.800299     36.861383     10.330954
  N       6.689118     36.228402     11.120108
  C       5.820244     35.332460     11.680171
  N       6.141427     34.141486     12.053104
  C       7.434089     33.843278     11.835072
  H      13.437289     29.716703     12.506735
  H       9.228647     29.317191     10.726434
  H       9.108673     27.712075     11.442784
  H       8.250747     28.651577     13.550689
  H       6.805781     28.448435     11.203297
  H       5.082965     29.485827     12.617057
  H       7.362524     30.701131     10.480672
  H       5.191489     30.831261     10.304129
  H       6.718818     31.721144     13.254600
  H      10.142969     32.074748     11.691720
  H       9.719465     36.543328     10.062454
  H       8.436169     37.667432      9.847635
  H       4.802862     35.687597     11.788561
  H       6.298995     37.079569     10.744545
163
Coordinates from ORCA-job /data/Seafile/amp/protonated/frames/frame02/dry/amp_prot02 E -13464.790234483782
  Si      3.516891     33.918938      7.833557
  Si      3.443899     30.831415      7.884021
  O       2.314078     34.885450      8.357578
  O       2.129258     30.080171      8.470570
  O       3.418193     32.390769      8.392990
  O       3.594029     33.850960      6.193340
  O       3.506396     30.890254      6.247571
  Si      6.130357     26.191537      7.873456
  Si      8.750309     24.544126      7.851804
  O       4.700719     25.621268      8.409661
  O       7.413761     25.339792      8.397718
  O       8.600099     23.007793      8.385756
  O       6.201721     26.261484      6.230646
  O       8.684444     24.653343      6.210370
  Si      6.079248     29.257174      7.798227
  Si      6.150552     35.477174      7.707892
  Si      8.894503     33.846117      7.711460
  Si      8.867320     30.821193      7.819642
  O       4.809638     30.104747      8.442617
  O       4.897594     34.650847      8.341314
  O       7.550515     34.740282      8.033524
  O       7.411367     30.109512      8.111691
  O       6.185433     27.751907      8.403571
  O       8.722626     32.377853      8.379797
  O       5.732828     29.156688      6.197080
  O       5.899767     35.699447      6.104559
  O       9.096695     33.679483      6.096935
  O       9.176293     30.936789      6.223058
  Si      6.197355     38.561417      7.804654
  Si      8.914109     40.053950      7.832004
  O       4.925439     39.366837      8.421416
  O       7.560972     39.276857      8.372699
  O       6.208254     37.005810      8.329136
  O       8.997002     41.556406      8.435771
  O       6.264413     38.578691      6.171916
  O       8.896911     40.019099      6.193174
  Si     11.459311     25.988410      7.719375
  Si     14.177965     24.533142      7.842671
  O      10.114062     25.275813      8.356035
  O      12.839107     25.332985      8.308963
  O      14.024221     23.017588      8.429162
  O      11.373470     25.564387      6.121344
  O      14.223736     24.540849      6.195954
  Si     11.499863     29.204101      8.242987
  Si     11.571423     35.350165      7.680656
  Si     14.242060     33.820251      7.682225
  Si     14.234979     30.743284      7.725723
  O      10.017789     29.995736      8.563925
  O      10.181134     34.703178      8.252550
  O      12.926760     34.648590      8.233605
  O      12.999712     29.961529      8.370211
  O      11.416019     27.563027      7.924560
  O      14.336002     32.307120      8.247030
  O      11.342241     29.641944      6.547509
  O      11.564803     35.185893      6.049894
  O      14.089889     33.723707      6.049686
  O      14.039226     30.797095      6.095484
  Si     11.594678     38.525433      7.747855
  Si     14.261862     40.060239      7.861629
  O      10.214586     39.201565      8.336428
  O      12.935601     39.220258      8.346564
  O      11.568146     36.938032      8.098765
  O      14.163323     41.572881      8.457760
  O      11.641972     38.806180      6.132834
  O      14.319616     40.025179      6.218648
  Si     16.887616     26.053760      7.872532
  O      15.543756     25.267876      8.367740
  O      18.197629     25.283230      8.470155
  O      16.848164     26.041787      6.227773
  Si     16.978696     29.131884      7.775488
  Si     16.981824     35.423851      7.759269
  Si     19.621023     33.832187      7.870936
  Si     19.607094     30.730724      7.885472
  O      15.624536     29.962475      8.074280
  O      15.599021     34.632661      8.071952
  O      18.260706     34.610938      8.359551
  O      18.256062     29.958524      8.373789
  O      16.872383     27.614681      8.370732
  O      19.608965     32.286323      8.391476
  O      17.230179     28.925050      6.161380
  O      17.261797     35.523296      6.141691
  O      19.606069     33.778692      6.227262
  O      19.591380     30.741346      6.237902
  Si     16.938445     38.498518      7.853045
  O      15.624492     39.329284      8.375379
  O      18.324858     39.123192      8.429838
  O      16.874659     36.945801      8.346296
  O      16.896581     38.498890      6.207919
  O      20.893344     29.932988      8.484710
  O      20.966557     34.545089      8.454174
  H       4.074658     24.986772      8.036591
  H       1.410409     29.602015      8.036749
  H       1.410409     35.007985      8.036749
  H       4.074657     39.623228      8.036591
  H       8.948181     22.173255      8.038302
  H       8.948181     42.436745      8.038302
  H      14.277762     22.173204      8.038282
  H      14.277762     42.436796      8.038282
  H      18.960557     24.876228      8.036406
  H      18.960556     39.733772      8.036406
  H      21.624717     29.491420      8.036583
  H      21.624717     35.118580      8.036583
  H      13.333334     34.214003      5.698385
  H      10.773005     34.727010      5.723579
  H       9.133611     32.728978      5.847460
  H      10.054406     30.433764      6.114468
  H      12.181017     29.866685      6.131574
  H      14.096044     31.686934      5.722861
  H      13.494692     39.730598      5.807696
  H      10.801797     39.071883      5.739051
  H       8.099501     39.631632      5.807112
  H       6.108506     37.709597      5.769067
  H       5.241194     35.102067      5.721244
  H       3.567338     32.945045      5.848759
  H       4.174435     30.290141      5.872957
  H       5.926666     28.285215      5.817845
  H       6.965648     25.779310      5.874257
  H       9.541935     24.917293      5.833610
  H      12.220527     25.301532      5.740666
  H      15.005869     24.988257      5.843514
  H      17.015227     26.916959      5.845138
  H      17.902856     29.513088      5.793587
  H      19.635471     31.632002      5.863970
  H      18.917320     34.335585      5.835195
  H      17.096809     36.396692      5.763872
  H      16.139009     38.977965      5.844516
  P      11.720389     29.541516     11.285325
  O      11.665607     31.013964     11.269657
  O      11.593648     28.790603      9.967093
  O      13.040241     28.997012     11.973883
  O      10.596817     28.881658     12.217236
  C       9.304576     28.752967     11.658423
  C       8.248830     29.236972     12.624981
  O       8.475522     30.607228     13.008782
  C       6.879221     29.211570     11.973900
  O       5.882647     29.037199     12.947250
  C       6.791289     30.624044     11.393391
  O       5.476641     31.062797     11.197630
  C       7.479294     31.423519     12.496686
  N       8.096209     32.661290     12.032135
  C       9.412047     32.856752     11.661543
  N       9.639502     34.078073     11.244344
  C       8.433660     34.697107     11.327247
  C       8.031507     35.959305     10.896852
  N       8.828051     36.851280     10.324066
  N       6.712291     36.218008     11.102802
  C       5.840672     35.322794     11.660945
  N       6.160834     34.133069     12.040670
  C       7.455175     33.835354     11.830396
  H      13.467012     29.713466     12.452646
  H       9.235507     29.298994     10.713359
  H       9.118140     27.697902     11.434892
  H       8.261562     28.642813     13.540592
  H       6.814839     28.443839     11.192251
  H       5.095155     29.484564     12.610146
  H       7.377000     30.698931     10.475354
  H       5.204789     30.828792     10.300395
  H       6.739356     31.710487     13.253426
  H      10.163781     32.066779     11.702283
  H       9.748922     36.531964     10.059524
  H       8.465105     37.655012      9.832146
  H       4.821818     35.676949     11.760407
  H       6.322929     37.067704     10.717797
163
Coordinates from ORCA-job /data/Seafile/amp/protonated/frames/frame02/dry/amp_prot02 E -13464.790566609528
  Si      3.517310     33.920122      7.830129
  Si      3.439814     30.834193      7.882427
  O       2.317689     34.893409      8.349555
  O       2.118139     30.095549      8.470927
  O       3.417874     32.393252      8.392572
  O       3.594286     33.849015      6.190508
  O       3.501757     30.891025      6.245854
  Si      6.129520     26.193858      7.867248
  Si      8.747355     24.544837      7.846518
  O       4.694041     25.633492      8.398690
  O       7.411015     25.340243      8.394209
  O       8.588235     23.007015      8.374416
  O       6.203242     26.262164      6.224722
  O       8.681557     24.660265      6.205478
  Si      6.075841     29.258020      7.792054
  Si      6.149833     35.478392      7.706593
  Si      8.892897     33.845143      7.710882
  Si      8.865505     30.822288      7.813422
  O       4.804275     30.102126      8.438687
  O       4.899206     34.649021      8.339879
  O       7.551932     34.744725      8.030197
  O       7.406962     30.113698      8.100665
  O       6.188236     27.753876      8.398621
  O       8.720780     32.377165      8.382115
  O       5.726600     29.156533      6.191920
  O       5.898715     35.702257      6.104089
  O       9.095026     33.678411      6.097161
  O       9.176749     30.944491      6.217517
  Si      6.198008     38.563339      7.805747
  Si      8.914349     40.054138      7.832212
  O       4.927873     39.373008      8.420392
  O       7.563240     39.274253      8.374881
  O       6.205579     37.006812      8.329214
  O       8.997123     41.556585      8.436195
  O       6.266159     38.580970      6.172805
  O       8.894164     40.020008      6.193701
  Si     11.457408     25.984492      7.711083
  Si     14.177449     24.534381      7.840907
  O      10.114752     25.269433      8.352388
  O      12.838967     25.337688      8.305583
  O      14.024787     23.018803      8.427238
  O      11.373557     25.549399      6.116845
  O      14.225450     24.539075      6.194497
  Si     11.498368     29.200242      8.225036
  Si     11.569255     35.348481      7.681760
  Si     14.239937     33.819819      7.681802
  Si     14.238474     30.741875      7.717428
  O      10.017861     29.991766      8.551845
  O      10.180923     34.698615      8.254891
  O      12.922810     34.643899      8.234359
  O      13.001065     29.953394      8.351746
  O      11.404643     27.562425      7.893468
  O      14.333121     32.305101      8.242169
  O      11.340228     29.649956      6.531875
  O      11.561411     35.186571      6.050593
  O      14.090249     33.728010      6.048545
  O      14.055692     30.797169      6.085294
  Si     11.595146     38.523997      7.747879
  Si     14.260909     40.059743      7.860576
  O      10.216437     39.203000      8.334889
  O      12.937262     39.216203      8.346697
  O      11.567201     36.936481      8.098993
  O      14.154442     41.572715      8.454681
  O      11.644179     38.803640      6.132705
  O      14.320026     40.023032      6.217722
  Si     16.886906     26.053763      7.871669
  O      15.541182     25.271574      8.367794
  O      18.194974     25.279475      8.468821
  O      16.847953     26.042026      6.226955
  Si     16.980805     29.132127      7.775477
  Si     16.978332     35.423855      7.760126
  Si     19.618429     33.833431      7.871396
  Si     19.608616     30.733083      7.885553
  O      15.629217     29.966335      8.078134
  O      15.594694     34.634942      8.075399
  O      18.257146     34.610497      8.359824
  O      18.260800     29.955046      8.373953
  O      16.872712     27.614762      8.370180
  O      19.606579     32.288042      8.393519
  O      17.230597     28.925109      6.161606
  O      17.257388     35.521775      6.142543
  O      19.602870     33.777858      6.227702
  O      19.590653     30.744450      6.238166
  Si     16.937964     38.499172      7.852787
  O      15.624897     39.331853      8.375016
  O      18.324085     39.124298      8.430043
  O      16.873824     36.946603      8.346294
  O      16.896108     38.499013      6.207714
  O      20.900910     29.944784      8.484834
  O      20.962793     34.549167      8.453545
  H       4.074658     24.986772      8.036591
  H       1.410409     29.602015      8.036749
  H       1.410409     35.007985      8.036749
  H       4.074657     39.623228      8.036591
  H       8.948181     22.173255      8.038302
  H       8.948181     42.436745      8.038302
  H      14.277762     22.173204      8.038282
  H      14.277762     42.436796      8.038282
  H      18.960557     24.876228      8.036406
  H      18.960556     39.733772      8.036406
  H      21.624717     29.491420      8.036583
  H      21.624717     35.118580      8.036583
  H      13.332519     34.217229      5.698240
  H      10.771065     34.724959      5.724822
  H       9.133120     32.727413      5.848354
  H      10.058462     30.447802      6.105117
  H      12.180240     29.861093      6.111391
  H      14.107153     31.688779      5.716249
  H      13.494866     39.730213      5.805952
  H      10.804247     39.065350      5.736234
  H       8.096522     39.631054      5.809480
  H       6.108556     37.713053      5.768326
  H       5.244316     35.103171      5.716908
  H       3.569081     32.942472      5.847590
  H       4.168794     30.290105      5.870647
  H       5.923007     28.286664      5.810680
  H       6.969416     25.782381      5.869636
  H       9.540714     24.916028      5.827151
  H      12.220598     25.290111      5.733960
  H      15.005936     24.989333      5.842114
  H      17.015277     26.917068      5.844196
  H      17.899377     29.516034      5.791515
  H      19.634544     31.635541      5.864967
  H      18.914793     34.335141      5.834988
  H      17.091215     36.394362      5.763466
  H      16.138677     38.978245      5.844145
  P      11.728948     29.532705     11.264601
  O      11.665766     31.006300     11.243507
  O      11.597235     28.777505      9.944735
  O      13.053561     28.996324     11.953414
  O      10.614063     28.868742     12.205556
  C       9.321775     28.728145     11.649962
  C       8.267279     29.218721     12.613884
  O       8.499647     30.589835     12.989481
  C       6.898351     29.193560     11.960963
  O       5.900788     29.014247     12.932988
  C       6.808276     30.607915     11.384460
  O       5.493157     31.044506     11.190508
  C       7.496937     31.404107     12.488898
  N       8.106152     32.646607     12.025830
  C       9.420629     32.852727     11.653562
  N       9.637960     34.076573     11.237750
  C       8.426925     34.686179     11.323412
  C       8.013782     35.945948     10.898458
  N       8.801500     36.848317     10.330433
  N       6.692627     36.192157     11.106323
  C       5.828279     35.288260     11.661457
  N       6.158700     34.101071     12.037865
  C       7.455609     33.815474     11.825793
  H      13.508194     29.727546     12.383585
  H       9.248327     29.265089     10.699149
  H       9.138848     27.669829     11.437365
  H       8.276281     28.628930     13.532876
  H       6.835717     28.428276     11.176730
  H       5.113861     29.463242     12.596693
  H       7.394577     30.690157     10.467222
  H       5.222016     30.813787     10.292333
  H       6.759913     31.683534     13.251284
  H      10.176682     32.066644     11.688627
  H       9.725113     36.539173     10.063829
  H       8.431226     37.649573      9.845710
  H       4.806211     35.632708     11.761424
  H       6.297711     37.038590     10.725367
163
Coordinates from ORCA-job /data/Seafile/amp/protonated/frames/frame02/dry/amp_prot02 E -13464.790820721641
  Si      3.518559     33.923733      7.819243
  Si      3.433859     30.840116      7.876073
  O       2.324696     34.906247      8.334540
  O       2.102695     30.120522      8.468349
  O       3.418588     32.399004      8.386568
  O       3.593060     33.847964      6.180297
  O       3.492231     30.893867      6.239497
  Si      6.127377     26.199146      7.852619
  Si      8.741043     24.546364      7.831890
  O       4.684317     25.654106      8.379200
  O       7.405917     25.342253      8.382687
  O       8.570461     23.007950      8.354730
  O       6.204444     26.264112      6.210632
  O       8.672903     24.668289      6.191577
  Si      6.069765     29.260477      7.773927
  Si      6.149197     35.482131      7.693337
  Si      8.891313     33.845433      7.689850
  Si      8.862074     30.823709      7.784721
  O       4.797971     30.101284      8.426314
  O       4.903110     34.648213      8.328622
  O       7.555001     34.751593      8.008657
  O       7.400458     30.121664      8.070110
  O       6.192428     27.758935      8.384111
  O       8.718546     32.377202      8.362706
  O       5.710707     29.154597      6.176225
  O       5.892569     35.712407      6.092629
  O       9.092515     33.681058      6.076874
  O       9.171562     30.951938      6.189395
  Si      6.199044     38.567104      7.802514
  Si      8.914819     40.054787      7.828145
  O       4.931985     39.381382      8.416950
  O       7.566576     39.271239      8.373165
  O       6.202938     37.008680      8.321768
  O       8.997390     41.556007      8.434981
  O       6.267626     38.588049      6.169458
  O       8.889426     40.023342      6.190075
  Si     11.453213     25.978013      7.684718
  Si     14.175328     24.535407      7.832286
  O      10.114130     25.262777      8.336114
  O      12.836604     25.344771      8.289679
  O      14.021833     23.021157      8.421221
  O      11.371710     25.518796      6.097332
  O      14.229253     24.534112      6.186268
  Si     11.496596     29.193463      8.184766
  Si     11.567410     35.347088      7.667240
  Si     14.237418     33.818129      7.670591
  Si     14.243340     30.738743      7.698207
  O      10.016004     29.985652      8.515360
  O      10.180466     34.694104      8.238845
  O      12.917888     34.638666      8.221720
  O      13.001762     29.941447      8.314705
  O      11.391325     27.560957      7.830269
  O      14.328159     32.301515      8.226601
  O      11.343632     29.661238      6.496008
  O      11.561602     35.190078      6.035571
  O      14.094619     33.730190      6.036495
  O      14.081250     30.796019      6.064078
  Si     11.595626     38.522902      7.738875
  Si     14.259401     40.059459      7.854856
  O      10.218658     39.203563      8.326217
  O      12.939199     39.210019      8.339887
  O      11.564988     36.934422      8.086230
  O      14.139636     41.571582      8.448073
  O      11.647085     38.806274      6.124150
  O      14.322330     40.022361      6.212259
  Si     16.885034     26.052524      7.867403
  O      15.536010     25.275634      8.363043
  O      18.189251     25.272730      8.465602
  O      16.847806     26.040807      6.222741
  Si     16.983961     29.131529      7.771700
  Si     16.973513     35.424302      7.755454
  Si     19.614720     33.835637      7.870003
  Si     19.610793     30.736784      7.883841
  O      15.635389     29.971400      8.077241
  O      15.588293     34.637279      8.071043
  O      18.251472     34.610580      8.356195
  O      18.267361     29.949517      8.371009
  O      16.872810     27.613949      8.365731
  O      19.602136     32.290966      8.394321
  O      17.233193     28.923436      6.158266
  O      17.254436     35.521502      6.138192
  O      19.600465     33.776669      6.226334
  O      19.589953     30.749411      6.236690
  Si     16.937059     38.500598      7.849129
  O      15.625443     39.336470      8.370744
  O      18.322659     39.124958      8.428639
  O      16.870614     36.947683      8.341384
  O      16.895729     38.500741      6.204166
  O      20.912194     29.963628      8.483722
  O      20.956311     34.555658      8.452285
  H       4.074658     24.986772      8.036591
  H       1.410409     29.602015      8.036749
  H       1.410409     35.007985      8.036749
  H       4.074657     39.623228      8.036591
  H       8.948181     22.173255      8.038302
  H       8.948181     42.436745      8.038302
  H      14.277762     22.173204      8.038282
  H      14.277762     42.436796      8.038282
  H      18.960557     24.876228      8.036406
  H      18.960556     39.733772      8.036406
  H      21.624717     29.491420      8.036583
  H      21.624717     35.118580      8.036583
  H      13.336107     34.216817      5.684715
  H      10.774268     34.724339      5.708439
  H       9.133776     32.729143      5.828242
  H      10.049182     30.449172      6.070945
  H      12.188210     29.850738      6.070994
  H      14.127699     31.689653      5.699584
  H      13.497544     39.731206      5.798790
  H      10.807329     39.063512      5.725023
  H       8.090752     39.633302      5.808809
  H       6.109892     37.721731      5.762303
  H       5.242794     35.111469      5.701132
  H       3.568482     32.940313      5.840013
  H       4.159526     30.294132      5.863363
  H       5.909501     28.285831      5.793806
  H       6.974738     25.788086      5.858652
  H       9.534551     24.911699      5.810440
  H      12.218928     25.260469      5.714324
  H      15.008372     24.987857      5.835211
  H      17.013042     26.916312      5.840356
  H      17.896885     29.518558      5.785544
  H      19.636504     31.641277      5.865043
  H      18.912823     34.333348      5.832135
  H      17.087511     36.393494      5.758079
  H      16.138822     38.981295      5.840852
  P      11.751978     29.498636     11.220911
  O      11.698893     30.971042     11.204409
  O      11.591246     28.751676      9.897641
  O      13.085914     28.952559     11.890021
  O      10.648976     28.830949     12.172053
  C       9.352090     28.682445     11.626699
  C       8.302254     29.188837     12.587551
  O       8.547766     30.559378     12.956991
  C       6.934881     29.173614     11.932322
  O       5.935069     28.990788     12.899997
  C       6.847497     30.592040     11.363955
  O       5.532627     31.031494     11.173750
  C       7.541533     31.379020     12.471862
  N       8.148406     32.625239     12.016544
  C       9.464872     32.838308     11.657855
  N       9.680535     34.063092     11.245812
  C       8.465382     34.666309     11.316299
  C       8.047884     35.921987     10.881444
  N       8.834917     36.829658     10.321233
  N       6.722417     36.159322     11.071307
  C       5.858735     35.252096     11.620556
  N       6.193274     34.068552     12.006163
  C       7.494112     33.790857     11.809436
  H      13.586146     29.689803     12.250943
  H       9.274197     29.203827     10.667084
  H       9.167344     27.619835     11.432236
  H       8.303193     28.601452     13.507084
  H       6.871657     28.413459     11.144306
  H       5.151546     29.445244     12.564589
  H       7.433292     30.680770     10.446408
  H       5.257562     30.801950     10.275687
  H       6.809406     31.651651     13.241275
  H      10.221716     32.054419     11.697770
  H       9.762458     36.527107     10.066473
  H       8.461441     37.625823      9.825493
  H       4.833583     35.589987     11.707396
  H       6.325158     37.000570     10.678459
163
Coordinates from ORCA-job /data/Seafile/amp/protonated/frames/frame02/dry/amp_prot02 E -13464.790901616772
  Si      3.520378     33.926773      7.815686
  Si      3.430212     30.844303      7.874354
  O       2.328349     34.913403      8.327470
  O       2.091671     30.137483      8.466062
  O       3.419964     32.403063      8.385060
  O       3.595938     33.848934      6.176965
  O       3.489785     30.895807      6.237695
  Si      6.125999     26.202673      7.847517
  Si      8.737043     24.547418      7.827004
  O       4.678199     25.665112      8.368920
  O       7.402094     25.342777      8.379421
  O       8.560927     23.007753      8.344609
  O       6.206719     26.268352      6.205745
  O       8.668050     24.675270      6.187137
  Si      6.066096     29.262475      7.770585
  Si      6.150210     35.484908      7.691862
  Si      8.891074     33.845509      7.691039
  Si      8.859952     30.824980      7.784593
  O       4.792038     30.099885      8.423717
  O       4.905488     34.649198      8.326654
  O       7.557162     34.756589      8.006931
  O       7.395410     30.126731      8.064596
  O       6.193919     27.761770      8.381113
  O       8.717526     32.377808      8.365920
  O       5.706185     29.156248      6.173305
  O       5.894297     35.716448      6.091500
  O       9.092380     33.679792      6.078200
  O       9.171415     30.958444      6.189855
  Si      6.199877     38.569838      7.802196
  Si      8.915784     40.055073      7.827877
  O       4.934712     39.388077      8.414789
  O       7.568356     39.270660      8.373673
  O       6.201036     37.011149      8.321654
  O       8.997817     41.556065      8.435231
  O       6.269415     38.589797      6.169024
  O       8.888476     40.024229      6.189905
  Si     11.450179     25.975625      7.677604
  Si     14.173015     24.536227      7.830412
  O      10.112563     25.259359      8.332231
  O      12.834572     25.347844      8.286163
  O      14.018989     23.021759      8.418522
  O      11.369482     25.507685      6.092922
  O      14.229210     24.533675      6.184439
  Si     11.493155     29.191338      8.176194
  Si     11.566724     35.345666      7.668021
  Si     14.236202     33.816442      7.671430
  Si     14.245771     30.736243      7.697312
  O      10.013222     29.982929      8.511871
  O      10.181257     34.691610      8.241403
  O      12.916482     34.636072      8.222545
  O      13.002478     29.934664      8.305815
  O      11.385090     27.560351      7.808379
  O      14.325360     32.299196      8.226588
  O      11.335139     29.672427      6.490942
  O      11.559636     35.189516      6.036131
  O      14.095354     33.729907      6.036989
  O      14.093904     30.794392      6.062239
  Si     11.596098     38.521409      7.738449
  Si     14.258063     40.059351      7.853663
  O      10.220093     39.203868      8.325001
  O      12.940539     39.206492      8.339457
  O      11.564322     36.933007      8.086387
  O      14.129956     41.571639      8.444603
  O      11.648731     38.804154      6.123621
  O      14.322099     40.020315      6.211103
  Si     16.883310     26.051584      7.867620
  O      15.532680     25.277112      8.362932
  O      18.185409     25.267271      8.464599
  O      16.846483     26.041710      6.222889
  Si     16.985681     29.131187      7.774860
  Si     16.970111     35.425034      7.756388
  Si     19.611917     33.837757      7.871244
  Si     19.611904     30.739662      7.884876
  O      15.639471     29.974126      8.084629
  O      15.585306     34.637826      8.073865
  O      18.248216     34.611820      8.356998
  O      18.272475     29.945429      8.372817
  O      16.873574     27.612825      8.367052
  O      19.598532     32.293424      8.396595
  O      17.231632     28.924277      6.160931
  O      17.250136     35.521103      6.138923
  O      19.597818     33.777333      6.227520
  O      19.587953     30.753093      6.237795
  Si     16.936071     38.501814      7.848864
  O      15.626160     39.340679      8.370269
  O      18.322182     39.125060      8.428310
  O      16.867772     36.948975      8.341268
  O      16.894248     38.501690      6.203933
  O      20.920594     29.977303      8.483180
  O      20.952208     34.560456      8.452715
  H       4.074658     24.986772      8.036591
  H       1.410409     29.602015      8.036749
  H       1.410409     35.007985      8.036749
  H       4.074657     39.623228      8.036591
  H       8.948181     22.173255      8.038302
  H       8.948181     42.436745      8.038302
  H      14.277762     22.173204      8.038282
  H      14.277762     42.436796      8.038282
  H      18.960557     24.876228      8.036406
  H      18.960556     39.733772      8.036406
  H      21.624717     29.491420      8.036583
  H      21.624717     35.118580      8.036583
  H      13.337368     34.217350      5.684729
  H      10.771536     34.724810      5.709197
  H       9.133043     32.727456      5.829965
  H      10.056790     30.468863      6.071068
  H      12.173310     29.867152      6.064082
  H      14.136703     31.689056      5.699946
  H      13.496615     39.731214      5.797410
  H      10.808747     39.057969      5.722543
  H       8.089123     39.633903      5.809902
  H       6.110723     37.723470      5.761767
  H       5.247372     35.114153      5.697174
  H       3.571934     32.940697      5.837676
  H       4.157245     30.295084      5.862517
  H       5.907008     28.288248      5.789568
  H       6.980702     25.796475      5.855650
  H       9.531253     24.911925      5.804887
  H      12.217242     25.251578      5.709317
  H      15.007302     24.989878      5.834038
  H      17.011090     26.917931      5.841447
  H      17.891670     29.522308      5.786139
  H      19.637536     31.645249      5.866818
  H      18.910558     34.334225      5.832748
  H      17.082275     36.392648      5.757980
  H      16.137557     38.983143      5.841021
  P      11.759686     29.485188     11.210818
  O      11.707177     30.958069     11.198833
  O      11.594543     28.741704      9.884047
  O      13.090712     28.939600     11.880201
  O      10.660515     28.813184     12.159495
  C       9.362522     28.665102     11.617609
  C       8.314451     29.177683     12.578093
  O       8.566690     30.549116     12.941656
  C       6.945731     29.164398     11.924157
  O       5.945277     28.982489     12.893335
  C       6.860164     30.583581     11.356931
  O       5.545607     31.024164     11.167252
  C       7.556625     31.368672     12.464672
  N       8.159923     32.616870     12.009582
  C       9.475960     32.833543     11.650621
  N       9.687658     34.059103     11.237952
  C       8.470862     34.659172     11.309577
  C       8.049715     35.914064     10.875995
  N       8.834486     36.825571     10.317756
  N       6.722728     36.146440     11.062410
  C       5.861232     35.235676     11.609292
  N       6.199761     34.053617     11.996356
  C       7.501813     33.780172     11.801393
  H      13.615946     29.681682     12.194008
  H       9.283327     29.181971     10.657776
  H       9.176828     27.602697     11.428054
  H       8.313614     28.594253     13.500754
  H       6.880537     28.404118     11.134982
  H       5.162302     29.440682     12.560355
  H       7.446664     30.674085     10.440151
  H       5.270582     30.794866     10.269259
  H       6.827389     31.637712     13.238447
  H      10.233409     32.050044     11.686956
  H       9.763931     36.525618     10.060950
  H       8.459442     37.621350      9.823570
  H       4.833740     35.568689     11.691109
  H       6.322809     36.985283     10.664954
163
Coordinates from ORCA-job /data/Seafile/amp/protonated/frames/frame02/dry/amp_prot02 E -13464.791001911257
  Si      3.521028     33.927994      7.815720
  Si      3.429285     30.845463      7.874067
  O       2.328302     34.913924      8.326850
  O       2.087000     30.144474      8.463899
  O       3.422003     32.404172      8.384605
  O       3.597688     33.850659      6.176806
  O       3.490259     30.895815      6.237286
  Si      6.125392     26.203041      7.847001
  Si      8.736028     24.547656      7.825640
  O       4.676272     25.667395      8.366250
  O       7.400603     25.341651      8.378647
  O       8.561022     23.007806      8.342315
  O       6.207333     26.269833      6.205226
  O       8.666200     24.677120      6.185879
  Si      6.065017     29.262299      7.772141
  Si      6.150946     35.486041      7.693487
  Si      8.891111     33.846016      7.694568
  Si      8.858534     30.824440      7.788170
  O       4.789385     30.098182      8.423853
  O       4.905642     34.650751      8.327362
  O       7.557529     34.757874      8.010273
  O       7.393148     30.128097      8.067342
  O       6.194251     27.761687      8.382117
  O       8.718301     32.377647      8.367801
  O       5.707038     29.157018      6.174480
  O       5.897039     35.716952      6.092817
  O       9.091739     33.681744      6.081207
  O       9.166553     30.957713      6.192600
  Si      6.200285     38.570839      7.802479
  Si      8.916450     40.055310      7.828597
  O       4.935994     39.391324      8.413592
  O       7.568578     39.271687      8.373991
  O       6.200255     37.012432      8.323130
  O       8.997898     41.556381      8.435820
  O       6.270134     38.589097      6.169269
  O       8.889823     40.024282      6.190486
  Si     11.449157     25.975995      7.675547
  Si     14.171491     24.536155      7.828939
  O      10.111253     25.260684      8.330454
  O      12.833529     25.348418      8.284413
  O      14.015466     23.021806      8.416248
  O      11.368279     25.507758      6.091067
  O      14.228008     24.534217      6.182806
  Si     11.492841     29.191707      8.175507
  Si     11.566957     35.344989      7.672201
  Si     14.235871     33.815397      7.677208
  Si     14.246788     30.735432      7.703305
  O      10.012286     29.981940      8.513401
  O      10.181496     34.691125      8.245476
  O      12.916760     34.636058      8.227722
  O      13.003236     29.932193      8.308616
  O      11.387779     27.560873      7.805882
  O      14.324101     32.298167      8.233221
  O      11.336864     29.675776      6.493105
  O      11.561088     35.188062      6.040426
  O      14.095453     33.727224      6.042814
  O      14.096736     30.795332      6.068128
  Si     11.595999     38.520335      7.740249
  Si     14.257071     40.059391      7.853775
  O      10.220326     39.203749      8.326406
  O      12.940930     39.205164      8.340322
  O      11.563819     36.932413      8.089880
  O      14.124662     41.571863      8.443041
  O      11.648703     38.801556      6.125249
  O      14.321538     40.018713      6.211143
  Si     16.882659     26.050558      7.867493
  O      15.531493     25.276291      8.361895
  O      18.183252     25.263468      8.463853
  O      16.846104     26.042499      6.222609
  Si     16.986367     29.130914      7.777959
  Si     16.968257     35.425811      7.758928
  Si     19.610591     33.839659      7.872355
  Si     19.612467     30.741511      7.885279
  O      15.641051     29.974046      8.091670
  O      15.584995     34.636965      8.078670
  O      18.247185     34.613630      8.358566
  O      18.275501     29.943218      8.373881
  O      16.874936     27.611586      8.367909
  O      19.596174     32.295171      8.397243
  O      17.228244     28.926256      6.163216
  O      17.245893     35.520676      6.141042
  O      19.596672     33.779514      6.228516
  O      19.585603     30.754930      6.238175
  Si     16.935334     38.502752      7.849345
  O      15.626743     39.343796      8.370606
  O      18.322421     39.124497      8.427905
  O      16.865370     36.950167      8.342405
  O      16.892594     38.501639      6.204425
  O      20.925530     29.985394      8.482179
  O      20.950205     34.563490      8.453552
  H       4.074658     24.986772      8.036591
  H       1.410409     29.602015      8.036749
  H       1.410409     35.007985      8.036749
  H       4.074657     39.623228      8.036591
  H       8.948181     22.173255      8.038302
  H       8.948181     42.436745      8.038302
  H      14.277762     22.173204      8.038282
  H      14.277762     42.436796      8.038282
  H      18.960557     24.876228      8.036406
  H      18.960556     39.733772      8.036406
  H      21.624717     29.491420      8.036583
  H      21.624717     35.118580      8.036583
  H      13.338641     34.215530      5.689420
  H      10.772019     34.725794      5.712526
  H       9.128340     32.730046      5.831317
  H      10.045636     30.460783      6.070185
  H      12.178534     29.864215      6.066359
  H      14.141208     31.690639      5.707215
  H      13.495744     39.729931      5.797757
  H      10.809057     39.055588      5.723754
  H       8.090442     39.634069      5.810481
  H       6.112185     37.721939      5.763130
  H       5.249549     35.115556      5.698200
  H       3.573121     32.942568      5.837313
  H       4.158568     30.295142      5.863362
  H       5.907410     28.289118      5.790459
  H       6.982385     25.798784      5.856055
  H       9.529469     24.912698      5.803322
  H      12.216302     25.251134      5.708373
  H      15.006052     24.990996      5.833010
  H      17.010096     26.919458      5.842381
  H      17.887009     29.524966      5.787574
  H      19.637162     31.646937      5.867368
  H      18.908715     34.335720      5.833986
  H      17.078428     36.392143      5.759931
  H      16.135334     38.982448      5.842060
  P      11.755044     29.482805     11.211376
  O      11.698188     30.956137     11.196363
  O      11.590894     28.738415      9.885417
  O      13.086670     28.942066     11.883161
  O      10.658939     28.808763     12.164327
  C       9.359010     28.656948     11.626151
  C       8.311496     29.174271     12.585573
  O       8.565346     30.546720     12.945134
  C       6.942633     29.160021     11.930919
  O       5.941296     28.980541     12.900349
  C       6.858661     30.578163     11.360833
  O       5.544758     31.018992     11.167985
  C       7.553811     31.364635     12.468214
  N       8.155108     32.613331     12.012134
  C       9.470643     32.831227     11.651976
  N       9.680798     34.056844     11.238153
  C       8.463535     34.655760     11.311823
  C       8.041362     35.910749     10.880174
  N       8.825372     36.822888     10.321570
  N       6.714534     36.142134     11.068299
  C       5.854044     35.230373     11.615392
  N       6.193773     34.048647     12.001787
  C       7.495643     33.776098     11.805189
  H      13.620774     29.688260     12.174797
  H       9.277245     29.167790     10.661737
  H       9.172805     27.593012     11.444082
  H       8.310223     28.593900     13.510859
  H       6.877241     28.398094     11.142869
  H       5.158839     29.439591     12.566943
  H       7.446976     30.667850     10.445260
  H       5.271961     30.789655     10.269613
  H       6.824579     31.632667     13.242426
  H      10.229008     32.048146     11.688496
  H       9.754875     36.523453     10.062005
  H       8.450745     37.620204      9.831471
  H       4.825949     35.561895     11.696625
  H       6.313671     36.979926     10.670132
163
Coordinates from ORCA-job /data/Seafile/amp/protonated/frames/frame02/dry/amp_prot02 E -13464.791153101081
  Si      3.522589     33.930915      7.815363
  Si      3.428354     30.847690      7.869904
  O       2.327069     34.912008      8.327848
  O       2.079627     30.157855      8.456341
  O       3.428296     32.405949      8.380721
  O       3.601342     33.857266      6.175734
  O       3.490362     30.896953      6.232948
  Si      6.123841     26.203875      7.844344
  Si      8.733858     24.548524      7.825243
  O       4.672764     25.672218      8.360826
  O       7.396310     25.339236      8.376763
  O       8.563298     23.008387      8.340331
  O       6.208553     26.270553      6.202580
  O       8.664786     24.680960      6.185504
  Si      6.063596     29.262207      7.768912
  Si      6.152721     35.489200      7.695584
  Si      8.891848     33.848950      7.697735
  Si      8.856332     30.824317      7.790089
  O       4.785363     30.094710      8.418426
  O       4.905554     34.655691      8.327523
  O       7.558026     34.760173      8.015457
  O       7.388941     30.131884      8.066852
  O       6.195085     27.762399      8.379488
  O       8.720049     32.378351      8.363429
  O       5.708803     29.157177      6.170425
  O       5.902406     35.719537      6.094043
  O       9.091385     33.690458      6.082763
  O       9.160107     30.957130      6.192683
  Si      6.201291     38.572961      7.802727
  Si      8.918118     40.055818      7.830442
  O       4.938604     39.397555      8.410977
  O       7.568489     39.275226      8.374262
  O       6.199144     37.015402      8.325978
  O       8.998213     41.557100      8.437188
  O       6.271786     38.587350      6.169589
  O       8.893918     40.024045      6.191851
  Si     11.446849     25.978023      7.679370
  Si     14.167392     24.535698      7.829801
  O      10.106076     25.266568      8.331396
  O      12.830431     25.346985      8.287072
  O      14.006226     23.020623      8.412791
  O      11.365157     25.512278      6.093877
  O      14.222831     24.538157      6.183087
  Si     11.492146     29.192511      8.183035
  Si     11.568962     35.344121      7.678199
  Si     14.236181     33.812409      7.689148
  Si     14.247792     30.733023      7.721041
  O      10.007575     29.982229      8.517482
  O      10.182187     34.692206      8.249800
  O      12.919266     34.637955      8.236780
  O      13.004740     29.928414      8.323711
  O      11.398080     27.562302      7.815478
  O      14.322066     32.296222      8.250094
  O      11.342996     29.675093      6.506002
  O      11.567727     35.184539      6.046929
  O      14.096404     33.717117      6.055199
  O      14.096773     30.795004      6.086170
  Si     11.595641     38.518494      7.743304
  Si     14.254906     40.059694      7.853893
  O      10.220381     39.202767      8.330022
  O      12.941520     39.202857      8.341451
  O      11.562757     36.931464      8.095627
  O      14.112627     41.572474      8.439470
  O      11.647470     38.798193      6.128134
  O      14.320569     40.015147      6.211058
  Si     16.880948     26.047795      7.869232
  O      15.529738     25.272476      8.362266
  O      18.178790     25.254511      8.462907
  O      16.843428     26.044173      6.224010
  Si     16.987609     29.129796      7.786083
  Si     16.964996     35.428182      7.763589
  Si     19.608138     33.844414      7.874678
  Si     19.613412     30.745761      7.885854
  O      15.643507     29.972288      8.107903
  O      15.585944     34.633695      8.086936
  O      18.245833     34.618958      8.361627
  O      18.282256     29.938193      8.376242
  O      16.878576     27.608408      8.371383
  O      19.590370     32.299354      8.397733
  O      17.220056     28.929820      6.169180
  O      17.238131     35.521508      6.144729
  O      19.595584     33.785699      6.230549
  O      19.578983     30.758864      6.238661
  Si     16.933616     38.505196      7.850033
  O      15.628459     39.351656      8.371117
  O      18.323560     39.122226      8.426247
  O      16.858912     36.953088      8.344241
  O      16.888610     38.502324      6.205115
  O      20.936951     30.004337      8.478682
  O      20.946156     34.570429      8.455987
  H       4.074658     24.986772      8.036591
  H       1.410409     29.602015      8.036749
  H       1.410409     35.007985      8.036749
  H       4.074657     39.623228      8.036591
  H       8.948181     22.173255      8.038302
  H       8.948181     42.436745      8.038302
  H      14.277762     22.173204      8.038282
  H      14.277762     42.436796      8.038282
  H      18.960557     24.876228      8.036406
  H      18.960556     39.733772      8.036406
  H      21.624717     29.491420      8.036583
  H      21.624717     35.118580      8.036583
  H      13.342339     34.206311      5.697969
  H      10.777401     34.726564      5.716028
  H       9.124779     32.740608      5.828128
  H      10.041094     30.467284      6.069099
  H      12.191933     29.853724      6.081372
  H      14.145097     31.690696      5.726375
  H      13.494337     39.726108      5.798636
  H      10.808476     39.054789      5.727278
  H       8.094185     39.635269      5.811324
  H       6.117284     37.717799      5.766835
  H       5.252049     35.120607      5.700423
  H       3.574317     32.950144      5.834448
  H       4.161892     30.298645      5.861235
  H       5.907222     28.288242      5.787738
  H       6.983821     25.796419      5.856724
  H       9.528925     24.915613      5.804406
  H      12.214648     25.255036      5.714445
  H      15.001172     24.995438      5.834748
  H      17.004100     26.923067      5.846831
  H      17.876628     29.529518      5.791878
  H      19.635560     31.650332      5.867874
  H      18.905345     34.339421      5.836651
  H      17.072903     36.393512      5.764194
  H      16.129951     38.981997      5.844318
  P      11.746585     29.480219     11.225475
  O      11.692774     30.953604     11.214769
  O      11.577931     28.742502      9.896158
  O      13.077800     28.935560     11.898788
  O      10.652254     28.803766     12.177634
  C       9.353472     28.649495     11.642609
  C       8.304782     29.172513     12.595762
  O       8.557160     30.546086     12.950901
  C       6.939602     29.155336     11.935335
  O       5.935107     28.975393     12.898734
  C       6.856030     30.571051     11.361208
  O       5.543025     31.011525     11.161941
  C       7.545909     31.361181     12.468520
  N       8.146387     32.609662     12.012550
  C       9.462399     32.826512     11.654621
  N       9.674662     34.052766     11.243986
  C       8.457654     34.651948     11.315104
  C       8.038021     35.908177     10.884272
  N       8.825568     36.819272     10.329677
  N       6.711212     36.141388     11.069277
  C       5.848856     35.230182     11.614400
  N       6.186601     34.048093     12.000935
  C       7.487949     33.773258     11.806401
  H      13.627885     29.683195     12.156351
  H       9.271124     29.151537     10.672652
  H       9.166478     27.584040     11.472405
  H       8.300816     28.596420     13.523587
  H       6.879562     28.392808     11.149417
  H       5.154309     29.432729     12.560544
  H       7.447483     30.656799     10.447843
  H       5.273401     30.781657     10.263077
  H       6.814144     31.629046     13.239946
  H      10.220520     32.042670     11.693629
  H       9.754667     36.519401     10.073003
  H       8.454786     37.621361      9.843425
  H       4.820902     35.562563     11.693612
  H       6.311402     36.977682     10.668745
163
Coordinates from ORCA-job /data/Seafile/amp/protonated/frames/frame02/dry/amp_prot02 E -13464.791236550183
  Si      3.524593     33.934943      7.812102
  Si      3.426477     30.851504      7.864024
  O       2.327222     34.911450      8.327451
  O       2.070813     30.174778      8.447666
  O       3.434647     32.409241      8.374957
  O       3.604001     33.864358      6.171960
  O       3.489816     30.898724      6.227010
  Si      6.122023     26.206293      7.840470
  Si      8.731106     24.550145      7.821474
  O       4.669681     25.677772      8.355248
  O       7.392381     25.338455      8.372938
  O       8.565047     23.010654      8.337483
  O       6.208726     26.273981      6.198969
  O       8.660706     24.683142      6.181961
  Si      6.060561     29.263453      7.765071
  Si      6.154878     35.492976      7.692338
  Si      8.892292     33.851240      7.693119
  Si      8.852812     30.824150      7.788527
  O       4.779613     30.092180      8.412781
  O       4.906468     34.661282      8.323762
  O       7.559261     34.762616      8.013746
  O       7.383220     30.137022      8.064893
  O       6.194984     27.764369      8.376606
  O       8.721419     32.379731      8.354283
  O       5.709029     29.158130      6.165892
  O       5.906646     35.722739      6.090099
  O       9.089382     33.694687      6.076804
  O       9.152684     30.952031      6.189189
  Si      6.202693     38.575710      7.800144
  Si      8.920316     40.056466      7.828967
  O       4.941858     39.403498      8.407571
  O       7.569419     39.278382      8.371612
  O       6.199225     37.018428      8.324424
  O       9.000022     41.557117      8.437178
  O       6.272841     38.587990      6.167161
  O       8.897666     40.025739      6.190023
  Si     11.444810     25.980085      7.675702
  Si     14.163688     24.534881      7.825842
  O      10.101286     25.273611      8.326782
  O      12.827137     25.345446      8.283902
  O      13.997500     23.019900      8.407609
  O      11.361897     25.514910      6.089524
  O      14.218406     24.539172      6.178831
  Si     11.489623     29.194401      8.185364
  Si     11.570524     35.343369      7.672148
  Si     14.236783     33.809773      7.685217
  Si     14.249598     30.730202      7.722666
  O      10.001318     29.982766      8.518806
  O      10.183505     34.692883      8.244097
  O      12.921919     34.638970      8.231684
  O      13.007962     29.925016      8.327891
  O      11.407217     27.564024      7.817065
  O      14.321446     32.294323      8.250565
  O      11.339754     29.681493      6.513610
  O      11.571238     35.181776      6.041367
  O      14.097785     33.708698      6.051781
  O      14.096452     30.790390      6.088183
  Si     11.595694     38.517049      7.738891
  Si     14.253065     40.060410      7.849219
  O      10.221476     39.201423      8.328224
  O      12.942760     39.199685      8.336450
  O      11.562188     36.930081      8.091295
  O      14.099688     41.572393      8.433673
  O      11.646334     38.798009      6.123947
  O      14.320971     40.013967      6.206383
  Si     16.879458     26.045178      7.864920
  O      15.527748     25.269927      8.357393
  O      18.173360     25.246668      8.459619
  O      16.842494     26.042808      6.219720
  Si     16.990164     29.128636      7.782470
  Si     16.962458     35.431188      7.757876
  Si     19.606309     33.849479      7.870889
  Si     19.615347     30.750293      7.879288
  O      15.647025     29.971659      8.109650
  O      15.586765     34.630505      8.081582
  O      18.244135     34.624336      8.356653
  O      18.289436     29.932773      8.369318
  O      16.881608     27.606283      8.366134
  O      19.583805     32.303587      8.391676
  O      17.216392     28.930825      6.163990
  O      17.234519     35.525199      6.138598
  O      19.598621     33.792859      6.226685
  O      19.576138     30.762516      6.232221
  Si     16.932326     38.508172      7.845294
  O      15.630395     39.359406      8.366802
  O      18.324485     39.118875      8.422229
  O      16.851973     36.955601      8.338427
  O      16.887246     38.506194      6.200483
  O      20.948454     30.025406      8.471290
  O      20.941356     34.576927      8.456320
  H       4.074658     24.986772      8.036591
  H       1.410409     29.602015      8.036749
  H       1.410409     35.007985      8.036749
  H       4.074657     39.623228      8.036591
  H       8.948181     22.173255      8.038302
  H       8.948181     42.436745      8.038302
  H      14.277762     22.173204      8.038282
  H      14.277762     42.436796      8.038282
  H      18.960557     24.876228      8.036406
  H      18.960556     39.733772      8.036406
  H      21.624717     29.491420      8.036583
  H      21.624717     35.118580      8.036583
  H      13.345520     34.198015      5.691035
  H      10.778883     34.728441      5.708704
  H       9.120118     32.745504      5.820276
  H      10.028625     30.458094      6.065513
  H      12.185299     29.868838      6.091766
  H      14.142288     31.685421      5.726856
  H      13.494361     39.726267      5.793910
  H      10.807510     39.057620      5.724572
  H       8.097883     39.638133      5.808615
  H       6.120856     37.716836      5.766759
  H       5.253764     35.125170      5.697921
  H       3.574997     32.958065      5.828761
  H       4.163249     30.301444      5.857293
  H       5.907716     28.288738      5.783985
  H       6.985701     25.801469      5.854939
  H       9.524732     24.917116      5.800406
  H      12.212987     25.258602      5.712336
  H      14.996718     24.996493      5.830654
  H      17.000136     26.922513      5.843534
  H      17.871423     29.531207      5.785088
  H      19.637697     31.653275      5.860581
  H      18.907557     34.344748      5.831806
  H      17.072468     36.398432      5.759324
  H      16.127347     38.984974      5.840557
  P      11.741562     29.476865     11.226260
  O      11.690359     30.950528     11.216890
  O      11.575754     28.746690      9.895354
  O      13.072512     28.928972     11.901456
  O      10.647417     28.795337     12.177745
  C       9.345228     28.637522     11.649309
  C       8.299619     29.174723     12.601359
  O       8.558248     30.550472     12.948286
  C       6.932229     29.158920     11.942514
  O       5.926572     28.991247     12.909728
  C       6.856607     30.571366     11.358761
  O       5.545569     31.016128     11.154506
  C       7.547225     31.365918     12.463140
  N       8.147626     32.613488     12.005116
  C       9.464013     32.830122     11.649472
  N       9.677617     34.056682     11.240185
  C       8.460517     34.656021     11.309124
  C       8.042177     35.913497     10.879836
  N       8.831336     36.825164     10.330231
  N       6.715313     36.147199     11.062759
  C       5.851720     35.235621     11.604801
  N       6.188289     34.052977     11.990243
  C       7.489674     33.777432     11.797941
  H      13.637115     29.675581     12.123485
  H       9.261622     29.126106     10.671098
  H       9.152979     27.568924     11.496170
  H       8.294048     28.605346     13.533229
  H       6.867153     28.389916     11.160937
  H       5.146924     29.450162     12.570165
  H       7.450693     30.647859     10.445397
  H       5.276547     30.782918     10.255760
  H       6.815419     31.635643     13.234417
  H      10.221658     32.046557     11.691883
  H       9.760560     36.527428     10.076500
  H       8.462309     37.631284      9.849770
  H       4.824067     35.568576     11.683735
  H       6.316179     36.982545     10.662139
163
Coordinates from ORCA-job /data/Seafile/amp/protonated/frames/frame02/dry/amp_prot02 E -13464.791291648804
  Si      3.525887     33.937049      7.811185
  Si      3.425234     30.853995      7.860707
  O       2.327753     34.912072      8.327293
  O       2.064642     30.186037      8.442349
  O       3.438013     32.411104      8.372824
  O       3.605703     33.867924      6.170919
  O       3.489803     30.901187      6.223695
  Si      6.121424     26.207839      7.837038
  Si      8.730021     24.551425      7.819765
  O       4.667621     25.682112      8.350572
  O       7.390114     25.338305      8.370503
  O       8.564449     23.011942      8.335122
  O       6.209875     26.275772      6.195704
  O       8.660478     24.685403      6.180299
  Si      6.058629     29.264480      7.761473
  Si      6.155942     35.494986      7.691515
  Si      8.892417     33.851967      7.693801
  Si      8.851174     30.824800      7.789304
  O       4.775596     30.089792      8.409267
  O       4.906983     34.664389      8.322905
  O       7.559822     34.764299      8.014254
  O       7.379309     30.140600      8.062697
  O       6.195239     27.765699      8.373414
  O       8.720651     32.380618      8.353603
  O       5.708546     29.158883      6.162000
  O       5.908850     35.724148      6.088915
  O       9.089920     33.694782      6.077242
  O       9.153696     30.951105      6.189642
  Si      6.203556     38.577533      7.799063
  Si      8.921543     40.056788      7.829645
  O       4.943436     39.406917      8.405867
  O       7.570026     39.279597      8.371440
  O       6.199357     37.020374      8.323920
  O       9.001074     41.557504      8.437633
  O       6.274473     38.588941      6.166170
  O       8.900272     40.025466      6.190589
  Si     11.444045     25.981628      7.677171
  Si     14.162046     24.535314      7.827410
  O      10.098762     25.276779      8.326234
  O      12.825114     25.344537      8.286356
  O      13.993611     23.019048      8.406263
  O      11.361757     25.516522      6.090538
  O      14.217572     24.541622      6.180287
  Si     11.488966     29.196196      8.193260
  Si     11.571317     35.342436      7.674521
  Si     14.237002     33.807854      7.691722
  Si     14.251018     30.728123      7.734631
  O       9.996644     29.982905      8.523155
  O      10.183619     34.692681      8.245601
  O      12.922298     34.638860      8.235826
  O      13.009961     29.922282      8.340617
  O      11.407416     27.565304      7.820223
  O      14.321709     32.293554      8.260521
  O      11.343458     29.691654      6.523839
  O      11.573257     35.179071      6.044038
  O      14.097913     33.703281      6.058487
  O      14.098171     30.786057      6.100078
  Si     11.595796     38.516116      7.740315
  Si     14.251972     40.060443      7.849208
  O      10.221993     39.201314      8.329939
  O      12.943527     39.197810      8.337311
  O      11.561567     36.929309      8.093530
  O      14.091377     41.572913      8.430776
  O      11.645671     38.796880      6.125336
  O      14.320969     40.010688      6.206387
  Si     16.878429     26.044632      7.867553
  O      15.526556     25.269333      8.359422
  O      18.170509     25.240974      8.459582
  O      16.840682     26.045983      6.222367
  Si     16.991734     29.128309      7.789445
  Si     16.960697     35.432864      7.761650
  Si     19.604679     33.852194      7.873211
  Si     19.616148     30.753202      7.880143
  O      15.650179     29.972207      8.121710
  O      15.586688     34.629680      8.086594
  O      18.243507     34.627729      8.360110
  O      18.295089     29.928949      8.372564
  O      16.883802     27.605006      8.370958
  O      19.580301     32.306084      8.393200
  O      17.212652     28.932448      6.169862
  O      17.231231     35.526785      6.142017
  O      19.596764     33.796201      6.228911
  O      19.570730     30.765412      6.233233
  Si     16.931397     38.509594      7.846405
  O      15.631458     39.364277      8.367642
  O      18.325215     39.117876      8.421811
  O      16.848412     36.957557      8.341007
  O      16.885722     38.506443      6.201622
  O      20.957306     30.039464      8.467838
  O      20.939596     34.580541      8.458084
  H       4.074658     24.986772      8.036591
  H       1.410409     29.602015      8.036749
  H       1.410409     35.007985      8.036749
  H       4.074657     39.623228      8.036591
  H       8.948181     22.173255      8.038302
  H       8.948181     42.436745      8.038302
  H      14.277762     22.173204      8.038282
  H      14.277762     42.436796      8.038282
  H      18.960557     24.876228      8.036406
  H      18.960556     39.733772      8.036406
  H      21.624717     29.491420      8.036583
  H      21.624717     35.118580      8.036583
  H      13.346858     34.193516      5.696313
  H      10.779560     34.728714      5.710916
  H       9.118781     32.745417      5.821536
  H      10.029907     30.456795      6.069881
  H      12.191095     29.873025      6.104067
  H      14.143361     31.680648      5.737213
  H      13.493867     39.724341      5.794059
  H      10.806569     39.057335      5.726673
  H       8.100465     39.638491      5.808614
  H       6.122782     37.717436      5.766333
  H       5.255335     35.126644      5.697376
  H       3.575771     32.962108      5.826597
  H       4.163576     30.304094      5.854332
  H       5.908922     28.289608      5.780359
  H       6.987919     25.804484      5.852695
  H       9.524955     24.918969      5.799228
  H      12.213714     25.262319      5.713946
  H      14.996626     24.998117      5.832754
  H      16.997572     26.926526      5.847876
  H      17.865839     29.533990      5.789434
  H      19.634765     31.655822      5.861057
  H      18.905292     34.347799      5.834396
  H      17.070316     36.400562      5.763300
  H      16.124905     38.984090      5.841806
  P      11.738524     29.469430     11.237920
  O      11.694329     30.942411     11.237248
  O      11.569722     28.745722      9.900209
  O      13.062894     28.914209     11.916961
  O      10.642849     28.786221     12.179428
  C       9.344455     28.632745     11.647972
  C       8.297911     29.169213     12.597514
  O       8.556348     30.544296     12.943795
  C       6.932506     29.153986     11.935785
  O       5.924829     28.984126     12.898656
  C       6.856934     30.566323     11.353182
  O       5.546216     31.011726     11.147390
  C       7.545872     31.360034     12.458485
  N       8.147007     32.607658     12.002248
  C       9.463982     32.824609     11.647059
  N       9.676669     34.051219     11.236560
  C       8.459688     34.650790     11.307459
  C       8.040876     35.908274     10.877777
  N       8.829120     36.819392     10.324041
  N       6.714079     36.141961     11.062298
  C       5.850578     35.229735     11.604724
  N       6.187431     34.046841     11.989389
  C       7.489076     33.771652     11.796179
  H      13.641832     29.656547     12.116646
  H       9.263736     29.123099     10.674837
  H       9.152634     27.566781     11.491765
  H       8.290200     28.600290     13.528943
  H       6.870617     28.386602     11.153711
  H       5.145948     29.442201     12.556250
  H       7.452774     30.640897     10.441154
  H       5.277402     30.779658     10.248317
  H       6.812625     31.629301     13.228543
  H      10.221190     32.040511     11.686383
  H       9.758424     36.520815     10.065883
  H       8.460052     37.626556      9.844133
  H       4.822592     35.562167     11.683384
  H       6.314083     36.976779     10.658173
163
Coordinates from ORCA-job /data/Seafile/amp/protonated/frames/frame02/dry/amp_prot02 E -13464.791350959804
  Si      3.525974     33.937365      7.811794
  Si      3.425028     30.854858      7.859340
  O       2.327335     34.911605      8.328293
  O       2.060792     30.192711      8.439473
  O       3.439625     32.411335      8.372958
  O       3.605890     33.869117      6.171640
  O       3.490846     30.902531      6.222381
  Si      6.121847     26.207977      7.835683
  Si      8.730779     24.552052      7.819206
  O       4.667023     25.683763      8.348522
  O       7.389849     25.337707      8.369807
  O       8.565570     23.012739      8.334768
  O       6.210970     26.275906      6.194519
  O       8.662183     24.685397      6.179735
  Si      6.058393     29.264601      7.760617
  Si      6.155583     35.495563      7.693032
  Si      8.891229     33.852043      7.695820
  Si      8.850452     30.825986      7.788871
  O       4.773788     30.087808      8.408603
  O       4.906191     34.665664      8.324285
  O       7.559144     34.764625      8.016650
  O       7.378066     30.142105      8.062161
  O       6.196106     27.765639      8.372674
  O       8.719085     32.380949      8.355763
  O       5.708999     29.158946      6.161139
  O       5.909618     35.723613      6.090243
  O       9.088994     33.694594      6.079502
  O       9.153749     30.955199      6.189388
  Si      6.203932     38.578331      7.799935
  Si      8.921990     40.056856      7.831257
  O       4.943735     39.408486      8.405906
  O       7.570473     39.279679      8.373114
  O       6.199324     37.021104      8.324932
  O       9.002222     41.557961      8.438340
  O       6.275830     38.589677      6.167062
  O       8.901614     40.024482      6.192251
  Si     11.444538     25.982749      7.677430
  Si     14.161918     24.535981      7.827678
  O      10.098610     25.278785      8.326049
  O      12.824651     25.344466      8.287661
  O      13.992810     23.019013      8.405715
  O      11.362929     25.517148      6.090917
  O      14.217414     24.542922      6.180720
  Si     11.489954     29.197270      8.192704
  Si     11.570558     35.341819      7.676804
  Si     14.236377     33.807129      7.692824
  Si     14.252904     30.727052      7.735182
  O       9.996122     29.983199      8.522145
  O      10.182754     34.692042      8.247820
  O      12.921200     34.637345      8.237458
  O      13.012754     29.920176      8.343374
  O      11.405073     27.566596      7.819475
  O      14.322895     32.292834      8.261258
  O      11.347857     29.696337      6.524068
  O      11.571791     35.178185      6.046412
  O      14.096196     33.702785      6.059622
  O      14.099587     30.782411      6.100487
  Si     11.595648     38.515618      7.742434
  Si     14.251297     40.060278      7.849103
  O      10.222425     39.201771      8.332258
  O      12.944158     39.196537      8.338721
  O      11.561057     36.928777      8.095941
  O      14.086097     41.573158      8.428776
  O      11.644510     38.795873      6.127431
  O      14.320807     40.007934      6.206388
  Si     16.878324     26.044672      7.867031
  O      15.526131     25.270548      8.359567
  O      18.168733     25.238100      8.458883
  O      16.840313     26.046493      6.222071
  Si     16.993574     29.128205      7.788769
  Si     16.959355     35.433825      7.762294
  Si     19.603715     33.853954      7.872913
  Si     19.617078     30.755292      7.877869
  O      15.653082     29.973223      8.123367
  O      15.585946     34.629512      8.087553
  O      18.243002     34.629727      8.360770
  O      18.298968     29.926466      8.370863
  O      16.885114     27.604989      8.370607
  O      19.577974     32.307561      8.392045
  O      17.212620     28.932241      6.169016
  O      17.229371     35.528324      6.142706
  O      19.595874     33.798901      6.228640
  O      19.568242     30.767236      6.231221
  Si     16.930892     38.510270      7.846499
  O      15.632011     39.366794      8.367985
  O      18.325745     39.116860      8.421359
  O      16.846172     36.958482      8.341837
  O      16.885416     38.506748      6.201806
  O      20.963282     30.049830      8.463942
  O      20.938708     34.581903      8.458522
  H       4.074658     24.986772      8.036591
  H       1.410409     29.602015      8.036749
  H       1.410409     35.007985      8.036749
  H       4.074657     39.623228      8.036591
  H       8.948181     22.173255      8.038302
  H       8.948181     42.436745      8.038302
  H      14.277762     22.173204      8.038282
  H      14.277762     42.436796      8.038282
  H      18.960557     24.876228      8.036406
  H      18.960556     39.733772      8.036406
  H      21.624717     29.491420      8.036583
  H      21.624717     35.118580      8.036583
  H      13.345077     34.193519      5.698059
  H      10.777628     34.728546      5.713803
  H       9.121252     32.745262      5.824850
  H      10.042680     30.482890      6.071952
  H      12.197140     29.870253      6.103103
  H      14.143641     31.676710      5.736036
  H      13.493180     39.723375      5.793905
  H      10.805348     39.058079      5.729762
  H       8.101887     39.637676      5.809856
  H       6.123291     37.718639      5.766582
  H       5.255412     35.126697      5.699094
  H       3.576012     32.963714      5.826361
  H       4.164278     30.305707      5.852277
  H       5.909555     28.290097      5.779309
  H       6.988719     25.804661      5.851106
  H       9.526485     24.919532      5.798577
  H      12.214429     25.263152      5.713758
  H      14.996698     24.998673      5.832774
  H      16.996911     26.926947      5.847206
  H      17.865438     29.533770      5.787794
  H      19.634127     31.657215      5.858269
  H      18.904696     34.350972      5.834218
  H      17.069590     36.402713      5.764715
  H      16.123697     38.982785      5.841630
  P      11.738000     29.471712     11.237262
  O      11.697011     30.944185     11.231516
  O      11.566054     28.746294      9.901451
  O      13.061689     28.917395     11.917046
  O      10.643105     28.790027     12.182673
  C       9.342640     28.630766     11.653289
  C       8.296867     29.170696     12.602463
  O       8.557224     30.545547     12.945184
  C       6.931394     29.156340     11.940375
  O       5.923006     28.990781     12.903550
  C       6.858916     30.567604     11.354176
  O       5.549206     31.014021     11.145522
  C       7.547715     31.361888     12.459198
  N       8.151380     32.608523     12.003548
  C       9.469552     32.825003     11.652113
  N       9.683700     34.050860     11.240611
  C       8.466885     34.651276     11.308166
  C       8.049200     35.908119     10.875509
  N       8.837576     36.817804     10.319385
  N       6.722244     36.142367     11.058073
  C       5.857296     35.231120     11.600158
  N       6.192767     34.048141     11.986228
  C       7.494925     33.772809     11.795192
  H      13.649071     29.657335     12.098942
  H       9.259289     29.115554     10.676619
  H       9.151819     27.563680     11.502730
  H       8.288059     28.603028     13.534917
  H       6.868352     28.387118     11.160152
  H       5.144889     29.448361     12.558682
  H       7.456578     30.638856     10.442902
  H       5.280983     30.781619     10.246316
  H       6.813761     31.632345     13.228135
  H      10.226387     32.040908     11.694506
  H       9.767391     36.518696     10.061565
  H       8.468698     37.624287      9.837403
  H       4.829617     35.564527     11.677497
  H       6.322964     36.977478     10.650786
163
Coordinates from ORCA-job /data/Seafile/amp/protonated/frames/frame02/dry/amp_prot02 E -13464.791394713940
  Si      3.525477     33.936772      7.813276
  Si      3.425218     30.854667      7.859840
  O       2.326343     34.910373      8.330239
  O       2.058578     30.195501      8.438333
  O       3.440197     32.410762      8.374553
  O       3.604889     33.868788      6.173237
  O       3.492741     30.903006      6.222972
  Si      6.122704     26.207136      7.837148
  Si      8.732568     24.552266      7.821480
  O       4.667467     25.682668      8.349475
  O       7.390567     25.336849      8.371736
  O       8.568249     23.012781      8.337058
  O       6.212041     26.275050      6.196070
  O       8.665288     24.684603      6.181915
  Si      6.058534     29.263996      7.762506
  Si      6.154856     35.495178      7.694232
  Si      8.889969     33.851308      7.695968
  Si      8.850226     30.825698      7.790673
  O       4.772736     30.085914      8.410389
  O       4.905176     34.665993      8.325854
  O       7.558277     34.763765      8.017805
  O       7.377484     30.142222      8.064690
  O       6.196414     27.764727      8.374547
  O       8.717886     32.380951      8.358037
  O       5.710146     29.158316      6.162956
  O       5.908897     35.722343      6.091389
  O       9.086811     33.692366      6.079952
  O       9.154877     30.952974      6.191157
  Si      6.204015     38.578286      7.800808
  Si      8.922050     40.056772      7.831933
  O       4.943374     39.408238      8.406607
  O       7.570770     39.279275      8.374295
  O       6.199780     37.020923      8.325478
  O       9.003635     41.558071      8.438495
  O       6.276370     38.590148      6.167950
  O       8.901606     40.024077      6.193000
  Si     11.445629     25.984562      7.681514
  Si     14.162341     24.536772      7.829235
  O      10.099333     25.280279      8.329051
  O      12.825000     25.344350      8.291215
  O      13.993438     23.019059      8.406373
  O      11.364496     25.521289      6.094552
  O      14.217199     24.544930      6.182472
  Si     11.491389     29.198840      8.197457
  Si     11.569963     35.341223      7.675796
  Si     14.236286     33.806685      7.691998
  Si     14.254670     30.726533      7.737290
  O       9.995967     29.983289      8.525395
  O      10.181998     34.691467      8.246941
  O      12.920204     34.636104      8.236195
  O      13.015607     29.919941      8.349744
  O      11.403572     27.568259      7.825214
  O      14.324962     32.293116      8.261625
  O      11.350829     29.700206      6.528730
  O      11.570537     35.177035      6.045461
  O      14.095017     33.701393      6.058920
  O      14.100039     30.778192      6.102529
  Si     11.595431     38.515418      7.742032
  Si     14.250908     40.060160      7.848068
  O      10.222734     39.201963      8.332703
  O      12.944431     39.195600      8.338257
  O      11.560903     36.928331      8.094995
  O      14.082747     41.573155      8.427064
  O      11.643038     38.796121      6.127100
  O      14.321126     40.006483      6.205485
  Si     16.878632     26.044984      7.867635
  O      15.526256     25.271818      8.360907
  O      18.168073     25.236298      8.458960
  O      16.840139     26.047273      6.222898
  Si     16.995301     29.128229      7.789508
  Si     16.958813     35.434762      7.761574
  Si     19.603269     33.855170      7.872502
  Si     19.617784     30.756836      7.876735
  O      15.655631     29.974083      8.125589
  O      15.585571     34.629988      8.086438
  O      18.242875     34.631424      8.360700
  O      18.302073     29.924831      8.370879
  O      16.886296     27.605131      8.371770
  O      19.576605     32.308675      8.391401
  O      17.213077     28.932228      6.169740
  O      17.229185     35.530052      6.142170
  O      19.595619     33.800657      6.228305
  O      19.565726     30.768072      6.230313
  Si     16.930752     38.510793      7.845960
  O      15.632166     39.368098      8.367457
  O      18.326201     39.116134      8.420870
  O      16.844821     36.959226      8.341746
  O      16.886122     38.507412      6.201323
  O      20.967949     30.057504      8.460970
  O      20.938630     34.582281      8.458863
  H       4.074658     24.986772      8.036591
  H       1.410409     29.602015      8.036749
  H       1.410409     35.007985      8.036749
  H       4.074657     39.623228      8.036591
  H       8.948181     22.173255      8.038302
  H       8.948181     42.436745      8.038302
  H      14.277762     22.173204      8.038282
  H      14.277762     42.436796      8.038282
  H      18.960557     24.876228      8.036406
  H      18.960556     39.733772      8.036406
  H      21.624717     29.491420      8.036583
  H      21.624717     35.118580      8.036583
  H      13.343260     34.191575      5.698036
  H      10.776688     34.725963      5.713694
  H       9.119356     32.742490      5.826938
  H      10.042501     30.478955      6.074477
  H      12.198363     29.874730      6.107203
  H      14.142528     31.671557      5.736002
  H      13.493225     39.723570      5.792456
  H      10.803905     39.060851      5.731089
  H       8.101616     39.637976      5.810302
  H       6.123171     37.719828      5.766449
  H       5.253616     35.126155      5.701091
  H       3.575193     32.963632      5.827351
  H       4.166022     30.306600      5.852148
  H       5.910809     28.289752      5.780922
  H       6.988470     25.802255      5.851751
  H       9.529217     24.920334      5.801075
  H      12.215280     25.267131      5.716118
  H      14.996418     25.000296      5.833992
  H      16.996486     26.927609      5.847603
  H      17.865599     29.533851      5.788126
  H      19.632937     31.657397      5.856307
  H      18.904753     34.353008      5.833795
  H      17.070518     36.405021      5.765013
  H      16.123825     38.982068      5.840581
  P      11.738730     29.477473     11.241050
  O      11.700472     30.950394     11.231657
  O      11.564743     28.749335      9.906736
  O      13.062003     28.922078     11.922602
  O      10.643319     28.799315     12.188444
  C       9.343494     28.636483     11.658408
  C       8.297789     29.178320     12.606596
  O       8.558853     30.553530     12.945456
  C       6.932243     29.162248     11.944941
  O       5.924283     28.999538     12.909156
  C       6.860294     30.572080     11.354891
  O       5.550896     31.017991     11.145063
  C       7.549373     31.368650     12.458245
  N       8.154126     32.614231     12.001117
  C       9.472717     32.830577     11.650930
  N       9.687837     34.056876     11.242633
  C       8.470841     34.657154     11.306903
  C       8.053718     35.913923     10.874857
  N       8.842304     36.824558     10.322430
  N       6.726475     36.147944     11.055628
  C       5.860746     35.236592     11.595577
  N       6.195608     34.053251     11.980942
  C       7.498154     33.778422     11.791328
  H      13.653816     29.659891     12.098687
  H       9.260205     29.118818     10.679862
  H       9.154200     27.568321     11.510198
  H       8.288832     28.612395     13.540374
  H       6.868571     28.391055     11.166705
  H       5.146004     29.455156     12.562328
  H       7.458528     30.639773     10.443739
  H       5.282566     30.785046     10.246135
  H       6.815100     31.640490     13.226368
  H      10.229972     32.046877     11.695363
  H       9.772659     36.527376     10.069220
  H       8.472932     37.630740      9.840899
  H       4.833625     35.571037     11.674372
  H       6.328554     36.984150     10.652102
163
Coordinates from ORCA-job /data/Seafile/amp/protonated/frames/frame02/dry/amp_prot02 E -13464.791452346635
  Si      3.525200     33.936913      7.814039
  Si      3.425555     30.855401      7.859765
  O       2.325448     34.909013      8.332962
  O       2.053689     30.203137      8.434543
  O       3.442746     32.411016      8.375892
  O       3.602553     33.869029      6.174048
  O       3.496243     30.904672      6.223134
  Si      6.123582     26.206408      7.838436
  Si      8.734336     24.552634      7.823786
  O       4.667865     25.681726      8.350318
  O       7.390867     25.335730      8.373530
  O       8.572389     23.013285      8.340627
  O       6.213407     26.274520      6.197495
  O       8.668107     24.682326      6.184057
  Si      6.058169     29.263311      7.763966
  Si      6.154226     35.495608      7.691163
  Si      8.888304     33.850198      7.692257
  Si      8.849386     30.825098      7.792370
  O       4.770257     30.082499      8.412058
  O       4.904327     34.668305      8.324751
  O       7.557154     34.763066      8.014823
  O       7.375568     30.143134      8.067552
  O       6.196596     27.763793      8.376164
  O       8.715610     32.381489      8.358607
  O       5.711359     29.157461      6.164194
  O       5.907191     35.721316      6.088191
  O       9.084844     33.688056      6.076704
  O       9.155590     30.948703      6.192868
  Si      6.204486     38.579306      7.798276
  Si      8.923132     40.056894      7.830277
  O       4.943795     39.408346      8.405822
  O       7.571654     39.279386      8.372451
  O       6.201350     37.021646      8.321546
  O       9.007044     41.557775      8.437481
  O       6.276687     38.593101      6.165509
  O       8.903033     40.024716      6.191419
  Si     11.446244     25.987940      7.685025
  Si     14.161819     24.537769      7.829388
  O      10.099252     25.283656      8.331307
  O      12.824303     25.344009      8.293809
  O      13.992814     23.019241      8.405902
  O      11.365487     25.527818      6.097153
  O      14.216055     24.547492      6.182889
  Si     11.493429     29.201643      8.205202
  Si     11.569448     35.339733      7.670790
  Si     14.236274     33.804882      7.687821
  Si     14.258155     30.724612      7.738431
  O       9.994655     29.983703      8.529545
  O      10.180802     34.690795      8.241635
  O      12.918843     34.633492      8.231006
  O      13.021954     29.918499      8.358720
  O      11.402243     27.571304      7.832630
  O      14.328761     32.292563      8.259546
  O      11.354724     29.706850      6.536714
  O      11.569597     35.174741      6.040540
  O      14.093265     33.697305      6.055060
  O      14.100350     30.770619      6.103820
  Si     11.595410     38.514471      7.738457
  Si     14.249917     40.060066      7.844693
  O      10.223398     39.201387      8.330799
  O      12.944973     39.193271      8.335152
  O      11.560865     36.927026      8.090312
  O      14.074495     41.572907      8.422483
  O      11.640958     38.796604      6.123733
  O      14.322035     40.004146      6.202340
  Si     16.878684     26.044440      7.866520
  O      15.525362     25.273634      8.360586
  O      18.165455     25.231366      8.457922
  O      16.840246     26.047143      6.222119
  Si     16.999481     29.127450      7.787660
  Si     16.957328     35.436987      7.758304
  Si     19.602072     33.858366      7.870532
  Si     19.619514     30.760544      7.872376
  O      15.661097     29.974898      8.125886
  O      15.584850     34.630141      8.081410
  O      18.242148     34.635498      8.358902
  O      18.309114     29.920671      8.367811
  O      16.888959     27.604592      8.370822
  O      19.572839     32.311490      8.388212
  O      17.215330     28.931343      6.167721
  O      17.229004     35.534366      6.139247
  O      19.595840     33.805520      6.226433
  O      19.561158     30.770888      6.226269
  Si     16.930252     38.512205      7.843939
  O      15.632652     39.371741      8.365145
  O      18.327091     39.114226      8.419200
  O      16.840825     36.960936      8.339967
  O      16.887233     38.509623      6.199362
  O      20.978408     30.075200      8.452877
  O      20.937705     34.583714      8.459274
  H       4.074658     24.986772      8.036591
  H       1.410409     29.602015      8.036749
  H       1.410409     35.007985      8.036749
  H       4.074657     39.623228      8.036591
  H       8.948181     22.173255      8.038302
  H       8.948181     42.436745      8.038302
  H      14.277762     22.173204      8.038282
  H      14.277762     42.436796      8.038282
  H      18.960557     24.876228      8.036406
  H      18.960556     39.733772      8.036406
  H      21.624717     29.491420      8.036583
  H      21.624717     35.118580      8.036583
  H      13.340944     34.187031      5.694822
  H      10.775883     34.722661      5.709608
  H       9.119634     32.737072      5.826652
  H      10.041413     30.471879      6.078644
  H      12.202393     29.874538      6.111852
  H      14.140743     31.662439      5.733979
  H      13.493588     39.724636      5.788198
  H      10.801432     39.065210      5.730803
  H       8.103102     39.639520      5.807758
  H       6.123141     37.723822      5.762225
  H       5.249831     35.125648      5.700183
  H       3.573349     32.964063      5.827477
  H       4.169424     30.308655      5.851689
  H       5.913042     28.289141      5.781948
  H       6.988721     25.800965      5.851999
  H       9.531178     24.921597      5.803775
  H      12.215398     25.272811      5.717277
  H      14.995322     25.002239      5.833789
  H      16.995929     26.927357      5.846260
  H      17.866820     29.534002      5.785707
  H      19.632679     31.659052      5.850587
  H      18.905508     34.358328      5.831740
  H      17.072497     36.410650      5.764077
  H      16.123806     38.982009      5.837933
  P      11.740501     29.481370     11.246409
  O      11.704951     30.954753     11.233248
  O      11.565224     28.753464      9.912826
  O      13.062828     28.922287     11.929561
  O      10.645817     28.804475     12.196399
  C       9.346517     28.635990     11.666453
  C       8.301217     29.181570     12.613455
  O       8.564420     30.557357     12.947167
  C       6.934311     29.164712     11.953767
  O       5.927708     29.007625     12.920705
  C       6.863386     30.572618     11.358574
  O       5.554403     31.019191     11.148010
  C       7.554007     31.371586     12.459615
  N       8.157776     32.616817     12.000822
  C       9.475801     32.835613     11.649022
  N       9.688169     34.062196     11.240317
  C       8.470327     34.660888     11.307435
  C       8.050037     35.916813     10.876356
  N       8.834835     36.828756     10.320632
  N       6.722788     36.148479     11.061262
  C       5.859667     35.235532     11.602812
  N       6.197238     34.052279     11.986488
  C       7.500065     33.780361     11.793608
  H      13.664882     29.654882     12.090677
  H       9.263023     29.113579     10.685404
  H       9.159988     27.566386     11.522656
  H       8.292711     28.618053     13.548672
  H       6.867828     28.390613     11.178203
  H       5.148523     29.461375     12.572708
  H       7.462016     30.634400     10.447278
  H       5.285050     30.787568     10.249137
  H       6.819872     31.644211     13.227902
  H      10.234777     32.053493     11.691957
  H       9.765464     36.534126     10.065457
  H       8.461930     37.633351      9.838891
  H       4.832136     35.568545     11.684062
  H       6.323298     36.984963     10.660740
163
Coordinates from ORCA-job /data/Seafile/amp/protonated/frames/frame02/dry/amp_prot02 E -13464.791462736845
  Si      3.525376     33.937657      7.814976
  Si      3.425637     30.856389      7.858927
  O       2.324739     34.908338      8.334806
  O       2.050360     30.208884      8.431165
  O       3.444748     32.411548      8.376395
  O       3.602293     33.870600      6.174915
  O       3.497817     30.906443      6.222463
  Si      6.123670     26.206491      7.838253
  Si      8.734562     24.552788      7.823907
  O       4.667746     25.682067      8.350033
  O       7.390579     25.335454      8.373309
  O       8.574342     23.013750      8.342218
  O       6.213500     26.274382      6.197331
  O       8.668254     24.680420      6.184030
  Si      6.058075     29.263323      7.763596
  Si      6.154550     35.496112      7.691875
  Si      8.887839     33.849847      7.692203
  Si      8.849180     30.824744      7.792994
  O       4.768778     30.080957      8.411448
  O       4.904003     34.669999      8.325557
  O       7.557026     34.762809      8.015879
  O       7.374524     30.144117      8.068380
  O       6.196721     27.763820      8.375811
  O       8.715283     32.381368      8.359450
  O       5.712678     29.157712      6.163559
  O       5.907750     35.721403      6.088790
  O       9.083206     33.687921      6.076680
  O       9.154621     30.948410      6.193524
  Si      6.204881     38.579907      7.798480
  Si      8.923939     40.056960      7.830431
  O       4.943989     39.408880      8.405818
  O       7.572026     39.280171      8.372705
  O       6.202391     37.022380      8.321659
  O       9.009454     41.557871      8.437252
  O       6.277235     38.593885      6.165714
  O       8.903708     40.024481      6.191545
  Si     11.445990     25.989697      7.684380
  Si     14.160821     24.537927      7.827818
  O      10.098714     25.285634      8.330493
  O      12.823364     25.344029      8.292542
  O      13.991355     23.019398      8.404282
  O      11.365262     25.531431      6.096018
  O      14.215351     24.548260      6.181400
  Si     11.495176     29.203095      8.207009
  Si     11.569716     35.338716      7.669890
  Si     14.236612     33.803256      7.687697
  Si     14.260716     30.723099      7.741838
  O       9.994419     29.983079      8.529543
  O      10.180806     34.690288      8.240561
  O      12.918822     34.632056      8.229892
  O      13.025644     29.916679      8.363962
  O      11.403356     27.572969      7.834151
  O      14.330570     32.291663      8.260890
  O      11.359616     29.710433      6.539594
  O      11.569808     35.173692      6.039566
  O      14.092771     33.693823      6.055159
  O      14.103126     30.767573      6.107300
  Si     11.595357     38.513551      7.737771
  Si     14.248979     40.059938      7.843088
  O      10.223699     39.200742      8.331047
  O      12.945320     39.191677      8.334270
  O      11.561135     36.926087      8.089328
  O      14.068087     41.572874      8.418993
  O      11.639399     38.796077      6.123094
  O      14.322095     40.001726      6.200830
  Si     16.878345     26.043422      7.865724
  O      15.523929     25.274286      8.359314
  O      18.162862     25.226648      8.456937
  O      16.840537     26.047340      6.221376
  Si     17.002260     29.126579      7.788352
  Si     16.955995     35.438569      7.757660
  Si     19.601027     33.860914      7.869921
  Si     19.620488     30.763409      7.869925
  O      15.664859     29.974863      8.129032
  O      15.584645     34.629883      8.080217
  O      18.241589     34.638661      8.358630
  O      18.314513     29.917206      8.366803
  O      16.891076     27.603393      8.370819
  O      19.569797     32.313744      8.386615
  O      17.215397     28.931547      6.168052
  O      17.227616     35.536848      6.138681
  O      19.595523     33.809377      6.225821
  O      19.556142     30.773477      6.223965
  Si     16.929697     38.513285      7.843376
  O      15.633166     39.374996      8.364131
  O      18.327786     39.112851      8.418228
  O      16.837587     36.962356      8.339774
  O      16.887081     38.510893      6.198792
  O      20.986679     30.088977      8.446264
  O      20.936865     34.585162      8.459781
  H       4.074658     24.986772      8.036591
  H       1.410409     29.602015      8.036749
  H       1.410409     35.007985      8.036749
  H       4.074657     39.623228      8.036591
  H       8.948181     22.173255      8.038302
  H       8.948181     42.436745      8.038302
  H      14.277762     22.173204      8.038282
  H      14.277762     42.436796      8.038282
  H      18.960557     24.876228      8.036406
  H      18.960556     39.733772      8.036406
  H      21.624717     29.491420      8.036583
  H      21.624717     35.118580      8.036583
  H      13.340960     34.184548      5.694909
  H      10.775521     34.722767      5.708672
  H       9.115695     32.737226      5.826436
  H      10.039613     30.471122      6.078847
  H      12.207047     29.876570      6.114116
  H      14.144329     31.659134      5.736665
  H      13.493250     39.723934      5.786284
  H      10.799568     39.067048      5.732118
  H       8.103826     39.639430      5.807763
  H       6.124029     37.724810      5.761963
  H       5.249215     35.126386      5.701660
  H       3.574090     32.965845      5.827792
  H       4.171243     30.310974      5.850714
  H       5.913801     28.289248      5.781312
  H       6.988518     25.800750      5.851480
  H       9.531026     24.921475      5.804019
  H      12.214485     25.273906      5.716179
  H      14.995207     25.002333      5.832527
  H      16.996126     26.927834      5.845996
  H      17.865663     29.535418      5.785694
  H      19.631547     31.660898      5.847377
  H      18.904991     34.362076      5.831279
  H      17.072425     36.413947      5.764681
  H      16.122730     38.981880      5.837354
  P      11.742169     29.485176     11.248025
  O      11.707852     30.958296     11.231114
  O      11.563065     28.755315      9.915452
  O      13.063228     28.926562     11.932600
  O      10.648415     28.811203     12.200475
  C       9.348431     28.640137     11.671933
  C       8.302996     29.187206     12.617920
  O       8.565961     30.563854     12.947467
  C       6.936080     29.167983     11.959033
  O       5.929962     29.014184     12.926720
  C       6.865339     30.573903     11.359016
  O       5.556793     31.019930     11.146418
  C       7.555369     31.376330     12.457731
  N       8.159133     32.620349     11.996408
  C       9.477217     32.837595     11.644395
  N       9.690704     34.063593     11.234802
  C       8.473703     34.663703     11.302208
  C       8.055215     35.920221     10.871853
  N       8.841577     36.831277     10.317173
  N       6.728376     36.153872     11.057412
  C       5.864310     35.242058     11.598910
  N       6.200230     34.058246     11.981942
  C       7.502500     33.784472     11.788750
  H      13.674026     29.655685     12.076883
  H       9.263715     29.114815     10.689554
  H       9.163439     27.569987     11.530670
  H       8.295403     28.626053     13.554571
  H       6.869230     28.391410     11.186203
  H       5.150540     29.465840     12.577012
  H       7.464818     30.631355     10.448134
  H       5.287959     30.788395     10.247496
  H       6.820979     31.650431     13.225015
  H      10.235649     32.055030     11.688352
  H       9.772120     36.535318     10.062401
  H       8.470544     37.636562      9.837424
  H       4.837423     35.576573     11.680731
  H       6.330214     36.991386     10.658399
163
Coordinates from ORCA-job /data/Seafile/amp/protonated/frames/frame02/dry/amp_prot02 E -13464.791490645073
  Si      3.525476     33.938252      7.817193
  Si      3.426383     30.857162      7.860290
  O       2.323896     34.907888      8.337291
  O       2.048198     30.212556      8.429156
  O       3.446347     32.412074      8.378845
  O       3.602014     33.871292      6.177022
  O       3.500783     30.908182      6.224003
  Si      6.123738     26.206421      7.839597
  Si      8.734568     24.552330      7.825199
  O       4.668070     25.681264      8.351404
  O       7.390567     25.335297      8.374164
  O       8.575791     23.013486      8.345060
  O       6.213294     26.274583      6.198558
  O       8.668090     24.677941      6.185052
  Si      6.058721     29.263351      7.765817
  Si      6.155026     35.496251      7.693746
  Si      8.887817     33.849109      7.695663
  Si      8.849966     30.824169      7.798145
  O       4.768220     30.079896      8.413185
  O       4.903748     34.671453      8.327467
  O       7.556801     34.762313      8.018891
  O       7.374520     30.144321      8.072873
  O       6.196633     27.763598      8.377151
  O       8.715348     32.381087      8.364764
  O       5.715235     29.158929      6.165345
  O       5.908643     35.720919      6.090519
  O       9.083167     33.687060      6.080298
  O       9.155658     30.948560      6.199008
  Si      6.205157     38.580220      7.798902
  Si      8.924843     40.056866      7.830859
  O       4.943814     39.408520      8.406103
  O       7.572094     39.281250      8.372984
  O       6.203656     37.023065      8.322172
  O       9.012305     41.557906      8.436860
  O       6.277472     38.594227      6.166092
  O       8.904492     40.023756      6.191938
  Si     11.445254     25.991343      7.685226
  Si     14.159714     24.538013      7.826904
  O      10.098348     25.286052      8.330989
  O      12.822452     25.344197      8.291640
  O      13.990942     23.019677      8.403381
  O      11.364087     25.536636      6.096030
  O      14.214207     24.548882      6.180521
  Si     11.496852     29.204274      8.212271
  Si     11.570137     35.337397      7.672865
  Si     14.236893     33.801471      7.691674
  Si     14.263121     30.721575      7.748036
  O       9.995185     29.982174      8.533478
  O      10.180783     34.690001      8.243090
  O      12.918640     34.630164      8.232996
  O      13.029434     29.914691      8.371265
  O      11.404362     27.574279      7.838450
  O      14.332408     32.290352      8.265361
  O      11.362536     29.713343      6.545772
  O      11.570846     35.172398      6.042373
  O      14.092279     33.690400      6.059347
  O      14.105267     30.766368      6.113600
  Si     11.595429     38.512239      7.739038
  Si     14.247942     40.059670      7.842944
  O      10.223644     39.199678      8.332328
  O      12.945347     39.190482      8.335302
  O      11.561851     36.925057      8.091162
  O      14.062378     41.573047      8.416037
  O      11.638353     38.794101      6.124249
  O      14.321682     39.998526      6.200759
  Si     16.878002     26.042188      7.865894
  O      15.522229     25.275102      8.358782
  O      18.160425     25.221707      8.456467
  O      16.840892     26.047474      6.221481
  Si     17.005292     29.125452      7.790688
  Si     16.954410     35.440061      7.759982
  Si     19.599817     33.863537      7.870678
  Si     19.621213     30.766457      7.868551
  O      15.668828     29.974419      8.133545
  O      15.584231     34.629981      8.082417
  O      18.241110     34.641864      8.360478
  O      18.320179     29.913631      8.367490
  O      16.893460     27.601883      8.372145
  O      19.566909     32.316057      8.386308
  O      17.215842     28.931714      6.170082
  O      17.225140     35.538805      6.140973
  O      19.594013     33.813717      6.226544
  O      19.549349     30.776678      6.222660
  Si     16.929085     38.514173      7.844657
  O      15.633524     39.378094      8.364566
  O      18.328517     39.111936      8.418192
  O      16.834614     36.963905      8.342175
  O      16.886335     38.511220      6.199993
  O      20.995404     30.103122      8.439062
  O      20.936675     34.585938      8.460670
  H       4.074658     24.986772      8.036591
  H       1.410409     29.602015      8.036749
  H       1.410409     35.007985      8.036749
  H       4.074657     39.623228      8.036591
  H       8.948181     22.173255      8.038302
  H       8.948181     42.436745      8.038302
  H      14.277762     22.173204      8.038282
  H      14.277762     42.436796      8.038282
  H      18.960557     24.876228      8.036406
  H      18.960556     39.733772      8.036406
  H      21.624717     29.491420      8.036583
  H      21.624717     35.118580      8.036583
  H      13.340912     34.181868      5.699137
  H      10.776432     34.722240      5.711155
  H       9.115533     32.736606      5.829591
  H      10.041261     30.472346      6.083956
  H      12.210014     29.877022      6.118536
  H      14.146210     31.658041      5.743299
  H      13.492395     39.722326      5.786004
  H      10.798220     39.066760      5.734854
  H       8.104757     39.638375      5.808227
  H       6.124102     37.725234      5.762139
  H       5.249450     35.126126      5.704094
  H       3.575147     32.966352      5.830120
  H       4.174211     30.312499      5.852477
  H       5.914893     28.290186      5.782995
  H       6.987727     25.800320      5.852319
  H       9.530846     24.920913      5.805807
  H      12.212682     25.276661      5.716148
  H      14.994216     25.002981      5.832009
  H      16.996505     26.928323      5.846881
  H      17.864264     29.537599      5.787558
  H      19.628899     31.663378      5.845332
  H      18.902974     34.366452      5.832781
  H      17.070528     36.416479      5.767875
  H      16.120809     38.980458      5.838711
  P      11.744840     29.487888     11.252151
  O      11.709203     30.961036     11.231263
  O      11.563311     28.755755      9.921052
  O      13.065830     28.931361     11.937259
  O      10.652857     28.816132     12.207980
  C       9.352703     28.641540     11.680905
  C       8.306839     29.187947     12.626481
  O       8.568174     30.565509     12.954030
  C       6.939789     29.166410     11.968871
  O       5.934846     29.014123     12.937405
  C       6.867749     30.570879     11.365607
  O       5.559178     31.016025     11.152067
  C       7.556953     31.376178     12.462464
  N       8.158769     32.620108     11.999161
  C       9.476214     32.837613     11.645497
  N       9.688851     34.063886     11.235875
  C       8.471641     34.663464     11.304732
  C       8.052108     35.919888     10.874445
  N       8.837948     36.830989     10.318924
  N       6.725307     36.153243     11.060794
  C       5.862466     35.241314     11.603503
  N       6.199352     34.057751     11.986535
  C       7.501266     33.783971     11.792450
  H      13.683540     29.657489     12.067005
  H       9.266065     29.114362     10.697837
  H       9.170469     27.570830     11.541294
  H       8.301202     28.628142     13.563826
  H       6.872853     28.388166     11.198105
  H       5.154512     29.463745     12.587382
  H       7.467412     30.625496     10.454875
  H       5.290905     30.786471     10.252637
  H       6.822432     31.650696     13.229260
  H      10.235217     32.055503     11.689001
  H       9.768294     36.534870     10.064106
  H       8.466181     37.635373      9.836641
  H       4.835358     35.575195     11.685480
  H       6.326110     36.991001     10.662223
163
Coordinates from ORCA-job /data/Seafile/amp/protonated/frames/frame02/dry/amp_prot02 E -13464.791505335792
  Si      3.525166     33.938457      7.817176
  Si      3.427141     30.857359      7.860095
  O       2.323709     34.907795      8.338378
  O       2.048943     30.212296      8.428266
  O       3.446948     32.412230      8.379283
  O       3.599850     33.871316      6.176915
  O       3.501469     30.909291      6.223916
  Si      6.123597     26.205864      7.839332
  Si      8.734410     24.551174      7.824767
  O       4.669028     25.679844      8.352927
  O       7.391161     25.335594      8.373174
  O       8.576529     23.012946      8.347484
  O       6.211573     26.272912      6.198114
  O       8.667041     24.674040      6.184315
  Si      6.059448     29.263077      7.764124
  Si      6.155212     35.495930      7.691598
  Si      8.888067     33.848259      7.692111
  Si      8.851107     30.823350      7.795600
  O       4.769314     30.080236      8.411811
  O       4.904061     34.671553      8.326054
  O       7.556841     34.761334      8.015667
  O       7.375718     30.143586      8.071144
  O       6.196600     27.763417      8.375266
  O       8.716162     32.380452      8.362510
  O       5.715668     29.158803      6.163584
  O       5.907117     35.721566      6.088607
  O       9.082452     33.686529      6.076821
  O       9.156500     30.948275      6.196801
  Si      6.204955     38.579970      7.797674
  Si      8.925136     40.056760      7.828946
  O       4.943229     39.406486      8.406196
  O       7.571742     39.282038      8.371003
  O       6.205052     37.022820      8.319894
  O       9.015012     41.557372      8.435340
  O       6.276122     38.595078      6.164797
  O       8.903435     40.024512      6.190033
  Si     11.444594     25.991408      7.682022
  Si     14.159418     24.537642      7.824712
  O      10.098664     25.285007      8.328787
  O      12.822169     25.344690      8.287488
  O      13.992118     23.020311      8.402794
  O      11.362422     25.537495      6.092546
  O      14.214116     24.546988      6.178314
  Si     11.497975     29.203706      8.209166
  Si     11.570492     35.336658      7.668234
  Si     14.237434     33.800604      7.686804
  Si     14.264640     30.720548      7.744087
  O       9.996758     29.980984      8.529139
  O      10.181134     34.689786      8.238195
  O      12.918818     34.628769      8.227827
  O      13.031630     29.913539      8.367414
  O      11.405423     27.574354      7.835710
  O      14.333542     32.289434      8.259888
  O      11.363801     29.711596      6.542829
  O      11.571608     35.172982      6.037398
  O      14.093234     33.689088      6.054506
  O      14.107116     30.766144      6.109693
  Si     11.595349     38.511545      7.735738
  Si     14.247120     40.059579      7.840956
  O      10.223122     39.197944      8.329717
  O      12.944818     39.189723      8.332937
  O      11.562739     36.924206      8.086437
  O      14.059018     41.572740      8.413235
  O      11.637797     38.794890      6.121080
  O      14.321708     39.997827      6.198817
  Si     16.878124     26.041090      7.864328
  O      15.521097     25.276138      8.356746
  O      18.159022     25.219066      8.455816
  O      16.842368     26.045401      6.219783
  Si     17.007735     29.124320      7.787713
  Si     16.953888     35.441311      7.756961
  Si     19.599428     33.865293      7.868794
  Si     19.621616     30.768600      7.865316
  O      15.671223     29.974061      8.129060
  O      15.583843     34.630511      8.077236
  O      18.240613     34.643861      8.357929
  O      18.323579     29.911436      8.364924
  O      16.894926     27.601116      8.369841
  O      19.564777     32.317628      8.383751
  O      17.219214     28.929813      6.167334
  O      17.225870     35.541462      6.138167
  O      19.595025     33.817057      6.224685
  O      19.545000     30.778981      6.219343
  Si     16.928822     38.514977      7.843470
  O      15.633386     39.379577      8.362721
  O      18.328677     39.111312      8.417395
  O      16.832783     36.964759      8.340383
  O      16.886673     38.513012      6.198670
  O      21.001133     30.113210      8.432359
  O      20.936688     34.585576      8.460191
  H       4.074658     24.986772      8.036591
  H       1.410409     29.602015      8.036749
  H       1.410409     35.007985      8.036749
  H       4.074657     39.623228      8.036591
  H       8.948181     22.173255      8.038302
  H       8.948181     42.436745      8.038302
  H      14.277762     22.173204      8.038282
  H      14.277762     42.436796      8.038282
  H      18.960557     24.876228      8.036406
  H      18.960556     39.733772      8.036406
  H      21.624717     29.491420      8.036583
  H      21.624717     35.118580      8.036583
  H      13.342474     34.181297      5.693994
  H      10.777289     34.723120      5.705676
  H       9.115467     32.736264      5.825233
  H      10.043292     30.473282      6.081062
  H      12.211515     29.873482      6.114075
  H      14.147227     31.658232      5.740090
  H      13.492552     39.722214      5.783519
  H      10.797543     39.068818      5.732947
  H       8.103518     39.638804      5.806846
  H       6.122747     37.726215      5.760603
  H       5.247741     35.126714      5.702672
  H       3.573579     32.965961      5.830814
  H       4.175107     30.313959      5.852316
  H       5.913678     28.289421      5.781675
  H       6.985005     25.797167      5.851630
  H       9.529356     24.919234      5.805496
  H      12.210565     25.274993      5.713381
  H      14.994166     25.001022      5.829949
  H      16.997612     26.926151      5.845056
  H      17.866487     29.537239      5.785200
  H      19.627995     31.665138      5.841602
  H      18.903373     34.369109      5.831059
  H      17.072183     36.419742      5.766040
  H      16.120611     38.981758      5.837705
  P      11.751354     29.492637     11.246694
  O      11.714614     30.965659     11.221460
  O      11.566286     28.757107      9.917875
  O      13.073899     28.938175     11.930079
  O      10.661459     28.823693     12.205978
  C       9.361017     28.646572     11.680854
  C       8.315556     29.191570     12.627884
  O       8.574521     30.570344     12.954179
  C       6.947096     29.166915     11.973329
  O       5.944427     29.016119     12.944748
  C       6.872647     30.569833     11.366734
  O       5.563366     31.013204     11.153947
  C       7.561990     31.378662     12.460993
  N       8.161757     32.622298     11.994508
  C       9.478376     32.839090     11.638007
  N       9.690882     34.065194     11.227298
  C       8.474111     34.665172     11.298740
  C       8.054967     35.922229     10.869672
  N       8.841569     36.832803     10.313526
  N       6.728698     36.156711     11.058365
  C       5.866130     35.245262     11.602492
  N       6.202902     34.061536     11.985124
  C       7.504089     33.786386     11.788829
  H      13.694542     29.662724     12.052572
  H       9.272192     29.118811     10.697885
  H       9.180434     27.575414     11.541919
  H       8.313396     28.633101     13.566096
  H       6.879118     28.386486     11.204541
  H       5.162424     29.463692     12.595802
  H       7.471117     30.622671     10.454926
  H       5.295027     30.785138     10.254145
  H       6.827971     31.654139     13.228052
  H      10.237048     32.056657     11.679700
  H       9.771277     36.534405     10.056334
  H       8.470715     37.636813      9.830741
  H       4.839117     35.579421     11.685519
  H       6.329430     36.995184     10.661260
163
Coordinates from ORCA-job /data/Seafile/amp/protonated/frames/frame02/dry/amp_prot02 E -13464.791501598389
  Si      3.524879     33.938171      7.818279
  Si      3.427787     30.857065      7.861049
  O       2.323302     34.907446      8.339382
  O       2.050701     30.209928      8.429202
  O       3.446636     32.411892      8.380580
  O       3.599364     33.870983      6.177991
  O       3.501944     30.909627      6.224812
  Si      6.123628     26.205306      7.839655
  Si      8.734663     24.550399      7.824649
  O       4.670057     25.678182      8.354609
  O       7.392090     25.335860      8.372775
  O       8.576799     23.012533      8.348987
  O       6.210363     26.272216      6.198284
  O       8.666892     24.672029      6.184031
  Si      6.060245     29.262925      7.764656
  Si      6.155284     35.495292      7.693100
  Si      8.888337     33.847743      7.694103
  Si      8.852026     30.823057      7.796531
  O       4.770589     30.080770      8.412218
  O       4.903964     34.670946      8.327272
  O       7.556650     34.760395      8.017275
  O       7.377025     30.142707      8.072138
  O       6.196598     27.763023      8.375063
  O       8.717158     32.379759      8.364232
  O       5.716839     29.159462      6.163976
  O       5.907254     35.721061      6.090146
  O       9.082514     33.686359      6.078824
  O       9.157652     30.948669      6.197905
  Si      6.204778     38.579358      7.798626
  Si      8.925005     40.056548      7.829500
  O       4.942469     39.404933      8.406999
  O       7.571130     39.282618      8.371528
  O       6.205512     37.022334      8.320950
  O       9.016111     41.557367      8.435144
  O       6.275834     38.594264      6.165668
  O       8.903122     40.023928      6.190584
  Si     11.444718     25.991059      7.681031
  Si     14.160005     24.537398      7.824615
  O      10.099458     25.283785      8.328062
  O      12.822623     25.344859      8.286019
  O      13.993921     23.020596      8.403400
  O      11.361762     25.538040      6.091348
  O      14.214742     24.545649      6.178158
  Si     11.498394     29.203314      8.208673
  Si     11.570482     35.336372      7.670505
  Si     14.237410     33.800794      7.688757
  Si     14.265115     30.720624      7.744558
  O       9.998061     29.980241      8.528897
  O      10.181128     34.689730      8.240052
  O      12.918724     34.628275      8.230264
  O      13.031809     29.913265      8.366578
  O      11.406118     27.573929      7.835207
  O      14.333759     32.289221      8.260748
  O      11.364114     29.711575      6.542534
  O      11.572305     35.173101      6.039545
  O      14.093434     33.689455      6.056392
  O      14.107960     30.767610      6.110120
  Si     11.595114     38.511150      7.737155
  Si     14.246577     40.059426      7.841706
  O      10.222479     39.197152      8.330660
  O      12.944279     39.189961      8.334342
  O      11.563105     36.923945      8.088045
  O      14.058524     41.572824      8.413001
  O      11.637725     38.793929      6.122392
  O      14.320946     39.996781      6.199564
  Si     16.878521     26.041046      7.864761
  O      15.521125     25.276747      8.356903
  O      18.159000     25.218452      8.456232
  O      16.843305     26.045271      6.220104
  Si     17.008468     29.124114      7.788258
  Si     16.953598     35.441810      7.758314
  Si     19.599239     33.865941      7.869083
  Si     19.621409     30.769517      7.864905
  O      15.671964     29.974048      8.129029
  O      15.583534     34.631260      8.078660
  O      18.240598     34.644536      8.358649
  O      18.324769     29.910812      8.365638
  O      16.895718     27.601030      8.370444
  O      19.564018     32.318206      8.383871
  O      17.220068     28.929412      6.168012
  O      17.224923     35.541908      6.139443
  O      19.594602     33.818662      6.224982
  O      19.541794     30.780097      6.218921
  Si     16.928619     38.515284      7.844374
  O      15.633155     39.379944      8.363374
  O      18.328574     39.111699      8.417904
  O      16.832661     36.965246      8.341793
  O      16.886237     38.512918      6.199510
  O      21.003372     30.117206      8.429631
  O      20.937219     34.584910      8.460225
  H       4.074658     24.986772      8.036591
  H       1.410409     29.602015      8.036749
  H       1.410409     35.007985      8.036749
  H       4.074657     39.623228      8.036591
  H       8.948181     22.173255      8.038302
  H       8.948181     42.436745      8.038302
  H      14.277762     22.173204      8.038282
  H      14.277762     42.436796      8.038282
  H      18.960557     24.876228      8.036406
  H      18.960556     39.733772      8.036406
  H      21.624717     29.491420      8.036583
  H      21.624717     35.118580      8.036583
  H      13.343142     34.182064      5.695574
  H      10.778150     34.723457      5.707294
  H       9.116013     32.736347      5.826520
  H      10.044898     30.474435      6.081526
  H      12.210839     29.876859      6.114911
  H      14.146892     31.660225      5.741514
  H      13.491832     39.720839      5.784391
  H      10.797371     39.067270      5.733900
  H       8.103654     39.636996      5.807826
  H       6.122533     37.725156      5.761955
  H       5.248682     35.125660      5.703689
  H       3.573765     32.965412      5.832420
  H       4.175775     30.314502      5.853253
  H       5.914660     28.290048      5.781919
  H       6.983556     25.796510      5.851481
  H       9.529121     24.917724      5.805219
  H      12.210023     25.275304      5.712568
  H      14.994829     24.999563      5.829719
  H      16.998776     26.926059      5.845490
  H      17.866299     29.537929      5.785694
  H      19.625966     31.666050      5.841009
  H      18.902233     34.370210      5.831845
  H      17.071231     36.420145      5.767204
  H      16.119803     38.981237      5.838756
  P      11.753453     29.493897     11.244876
  O      11.714253     30.966774     11.216982
  O      11.567862     28.756058      9.917431
  O      13.077894     28.941890     11.926869
  O      10.665162     28.825349     12.206798
  C       9.364436     28.646267     11.682975
  C       8.318864     29.188786     12.630893
  O       8.575008     30.567764     12.958869
  C       6.950709     29.162776     11.976285
  O       5.948408     29.010113     12.947121
  C       6.874242     30.565612     11.370028
  O       5.564328     31.007455     11.157350
  C       7.562310     31.375170     12.464376
  N       8.160918     32.619413     11.997821
  C       9.477359     32.837257     11.641597
  N       9.688932     34.063464     11.230339
  C       8.471732     34.662518     11.302104
  C       8.051558     35.919384     10.872914
  N       8.837526     36.830510     10.316580
  N       6.725258     36.152995     11.061793
  C       5.863405     35.241021     11.606369
  N       6.201145     34.057518     11.989034
  C       7.502437     33.783116     11.792520
  H      13.698181     29.666924     12.048305
  H       9.273770     29.119017     10.700317
  H       9.185007     27.575022     11.543863
  H       8.317980     28.629493     13.568394
  H       6.884083     28.382674     11.207511
  H       5.165764     29.456096     12.597890
  H       7.472326     30.619621     10.458105
  H       5.296797     30.781221     10.256858
  H       6.827696     31.650433     13.230818
  H      10.236507     32.055288     11.682840
  H       9.767005     36.532378     10.059360
  H       8.465757     37.633649      9.832071
  H       4.836179     35.574426     11.689781
  H       6.325004     36.991450     10.664811
163
Coordinates from ORCA-job /data/Seafile/amp/protonated/frames/frame02/dry/amp_prot02 E -13464.791521176501
  Si      3.524677     33.937924      7.818515
  Si      3.428129     30.856875      7.861366
  O       2.323243     34.907334      8.339666
  O       2.052576     30.207550      8.430117
  O       3.446081     32.411658      8.381051
  O       3.598930     33.870616      6.178238
  O       3.502014     30.909662      6.224980
  Si      6.123676     26.204931      7.840031
  Si      8.734949     24.549793      7.825033
  O       4.670995     25.676719      8.356239
  O       7.393001     25.336281      8.372734
  O       8.576594     23.012093      8.350394
  O       6.209472     26.271715      6.198522
  O       8.667261     24.670831      6.184311
  Si      6.060706     29.263037      7.765095
  Si      6.155401     35.494733      7.693945
  Si      8.888626     33.847198      7.695032
  Si      8.852816     30.822904      7.796764
  O       4.771558     30.081549      8.412342
  O       4.904083     34.670055      8.327782
  O       7.556628     34.759528      8.017880
  O       7.378171     30.142142      8.072507
  O       6.196577     27.762892      8.374914
  O       8.718362     32.379161      8.364797
  O       5.717413     29.160084      6.164342
  O       5.907364     35.720924      6.091073
  O       9.082383     33.685286      6.079717
  O       9.159482     30.948035      6.198252
  Si      6.204642     38.578753      7.799469
  Si      8.924811     40.056291      7.829812
  O       4.941722     39.403301      8.407814
  O       7.570536     39.283150      8.371917
  O       6.205945     37.021693      8.321854
  O       9.017435     41.557272      8.434842
  O       6.275577     38.593389      6.166432
  O       8.902553     40.023652      6.190895
  Si     11.445058     25.990423      7.681681
  Si     14.160995     24.537334      7.826000
  O      10.100260     25.282456      8.328552
  O      12.823264     25.344717      8.286450
  O      13.996611     23.020724      8.405096
  O      11.361279     25.537704      6.091825
  O      14.215502     24.544382      6.179453
  Si     11.498499     29.202736      8.208738
  Si     11.570403     35.336098      7.671309
  Si     14.237363     33.801172      7.688999
  Si     14.265721     30.720619      7.743806
  O       9.999026     29.979929      8.529011
  O      10.181229     34.689552      8.240809
  O      12.918705     34.627849      8.231293
  O      13.032146     29.912823      8.365153
  O      11.406020     27.573286      7.835625
  O      14.334081     32.289235      8.260305
  O      11.363924     29.711444      6.542511
  O      11.572545     35.172901      6.040295
  O      14.093556     33.689843      6.056534
  O      14.108301     30.767897      6.109282
  Si     11.594844     38.510853      7.737699
  Si     14.245941     40.059372      7.841855
  O      10.221894     39.196243      8.330945
  O      12.943772     39.190122      8.335015
  O      11.563447     36.923617      8.088429
  O      14.057952     41.572849      8.412612
  O      11.637871     38.793477      6.122886
  O      14.320124     39.996169      6.199723
  Si     16.879076     26.041405      7.865640
  O      15.521608     25.277700      8.358201
  O      18.159327     25.218377      8.456981
  O      16.844105     26.045167      6.220935
  Si     17.009348     29.124138      7.788135
  Si     16.953423     35.442528      7.758289
  Si     19.599073     33.866631      7.868570
  Si     19.621272     30.770558      7.863571
  O      15.673024     29.974657      8.128116
  O      15.583130     34.632255      8.078596
  O      18.240475     34.645178      8.358259
  O      18.326222     29.910176      8.365723
  O      16.896657     27.601436      8.371055
  O      19.562947     32.318856      8.383248
  O      17.221163     28.928664      6.168054
  O      17.224341     35.542727      6.139342
  O      19.594737     33.820442      6.224503
  O      19.538869     30.781269      6.217644
  Si     16.928374     38.515852      7.844460
  O      15.632842     39.380330      8.363397
  O      18.328153     39.112337      8.418218
  O      16.832708     36.965790      8.342100
  O      16.886117     38.513430      6.199560
  O      21.005725     30.121742      8.426176
  O      20.937554     34.584269      8.459922
  H       4.074658     24.986772      8.036591
  H       1.410409     29.602015      8.036749
  H       1.410409     35.007985      8.036749
  H       4.074657     39.623228      8.036591
  H       8.948181     22.173255      8.038302
  H       8.948181     42.436745      8.038302
  H      14.277762     22.173204      8.038282
  H      14.277762     42.436796      8.038282
  H      18.960557     24.876228      8.036406
  H      18.960556     39.733772      8.036406
  H      21.624717     29.491420      8.036583
  H      21.624717     35.118580      8.036583
  H      13.343775     34.182740      5.695179
  H      10.778533     34.723280      5.707715
  H       9.117013     32.735215      5.827412
  H      10.047497     30.474464      6.082718
  H      12.211817     29.874558      6.115339
  H      14.145324     31.660854      5.741160
  H      13.490997     39.720124      5.784629
  H      10.797634     39.066134      5.733699
  H       8.103343     39.635671      5.808603
  H       6.121741     37.724061      5.763319
  H       5.249815     35.125031      5.703747
  H       3.573616     32.964801      5.833141
  H       4.175749     30.314246      5.853535
  H       5.915100     28.290703      5.782274
  H       6.982544     25.796100      5.851481
  H       9.529666     24.916004      5.805387
  H      12.210082     25.276515      5.713204
  H      14.995182     24.998496      5.830480
  H      16.999696     26.925860      5.846055
  H      17.866005     29.538361      5.785074
  H      19.624219     31.666988      5.839432
  H      18.901832     34.371530      5.831605
  H      17.070614     36.420859      5.766841
  H      16.119421     38.981457      5.838910
  P      11.755510     29.495688     11.243602
  O      11.716007     30.968822     11.214429
  O      11.570454     28.755799      9.917005
  O      13.080010     28.944790     11.925310
  O      10.667428     28.827925     12.205791
  C       9.366793     28.647957     11.682696
  C       8.321561     29.189378     12.631941
  O       8.576019     30.568823     12.960677
  C       6.952959     29.162113     11.977910
  O       5.950745     29.009766     12.949479
  C       6.875929     30.564587     11.370775
  O       5.565472     31.005258     11.158112
  C       7.563468     31.375460     12.464643
  N       8.161940     32.619755     11.997270
  C       9.478563     32.838247     11.642047
  N       9.689948     34.064849     11.231963
  C       8.472336     34.663197     11.302207
  C       8.051855     35.920211     10.873513
  N       8.837787     36.832372     10.319206
  N       6.725326     36.153020     11.061072
  C       5.863327     35.240317     11.604237
  N       6.201373     34.056712     11.986429
  C       7.503060     33.783044     11.790987
  H      13.700323     29.669776     12.045270
  H       9.275142     29.121240     10.700607
  H       9.187257     27.576649     11.543560
  H       8.321614     28.630090     13.569388
  H       6.886516     28.381119     11.209489
  H       5.167445     29.454533     12.599910
  H       7.473683     30.618849     10.458533
  H       5.298864     30.779713     10.257118
  H       6.828341     31.651482     13.230379
  H      10.237955     32.056610     11.683450
  H       9.767309     36.534845     10.063197
  H       8.465376     37.635114      9.833819
  H       4.836039     35.573422     11.687863
  H       6.324815     36.991752     10.665071
163
Coordinates from ORCA-job /data/Seafile/amp/protonated/frames/frame02/dry/amp_prot02 E -13464.791524620858
  Si      3.524441     33.937416      7.817907
  Si      3.428376     30.856408      7.860951
  O       2.323288     34.906928      8.339475
  O       2.054008     30.205693      8.430528
  O       3.445926     32.411168      8.380606
  O       3.598013     33.869967      6.177646
  O       3.501548     30.909373      6.224408
  Si      6.123931     26.204163      7.839603
  Si      8.735718     24.549465      7.824670
  O       4.671852     25.675526      8.357069
  O       7.393969     25.336288      8.372082
  O       8.577410     23.012056      8.351213
  O       6.208845     26.270309      6.198011
  O       8.667931     24.669580      6.183932
  Si      6.060914     29.262639      7.764046
  Si      6.155222     35.494361      7.692775
  Si      8.888532     33.846722      7.692582
  Si      8.853076     30.822485      7.793831
  O       4.772374     30.081602      8.411446
  O       4.904128     34.669386      8.326851
  O       7.556459     34.758693      8.015800
  O       7.378887     30.141482      8.070562
  O       6.196891     27.762432      8.373772
  O       8.719073     32.378543      8.361794
  O       5.716900     29.159676      6.163379
  O       5.906513     35.721148      6.090066
  O       9.081728     33.684642      6.077190
  O       9.159383     30.946858      6.195139
  Si      6.204535     38.578429      7.798939
  Si      8.924589     40.056240      7.828922
  O       4.941314     39.402059      8.407934
  O       7.570132     39.283513      8.371052
  O       6.206380     37.021127      8.321112
  O       9.018623     41.557063      8.434156
  O       6.275168     38.593217      6.165855
  O       8.901954     40.024163      6.190008
  Si     11.445889     25.989850      7.680398
  Si     14.162177     24.537280      7.826301
  O      10.101201     25.282350      8.327671
  O      12.824023     25.344519      8.285674
  O      13.998764     23.020896      8.406176
  O      11.361707     25.535659      6.090721
  O      14.216973     24.542994      6.179682
  Si     11.499206     29.202391      8.205884
  Si     11.570141     35.335872      7.669193
  Si     14.237298     33.801694      7.686836
  Si     14.266937     30.720882      7.740999
  O       9.999810     29.979654      8.526083
  O      10.180966     34.689267      8.238440
  O      12.918447     34.627584      8.229586
  O      13.032900     29.912635      8.361608
  O      11.406589     27.572863      7.832884
  O      14.334655     32.289609      8.257893
  O      11.364981     29.711729      6.539682
  O      11.572523     35.172601      6.038206
  O      14.093694     33.690215      6.054284
  O      14.109949     30.767549      6.106330
  Si     11.594498     38.510732      7.736313
  Si     14.245348     40.059423      7.840862
  O      10.221371     39.195471      8.329635
  O      12.943330     39.190021      8.333987
  O      11.563359     36.923311      8.086407
  O      14.056815     41.572726      8.411692
  O      11.637878     38.794001      6.121585
  O      14.319830     39.996127      6.198764
  Si     16.879712     26.041874      7.865506
  O      15.522247     25.278617      8.358453
  O      18.159568     25.218455      8.457230
  O      16.845093     26.045063      6.220821
  Si     17.010357     29.124321      7.786673
  Si     16.953319     35.443373      7.756660
  Si     19.598926     33.867319      7.867344
  Si     19.621411     30.771569      7.861362
  O      15.674372     29.975660      8.126058
  O      15.582727     34.633200      8.076607
  O      18.240239     34.645879      8.356738
  O      18.327836     29.909459      8.364461
  O      16.897525     27.602006      8.370395
  O      19.561712     32.319504      8.381802
  O      17.222325     28.927991      6.166736
  O      17.224463     35.543916      6.137727
  O      19.595385     33.822028      6.223295
  O      19.536900     30.782396      6.215560
  Si     16.928106     38.516575      7.843538
  O      15.632473     39.380816      8.362457
  O      18.327590     39.112913      8.418082
  O      16.832519     36.966357      8.340948
  O      16.886328     38.514486      6.198642
  O      21.008062     30.126271      8.422431
  O      20.937499     34.584041      8.459416
  H       4.074658     24.986772      8.036591
  H       1.410409     29.602015      8.036749
  H       1.410409     35.007985      8.036749
  H       4.074657     39.623228      8.036591
  H       8.948181     22.173255      8.038302
  H       8.948181     42.436745      8.038302
  H      14.277762     22.173204      8.038282
  H      14.277762     42.436796      8.038282
  H      18.960557     24.876228      8.036406
  H      18.960556     39.733772      8.036406
  H      21.624717     29.491420      8.036583
  H      21.624717     35.118580      8.036583
  H      13.344184     34.183073      5.692439
  H      10.778749     34.722626      5.705459
  H       9.117525     32.734455      5.825180
  H      10.047203     30.473275      6.079825
  H      12.212670     29.876390      6.113787
  H      14.146155     31.660590      5.738276
  H      13.490809     39.719928      5.783580
  H      10.798062     39.066898      5.731971
  H       8.102592     39.635972      5.808004
  H       6.121002     37.723788      5.763035
  H       5.249178     35.125481      5.702290
  H       3.572425     32.964030      5.832806
  H       4.175278     30.314117      5.852784
  H       5.914393     28.290359      5.781390
  H       6.981542     25.794155      5.850816
  H       9.530053     24.914674      5.804561
  H      12.210715     25.274865      5.712552
  H      14.996547     24.996942      5.830284
  H      17.000287     26.925694      5.845622
  H      17.866302     29.538138      5.783110
  H      19.623717     31.667851      5.837122
  H      18.902011     34.372486      5.830417
  H      17.071250     36.422094      5.765223
  H      16.119516     38.982361      5.838023
  P      11.757684     29.497290     11.240098
  O      11.718337     30.970197     11.209350
  O      11.570661     28.756037      9.914386
  O      13.083669     28.946376     11.919835
  O      10.671106     28.829882     12.204348
  C       9.370413     28.648155     11.682313
  C       8.325059     29.188691     12.631751
  O       8.577831     30.568235     12.960635
  C       6.956610     29.159864     11.977124
  O       5.954142     29.006617     12.948176
  C       6.878173     30.562099     11.369733
  O       5.567087     31.001100     11.156932
  C       7.564935     31.373785     12.463587
  N       8.163214     32.618065     11.995579
  C       9.479846     32.837263     11.640302
  N       9.690696     34.063871     11.230327
  C       8.472830     34.661642     11.300455
  C       8.052037     35.918494     10.872161
  N       8.837501     36.830922     10.317291
  N       6.725628     36.150836     11.060767
  C       5.863767     35.237632     11.603789
  N       6.202070     34.053899     11.985275
  C       7.503970     33.781071     11.789337
  H      13.704939     29.670979     12.037074
  H       9.277563     29.120895     10.699910
  H       9.191582     27.576630     11.544024
  H       8.325461     28.629328     13.569237
  H       6.891401     28.378829     11.208711
  H       5.170414     29.449850     12.597498
  H       7.475691     30.617146     10.457376
  H       5.301398     30.776508     10.255402
  H       6.829183     31.650080     13.228757
  H      10.239593     32.055962     11.681192
  H       9.766910     36.533265     10.059698
  H       8.464783     37.633495      9.832608
  H       4.836472     35.570491     11.687918
  H       6.325026     36.989576     10.665385
163
Coordinates from ORCA-job /data/Seafile/amp/protonated/frames/frame02/dry/amp_prot02 E -13464.791527835047
  Si      3.524386     33.936991      7.817793
  Si      3.428638     30.855991      7.861152
  O       2.323211     34.906431      8.339471
  O       2.054929     30.204260      8.431068
  O       3.445879     32.410770      8.380624
  O       3.597843     33.869426      6.177568
  O       3.501617     30.909017      6.224525
  Si      6.124233     26.203662      7.840168
  Si      8.736431     24.549534      7.825577
  O       4.672379     25.674597      8.358061
  O       7.394519     25.336173      8.372768
  O       8.578459     23.012082      8.352298
  O       6.208911     26.269496      6.198556
  O       8.668880     24.669327      6.184907
  Si      6.061233     29.262356      7.764300
  Si      6.155137     35.494181      7.692560
  Si      8.888385     33.846389      7.691777
  Si      8.853432     30.822093      7.793344
  O       4.772944     30.081493      8.411651
  O       4.904070     34.669105      8.326721
  O       7.556327     34.758152      8.015259
  O       7.379474     30.140917      8.070569
  O       6.197124     27.762095      8.374039
  O       8.719516     32.378135      8.360856
  O       5.717165     29.159374      6.163611
  O       5.906331     35.721098      6.089914
  O       9.081267     33.684029      6.076326
  O       9.159433     30.945786      6.194491
  Si      6.204540     38.578301      7.798775
  Si      8.924517     40.056189      7.828540
  O       4.941032     39.401314      8.408112
  O       7.569930     39.283797      8.370736
  O       6.206737     37.020840      8.321058
  O       9.019665     41.556967      8.433798
  O       6.275216     38.593000      6.165684
  O       8.901765     40.024352      6.189615
  Si     11.446604     25.989877      7.681565
  Si     14.162921     24.537413      7.827304
  O      10.101655     25.282918      8.328661
  O      12.824490     25.344108      8.286879
  O      14.000425     23.020909      8.407460
  O      11.362526     25.535268      6.091870
  O      14.217708     24.542736      6.180660
  Si     11.500278     29.202607      8.205865
  Si     11.570025     35.335560      7.668578
  Si     14.237296     33.801821      7.686574
  Si     14.268488     30.721042      7.740805
  O      10.000630     29.979874      8.526035
  O      10.180714     34.689009      8.237785
  O      12.918221     34.627229      8.229485
  O      13.034313     29.912443      8.361204
  O      11.407184     27.572958      7.833628
  O      14.335522     32.289851      8.258023
  O      11.366267     29.711565      6.539401
  O      11.572258     35.171866      6.037682
  O      14.093487     33.689920      6.054036
  O      14.111688     30.766937      6.106060
  Si     11.594258     38.510541      7.735862
  Si     14.244876     40.059477      7.840378
  O      10.221083     39.194975      8.329143
  O      12.943075     39.189884      8.333638
  O      11.563332     36.923005      8.085798
  O      14.055646     41.572765      8.411068
  O      11.637765     38.793921      6.121172
  O      14.319622     39.995787      6.198333
  Si     16.880111     26.042201      7.865838
  O      15.522660     25.279331      8.359306
  O      18.159704     25.218275      8.457596
  O      16.845536     26.045297      6.221233
  Si     17.011487     29.124447      7.786547
  Si     16.953069     35.444072      7.756256
  Si     19.598649     33.867967      7.866914
  Si     19.621672     30.772525      7.859991
  O      15.676066     29.976510      8.126329
  O      15.582472     34.633767      8.076341
  O      18.240049     34.646636      8.356356
  O      18.329733     29.908521      8.364145
  O      16.898399     27.602303      8.370635
  O      19.560573     32.320125      8.381191
  O      17.222673     28.927920      6.166602
  O      17.224079     35.544640      6.137309
  O      19.595461     33.823345      6.222865
  O      19.535034     30.783525      6.214375
  Si     16.927792     38.517168      7.843288
  O      15.632181     39.381366      8.362213
  O      18.327117     39.113499      8.418232
  O      16.832194     36.966889      8.340739
  O      16.886340     38.515157      6.198431
  O      21.010470     30.130446      8.419238
  O      20.937398     34.584095      8.459331
  H       4.074658     24.986772      8.036591
  H       1.410409     29.602015      8.036749
  H       1.410409     35.007985      8.036749
  H       4.074657     39.623228      8.036591
  H       8.948181     22.173255      8.038302
  H       8.948181     42.436745      8.038302
  H      14.277762     22.173204      8.038282
  H      14.277762     42.436796      8.038282
  H      18.960557     24.876228      8.036406
  H      18.960556     39.733772      8.036406
  H      21.624717     29.491420      8.036583
  H      21.624717     35.118580      8.036583
  H      13.343992     34.182667      5.691992
  H      10.778447     34.721894      5.705012
  H       9.116235     32.733827      5.824670
  H      10.046970     30.472000      6.079551
  H      12.214240     29.876054      6.113788
  H      14.148058     31.659920      5.737899
  H      13.490585     39.719621      5.783133
  H      10.798032     39.066600      5.731152
  H       8.102643     39.635683      5.807700
  H       6.120977     37.723516      5.762999
  H       5.249303     35.125328      5.701712
  H       3.572555     32.963513      5.832689
  H       4.175379     30.313874      5.852779
  H       5.915309     28.290242      5.781397
  H       6.981631     25.793540      5.851197
  H       9.530796     24.914422      5.805223
  H      12.211568     25.274704      5.713670
  H      14.997038     24.996765      5.830837
  H      17.000460     26.925892      5.845833
  H      17.865737     29.538517      5.782211
  H      19.623090     31.668701      5.835662
  H      18.901851     34.373538      5.830051
  H      17.071080     36.422825      5.764761
  H      16.119428     38.982793      5.837725
  P      11.758965     29.498263     11.240169
  O      11.719733     30.971157     11.209445
  O      11.571727     28.756812      9.914530
  O      13.084933     28.946872     11.919445
  O      10.672951     28.830767     12.205047
  C       9.372176     28.648490     11.683407
  C       8.326350     29.188581     12.632603
  O       8.578264     30.568189     12.961330
  C       6.958292     29.158767     11.977202
  O       5.955290     29.005130     12.947617
  C       6.879340     30.560919     11.369573
  O       5.567998     30.998906     11.156286
  C       7.565436     31.373228     12.463449
  N       8.163871     32.617363     11.995182
  C       9.480708     32.837014     11.640674
  N       9.691176     34.063439     11.230144
  C       8.473204     34.661034     11.300006
  C       8.052240     35.917678     10.871570
  N       8.837514     36.830363     10.316932
  N       6.725656     36.149636     11.059809
  C       5.863910     35.236197     11.602628
  N       6.202384     34.052512     11.984313
  C       7.504490     33.780216     11.788744
  H      13.707481     29.670838     12.034410
  H       9.278932     29.121049     10.700919
  H       9.193937     27.576902     11.545155
  H       8.326538     28.629195     13.570123
  H       6.894055     28.377673     11.208778
  H       5.171486     29.447509     12.595972
  H       7.477010     30.616063     10.457384
  H       5.303236     30.774728     10.254382
  H       6.829150     31.649777     13.227982
  H      10.240809     32.056068     11.682087
  H       9.767108     36.533199     10.059679
  H       8.464598     37.632970      9.832895
  H       4.836542     35.568922     11.686395
  H       6.325008     36.988339     10.664259
163
Coordinates from ORCA-job /data/Seafile/amp/protonated/frames/frame02/dry/amp_prot02 E -13464.791531493018
  Si      3.524472     33.936577      7.817619
  Si      3.429087     30.855511      7.861805
  O       2.323257     34.906024      8.339239
  O       2.056231     30.202243      8.432057
  O       3.445828     32.410446      8.380697
  O       3.597957     33.868645      6.177432
  O       3.501830     30.908405      6.225110
  Si      6.124507     26.203211      7.841051
  Si      8.737034     24.549712      7.826638
  O       4.672897     25.673604      8.359327
  O       7.394936     25.336076      8.373725
  O       8.579663     23.012210      8.353503
  O       6.209005     26.268734      6.199410
  O       8.669601     24.669096      6.186067
  Si      6.061770     29.262067      7.764989
  Si      6.155190     35.494065      7.692152
  Si      8.888440     33.846001      7.691324
  Si      8.854178     30.821427      7.793789
  O       4.773859     30.081591      8.412311
  O       4.904107     34.668986      8.326424
  O       7.556257     34.757616      8.014632
  O       7.380374     30.140008      8.071232
  O       6.197300     27.761761      8.374692
  O       8.719986     32.377662      8.360406
  O       5.717487     29.159166      6.164274
  O       5.906263     35.721273      6.089599
  O       9.081752     33.683506      6.075835
  O       9.159598     30.944649      6.194721
  Si      6.204585     38.578245      7.798353
  Si      8.924538     40.056139      7.828007
  O       4.940740     39.400393      8.408231
  O       7.569718     39.284196      8.370182
  O       6.207278     37.020632      8.320839
  O       9.021025     41.556838      8.433304
  O       6.275274     38.592828      6.165283
  O       8.901630     40.024517      6.189055
  Si     11.447262     25.989890      7.682651
  Si     14.163573     24.537459      7.828128
  O      10.101883     25.283779      8.329618
  O      12.824786     25.343384      8.287906
  O      14.002354     23.020899      8.408965
  O      11.363519     25.534821      6.092948
  O      14.218492     24.542310      6.181466
  Si     11.501918     29.202971      8.206723
  Si     11.570105     35.335098      7.668697
  Si     14.237452     33.801771      7.687595
  Si     14.270639     30.721295      7.741757
  O      10.001852     29.980154      8.527020
  O      10.180434     34.688794      8.237776
  O      12.918029     34.626805      8.230388
  O      13.036463     29.912103      8.361413
  O      11.408308     27.572960      7.834474
  O      14.336710     32.290036      8.259594
  O      11.367645     29.711514      6.539940
  O      11.572292     35.170788      6.037937
  O      14.093461     33.689341      6.055116
  O      14.114239     30.766893      6.106932
  Si     11.594046     38.510206      7.735738
  Si     14.244295     40.059561      7.840238
  O      10.220687     39.194313      8.328704
  O      12.942724     39.189746      8.333618
  O      11.563356     36.922631      8.085750
  O      14.054097     41.572933      8.410493
  O      11.637827     38.793548      6.121086
  O      14.319389     39.995250      6.198244
  Si     16.880457     26.042419      7.866164
  O      15.522859     25.280111      8.359998
  O      18.159719     25.217863      8.458007
  O      16.846081     26.045612      6.221638
  Si     17.013053     29.124524      7.786936
  Si     16.952668     35.444927      7.756815
  Si     19.598212     33.868840      7.867025
  Si     19.622024     30.773855      7.858762
  O      15.678469     29.977525      8.127580
  O      15.582255     34.634365      8.077277
  O      18.239855     34.647731      8.356736
  O      18.332383     29.907127      8.364175
  O      16.899440     27.602436      8.371041
  O      19.559103     32.320984      8.381021
  O      17.222899     28.928079      6.166907
  O      17.223303     35.545334      6.137818
  O      19.595150     33.825019      6.222934
  O      19.532346     30.785399      6.213380
  Si     16.927324     38.517890      7.843668
  O      15.631754     39.382119      8.362495
  O      18.326470     39.114493      8.418800
  O      16.831704     36.967643      8.341285
  O      16.886080     38.515771      6.198847
  O      21.013786     30.135982      8.415161
  O      20.937327     34.584280      8.459512
  H       4.074658     24.986772      8.036591
  H       1.410409     29.602015      8.036749
  H       1.410409     35.007985      8.036749
  H       4.074657     39.623228      8.036591
  H       8.948181     22.173255      8.038302
  H       8.948181     42.436745      8.038302
  H      14.277762     22.173204      8.038282
  H      14.277762     42.436796      8.038282
  H      18.960557     24.876228      8.036406
  H      18.960556     39.733772      8.036406
  H      21.624717     29.491420      8.036583
  H      21.624717     35.118580      8.036583
  H      13.343804     34.181734      5.692887
  H      10.778619     34.720538      5.705328
  H       9.117302     32.733208      5.824618
  H      10.047017     30.470835      6.080046
  H      12.215869     29.876102      6.114377
  H      14.151018     31.659885      5.738921
  H      13.490263     39.719202      5.783096
  H      10.798279     39.065971      5.730520
  H       8.102666     39.635449      5.807247
  H       6.120707     37.723326      5.762696
  H       5.249545     35.125462      5.700948
  H       3.572861     32.962689      5.832628
  H       4.175318     30.312902      5.853371
  H       5.915669     28.290181      5.781848
  H       6.981809     25.792952      5.851995
  H       9.531547     24.913716      5.806055
  H      12.212546     25.274163      5.714694
  H      14.997687     24.996366      5.831327
  H      17.000886     26.926235      5.846205
  H      17.864616     29.539494      5.781553
  H      19.622013     31.670318      5.834492
  H      18.901247     34.375065      5.830391
  H      17.070257     36.423498      5.765215
  H      16.119057     38.983190      5.838071
  P      11.761039     29.499139     11.241132
  O      11.722059     30.971955     11.210800
  O      11.572786     28.757630      9.915522
  O      13.087395     28.947274     11.919160
  O      10.675848     28.831597     12.206750
  C       9.375053     28.648067     11.685498
  C       8.328412     29.187923     12.634040
  O       8.579530     30.567687     12.962352
  C       6.960817     29.157014     11.977763
  O       5.957197     29.002927     12.947458
  C       6.881216     30.559137     11.369922
  O       5.569590     30.996065     11.156140
  C       7.566620     31.372150     12.463733
  N       8.164936     32.616106     11.995062
  C       9.481803     32.836007     11.640656
  N       9.692010     34.062404     11.230160
  C       8.473901     34.659801     11.299801
  C       8.052761     35.916225     10.871179
  N       8.837988     36.829036     10.316726
  N       6.725969     36.147823     11.058967
  C       5.864401     35.234137     11.601342
  N       6.203019     34.050578     11.983217
  C       7.505303     33.778740     11.788330
  H      13.711392     29.670591     12.030945
  H       9.281300     29.119724     10.702539
  H       9.197877     27.576125     11.547800
  H       8.328278     28.628744     13.571673
  H       6.897675     28.375848     11.209320
  H       5.173342     29.444662     12.595048
  H       7.479037     30.614319     10.457915
  H       5.305927     30.772462     10.253782
  H       6.829908     31.648830     13.227774
  H      10.242242     32.055453     11.682475
  H       9.767805     36.532137     10.059597
  H       8.465097     37.631794      9.833085
  H       4.836857     35.566573     11.684208
  H       6.325395     36.986282     10.663157
163
Coordinates from ORCA-job /data/Seafile/amp/protonated/frames/frame02/dry/amp_prot02 E -13464.791531407272
  Si      3.524498     33.936157      7.817401
  Si      3.429570     30.854908      7.862274
  O       2.323289     34.905654      8.338946
  O       2.057867     30.199709      8.433237
  O       3.445607     32.410048      8.380576
  O       3.598043     33.867963      6.177258
  O       3.501700     30.907650      6.225579
  Si      6.124639     26.202814      7.841554
  Si      8.737378     24.549808      7.827362
  O       4.673267     25.672873      8.360250
  O       7.395120     25.335961      8.374375
  O       8.580611     23.012298      8.354325
  O       6.208878     26.267826      6.199907
  O       8.669969     24.668889      6.186855
  Si      6.062474     29.261753      7.764955
  Si      6.155190     35.493866      7.691741
  Si      8.888532     33.845743      7.690634
  Si      8.855141     30.820859      7.793623
  O       4.775082     30.081926      8.412454
  O       4.904127     34.668744      8.326081
  O       7.556228     34.757156      8.013912
  O       7.381544     30.138940      8.071139
  O       6.197453     27.761484      8.374805
  O       8.720395     32.377263      8.359679
  O       5.717752     29.158790      6.164283
  O       5.906012     35.721418      6.089293
  O       9.082013     33.683402      6.075112
  O       9.160059     30.944154      6.194406
  Si      6.204515     38.578074      7.798063
  Si      8.924459     40.056120      7.827434
  O       4.940422     39.399493      8.408406
  O       7.569519     39.284408      8.369656
  O       6.207664     37.020356      8.320615
  O       9.021952     41.556710      8.432870
  O       6.275018     38.592648      6.165029
  O       8.901196     40.024766      6.188473
  Si     11.447627     25.989855      7.683334
  Si     14.163920     24.537384      7.828509
  O      10.101890     25.284425      8.330282
  O      12.824932     25.342821      8.288489
  O      14.003864     23.020898      8.410123
  O      11.364169     25.534551      6.093681
  O      14.218694     24.541856      6.181874
  Si     11.503290     29.203065      8.206279
  Si     11.570197     35.334884      7.668022
  Si     14.237686     33.801808      7.687206
  Si     14.272071     30.721646      7.740903
  O      10.003252     29.980444      8.527051
  O      10.180365     34.688661      8.237232
  O      12.917968     34.626563      8.229941
  O      13.037990     29.912032      8.359963
  O      11.409297     27.572934      7.834977
  O      14.337447     32.290166      8.259363
  O      11.368230     29.710065      6.539061
  O      11.572100     35.170422      6.037330
  O      14.093731     33.689493      6.054772
  O      14.115970     30.767565      6.106046
  Si     11.593893     38.510048      7.735223
  Si     14.243955     40.059679      7.840132
  O      10.220355     39.193825      8.328022
  O      12.942385     39.189729      8.333298
  O      11.563449     36.922428      8.085134
  O      14.053415     41.573063      8.410344
  O      11.637912     38.793538      6.120621
  O      14.319335     39.995330      6.198159
  Si     16.880694     26.042434      7.865964
  O      15.522929     25.280629      8.360104
  O      18.159917     25.218013      8.458222
  O      16.846483     26.045128      6.221490
  Si     17.014133     29.124534      7.786203
  Si     16.952501     35.445450      7.756654
  Si     19.598030     33.869390      7.866851
  Si     19.622304     30.774741      7.857695
  O      15.679981     29.978226      8.127053
  O      15.582209     34.634696      8.077172
  O      18.239746     34.648397      8.356543
  O      18.333935     29.906341      8.363520
  O      16.899875     27.602561      8.370475
  O      19.558252     32.321531      8.380672
  O      17.223507     28.927889      6.166187
  O      17.223123     35.545844      6.137656
  O      19.595255     33.826065      6.222724
  O      19.530986     30.786829      6.212438
  Si     16.927045     38.518375      7.843823
  O      15.631332     39.382337      8.362667
  O      18.325921     39.115372      8.419240
  O      16.831485     36.968079      8.341218
  O      16.885970     38.516430      6.199017
  O      21.015729     30.139307      8.412492
  O      20.937302     34.584376      8.459551
  H       4.074657     24.986772      8.036591
  H       1.410409     29.602015      8.036749
  H       1.410409     35.007985      8.036749
  H       4.074657     39.623228      8.036591
  H       8.948181     22.173255      8.038302
  H       8.948181     42.436745      8.038302
  H      14.277762     22.173204      8.038282
  H      14.277762     42.436796      8.038282
  H      18.960557     24.876228      8.036406
  H      18.960556     39.733772      8.036406
  H      21.624717     29.491420      8.036583
  H      21.624717     35.118580      8.036583
  H      13.343819     34.181591      5.692616
  H      10.778333     34.720222      5.704852
  H       9.116471     32.733162      5.823936
  H      10.047456     30.470427      6.079404
  H      12.216285     29.875414      6.113297
  H      14.152689     31.660644      5.738311
  H      13.490217     39.719296      5.782992
  H      10.798517     39.065809      5.729747
  H       8.102268     39.635498      5.806781
  H       6.120162     37.723222      5.762384
  H       5.249583     35.125482      5.700409
  H       3.572925     32.961990      5.832522
  H       4.174977     30.311983      5.853742
  H       5.915652     28.289816      5.781769
  H       6.981675     25.792025      5.852501
  H       9.531785     24.913607      5.806695
  H      12.212997     25.273438      5.715328
  H      14.997771     24.995899      5.831515
  H      17.001003     26.925649      5.845793
  H      17.864478     29.539741      5.780330
  H      19.621529     31.671646      5.833553
  H      18.901173     34.375975      5.830311
  H      17.070096     36.424036      5.765131
  H      16.118986     38.983894      5.838208
  P      11.763573     29.499678     11.240954
  O      11.724034     30.972521     11.211246
  O      11.575195     28.758438      9.915217
  O      13.090176     28.947840     11.918232
  O      10.678953     28.831734     12.206947
  C       9.378205     28.647630     11.685738
  C       8.331023     29.186905     12.634110
  O       8.581585     30.566719     12.962518
  C       6.963611     29.155433     11.977503
  O       5.959864     29.000498     12.946906
  C       6.883329     30.557687     11.369999
  O       5.571465     30.993931     11.156242
  C       7.568385     31.370910     12.463889
  N       8.166223     32.615075     11.995295
  C       9.483029     32.835370     11.640989
  N       9.692881     34.061765     11.230227
  C       8.474526     34.658748     11.299628
  C       8.052945     35.914865     10.870425
  N       8.838003     36.827799     10.315960
  N       6.725915     36.145954     11.057536
  C       5.864724     35.232123     11.600132
  N       6.203788     34.048932     11.982780
  C       7.506182     33.777477     11.788399
  H      13.714284     29.671131     12.029580
  H       9.284174     29.119182     10.702814
  H       9.201924     27.575654     11.547744
  H       8.330960     28.627642     13.571736
  H       6.901083     28.374491     11.208787
  H       5.175910     29.442128     12.594601
  H       7.481091     30.613190     10.457973
  H       5.308333     30.770901     10.253556
  H       6.831597     31.647213     13.227995
  H      10.243853     32.055189     11.683284
  H       9.768050     36.531363     10.059367
  H       8.465035     37.630578      9.832239
  H       4.836940     35.564057     11.682214
  H       6.325052     36.984017     10.660752
163
Coordinates from ORCA-job /data/Seafile/amp/protonated/frames/frame02/dry/amp_prot02 E -13464.791537846342
  Si      3.524554     33.935782      7.817312
  Si      3.430061     30.854276      7.862821
  O       2.323385     34.905430      8.338612
  O       2.059662     30.196920      8.434635
  O       3.445182     32.409670      8.380465
  O       3.598445     33.867397      6.177214
  O       3.501523     30.906771      6.226149
  Si      6.124658     26.202603      7.841968
  Si      8.737476     24.549910      7.827804
  O       4.673473     25.672405      8.360955
  O       7.395098     25.335861      8.374878
  O       8.581216     23.012419      8.354749
  O       6.208686     26.267306      6.200317
  O       8.670048     24.668910      6.187317
  Si      6.063299     29.261557      7.765094
  Si      6.155251     35.493583      7.691775
  Si      8.888827     33.845578      7.691059
  Si      8.856276     30.820436      7.794294
  O       4.776405     30.082523      8.412708
  O       4.904132     34.668460      8.326022
  O       7.556221     34.756745      8.013896
  O       7.382827     30.137877      8.071465
  O       6.197515     27.761296      8.375035
  O       8.720673     32.376988      8.360000
  O       5.718242     29.158593      6.164478
  O       5.905983     35.721430      6.089405
  O       9.083037     33.683458      6.075551
  O       9.160999     30.944092      6.194988
  Si      6.204398     38.577811      7.798193
  Si      8.924307     40.056075      7.827423
  O       4.940026     39.398584      8.408753
  O       7.569250     39.284521      8.369646
  O       6.207921     37.020042      8.320803
  O       9.022505     41.556679      8.432725
  O       6.274826     38.592353      6.165216
  O       8.900840     40.024650      6.188468
  Si     11.447775     25.989783      7.683942
  Si     14.164067     24.537231      7.828930
  O      10.101689     25.284900      8.330799
  O      12.824886     25.342216      8.289051
  O      14.005108     23.020824      8.411222
  O      11.364514     25.534583      6.094358
  O      14.218592     24.541506      6.182345
  Si     11.504514     29.203134      8.206749
  Si     11.570358     35.334825      7.668673
  Si     14.237951     33.801896      7.688042
  Si     14.273041     30.722074      7.741141
  O      10.004552     29.980767      8.527986
  O      10.180387     34.688655      8.237970
  O      12.918008     34.626564      8.230653
  O      13.039120     29.912009      8.359488
  O      11.410073     27.572778      7.835843
  O      14.337894     32.290318      8.260245
  O      11.368673     29.709112      6.539224
  O      11.572194     35.170299      6.038040
  O      14.094087     33.689909      6.055653
  O      14.117208     30.768792      6.106298
  Si     11.593726     38.509952      7.735633
  Si     14.243660     40.059809      7.840679
  O      10.219975     39.193523      8.328128
  O      12.942009     39.189890      8.333738
  O      11.563494     36.922397      8.085735
  O      14.053054     41.573301      8.410675
  O      11.637945     38.793258      6.121023
  O      14.319168     39.995381      6.198700
  Si     16.880819     26.042427      7.866041
  O      15.522895     25.280955      8.360272
  O      18.160195     25.218343      8.458534
  O      16.846663     26.044748      6.221581
  Si     17.014868     29.124596      7.786204
  Si     16.952362     35.445833      7.757387
  Si     19.597887     33.869850      7.867190
  Si     19.622474     30.775507      7.857268
  O      15.681080     29.978845      8.127413
  O      15.582290     34.634947      8.078225
  O      18.239769     34.648996      8.357055
  O      18.335122     29.905769      8.363418
  O      16.900011     27.602637      8.370345
  O      19.557713     32.321995      8.380879
  O      17.223690     28.927869      6.166178
  O      17.222688     35.546086      6.138340
  O      19.595079     33.826846      6.223013
  O      19.529593     30.788223      6.212100
  Si     16.926769     38.518769      7.844545
  O      15.630881     39.382423      8.363453
  O      18.325359     39.116410      8.419993
  O      16.831391     36.968493      8.341822
  O      16.885663     38.516797      6.199740
  O      21.017277     30.141913      8.410552
  O      20.937353     34.584529      8.459815
  H       4.074658     24.986772      8.036591
  H       1.410409     29.602015      8.036749
  H       1.410409     35.007985      8.036749
  H       4.074657     39.623228      8.036591
  H       8.948181     22.173255      8.038302
  H       8.948181     42.436745      8.038302
  H      14.277762     22.173204      8.038282
  H      14.277762     42.436796      8.038282
  H      18.960557     24.876228      8.036406
  H      18.960556     39.733772      8.036406
  H      21.624717     29.491420      8.036583
  H      21.624717     35.118580      8.036583
  H      13.343823     34.181618      5.693674
  H      10.778518     34.719831      5.705638
  H       9.118072     32.733174      5.824391
  H      10.048432     30.470420      6.079511
  H      12.216581     29.875234      6.113444
  H      14.153659     31.662038      5.738889
  H      13.490056     39.719204      5.783581
  H      10.798481     39.064937      5.729800
  H       8.102109     39.634963      5.806868
  H       6.119863     37.723011      5.762450
  H       5.250051     35.125041      5.700324
  H       3.573083     32.961420      5.832540
  H       4.174700     30.311021      5.854249
  H       5.916201     28.289631      5.781832
  H       6.981568     25.791630      5.852959
  H       9.531902     24.913596      5.807164
  H      12.213212     25.273309      5.715758
  H      14.997805     24.995260      5.831910
  H      17.001221     26.925183      5.845709
  H      17.863837     29.540355      5.779900
  H      19.620469     31.673062      5.833334
  H      18.900791     34.376688      5.830832
  H      17.069482     36.424287      5.765873
  H      16.118711     38.984302      5.838898
  P      11.765852     29.499946     11.241518
  O      11.726212     30.972772     11.212629
  O      11.576991     28.759062      9.915681
  O      13.093085     28.948170     11.917778
  O      10.681430     28.831733     12.207431
  C       9.380814     28.646695     11.686058
  C       8.333270     29.185895     12.634153
  O       8.583710     30.565805     12.962526
  C       6.965981     29.154240     11.977392
  O       5.962135     28.998745     12.946661
  C       6.885422     30.556638     11.370186
  O       5.573464     30.992622     11.156446
  C       7.570235     31.369856     12.464159
  N       8.167512     32.614359     11.995877
  C       9.484209     32.835031     11.641630
  N       9.693731     34.061488     11.230687
  C       8.475143     34.658055     11.300013
  C       8.053151     35.914027     10.870628
  N       8.838108     36.827209     10.316476
  N       6.725927     36.144593     11.057115
  C       5.864977     35.230466     11.599467
  N       6.204489     34.047569     11.982532
  C       7.507006     33.776480     11.788667
  H      13.716652     29.671762     12.029875
  H       9.286678     29.117703     10.702892
  H       9.205168     27.574469     11.548377
  H       8.333137     28.626724     13.571786
  H       6.903753     28.373412     11.208495
  H       5.178205     29.440563     12.594641
  H       7.483214     30.612420     10.458184
  H       5.310639     30.770062     10.253536
  H       6.833508     31.645613     13.228488
  H      10.245241     32.055114     11.684005
  H       9.768401     36.531171     10.060260
  H       8.465217     37.630151      9.832846
  H       4.836938     35.561823     11.680939
  H       6.324852     36.982230     10.659676
163
Coordinates from ORCA-job /data/Seafile/amp/protonated/frames/frame02/dry/amp_prot02 E -13464.791534565025
  Si      3.524527     33.935481      7.817175
  Si      3.430363     30.853730      7.863001
  O       2.323448     34.905279      8.338312
  O       2.061023     30.194791      8.435676
  O       3.444742     32.409330      8.380179
  O       3.598735     33.867042      6.177100
  O       3.501094     30.905973      6.226350
  Si      6.124602     26.202530      7.841901
  Si      8.737419     24.549952      7.827632
  O       4.673485     25.672336      8.361061
  O       7.394984     25.335761      8.374850
  O       8.581488     23.012553      8.354625
  O       6.208501     26.267075      6.200249
  O       8.669842     24.668920      6.187114
  Si      6.063919     29.261451      7.764834
  Si      6.155212     35.493306      7.691746
  Si      8.889006     33.845531      7.691113
  Si      8.857093     30.820312      7.794221
  O       4.777407     30.083076      8.412595
  O       4.904075     34.668164      8.325919
  O       7.556176     34.756452      8.013735
  O       7.383815     30.137165      8.071197
  O       6.197569     27.761199      8.374900
  O       8.720759     32.376910      8.359930
  O       5.718427     29.158429      6.164337
  O       5.905759     35.721359      6.089430
  O       9.083493     33.683549      6.075611
  O       9.161661     30.944377      6.194888
  Si      6.204249     38.577549      7.798386
  Si      8.924119     40.056074      7.827445
  O       4.939745     39.397998      8.409029
  O       7.569068     39.284461      8.369715
  O       6.207966     37.019754      8.320917
  O       9.022605     41.556674      8.432699
  O       6.274505     38.592162      6.165451
  O       8.900401     40.024662      6.188514
  Si     11.447765     25.989677      7.683687
  Si     14.164073     24.537064      7.828931
  O      10.101492     25.285157      8.330622
  O      12.824779     25.341897      8.288970
  O      14.005707     23.020776      8.411745
  O      11.364449     25.534433      6.094239
  O      14.218301     24.541172      6.182390
  Si     11.505210     29.203053      8.206136
  Si     11.570364     35.334971      7.668492
  Si     14.238118     33.802138      7.687410
  Si     14.273334     30.722429      7.739969
  O      10.005460     29.981048      8.527884
  O      10.180477     34.688711      8.238023
  O      12.918070     34.626736      8.230062
  O      13.039587     29.912068      8.358041
  O      11.410362     27.572625      7.835782
  O      14.337923     32.290513      8.259408
  O      11.368707     29.708394      6.538485
  O      11.572031     35.170632      6.037858
  O      14.094349     33.690754      6.055021
  O      14.117631     30.769776      6.105176
  Si     11.593601     38.510021      7.735558
  Si     14.243530     40.059979      7.840880
  O      10.219759     39.193468      8.328050
  O      12.941780     39.190030      8.333682
  O      11.563445     36.922508      8.085680
  O      14.053024     41.573448      8.411012
  O      11.637868     38.793392      6.120951
  O      14.319112     39.995895      6.198867
  Si     16.880902     26.042409      7.865743
  O      15.522890     25.281090      8.359978
  O      18.160513     25.218960      8.458596
  O      16.846786     26.044073      6.221264
  Si     17.015136     29.124675      7.785331
  Si     16.952376     35.446042      7.757074
  Si     19.597917     33.870123      7.866994
  Si     19.622633     30.775913      7.856604
  O      15.681441     29.979288      8.126466
  O      15.582418     34.635068      8.077937
  O      18.239807     34.649316      8.356746
  O      18.335541     29.905636      8.362535
  O      16.899786     27.602806      8.369545
  O      19.557594     32.322243      8.380553
  O      17.224032     28.927607      6.165350
  O      17.222713     35.546403      6.138013
  O      19.595340     33.827246      6.222789
  O      19.529312     30.789052      6.211443
  Si     16.926664     38.519056      7.844640
  O      15.630566     39.382341      8.363703
  O      18.324950     39.117108      8.420355
  O      16.831378     36.968715      8.341518
  O      16.885654     38.517335      6.199823
  O      21.017904     30.143071      8.409549
  O      20.937270     34.584749      8.459881
  H       4.074658     24.986772      8.036591
  H       1.410409     29.602015      8.036749
  H       1.410409     35.007985      8.036749
  H       4.074657     39.623228      8.036591
  H       8.948181     22.173255      8.038302
  H       8.948181     42.436745      8.038302
  H      14.277762     22.173204      8.038282
  H      14.277762     42.436796      8.038282
  H      18.960557     24.876228      8.036406
  H      18.960556     39.733772      8.036406
  H      21.624717     29.491420      8.036583
  H      21.624717     35.118580      8.036583
  H      13.343813     34.182277      5.693333
  H      10.778317     34.720090      5.705599
  H       9.118508     32.733268      5.824379
  H      10.048982     30.470622      6.078844
  H      12.216447     29.874977      6.112730
  H      14.153559     31.663112      5.737891
  H      13.490055     39.719670      5.783700
  H      10.798447     39.065047      5.729752
  H       8.101612     39.634989      5.806975
  H       6.119393     37.722948      5.762495
  H       5.249967     35.124804      5.700450
  H       3.572908     32.961087      5.832447
  H       4.174172     30.310231      5.854305
  H       5.915921     28.289398      5.781773
  H       6.981409     25.791416      5.852950
  H       9.531690     24.913720      5.807027
  H      12.213055     25.273204      5.715439
  H      14.997769     24.994456      5.831936
  H      17.001435     26.924341      5.845090
  H      17.863862     29.540375      5.779005
  H      19.620254     31.673977      5.832869
  H      18.901021     34.377073      5.830650
  H      17.069577     36.424694      5.765740
  H      16.118808     38.984999      5.838955
  P      11.767658     29.499904     11.240950
  O      11.727606     30.972777     11.212278
  O      11.578758     28.759268      9.915004
  O      13.095097     28.948513     11.916955
  O      10.683371     28.831290     12.206815
  C       9.382772     28.645947     11.685260
  C       8.335288     29.185100     12.633473
  O       8.585928     30.564983     12.961881
  C       6.967873     29.153673     11.976845
  O       5.964145     28.997722     12.946163
  C       6.887215     30.556183     11.370049
  O       5.575254     30.992246     11.156482
  C       7.572049     31.369044     12.464239
  N       8.168876     32.613958     11.996453
  C       9.485506     32.834996     11.642355
  N       9.694826     34.061561     11.231544
  C       8.475972     34.657619     11.300355
  C       8.053624     35.913408     10.870624
  N       8.838412     36.826724     10.316472
  N       6.726308     36.143534     11.056693
  C       5.865499     35.229229     11.599084
  N       6.205375     34.046587     11.982501
  C       7.507992     33.775828     11.788924
  H      13.717881     29.672575     12.030298
  H       9.288615     29.116902     10.702172
  H       9.207343     27.573780     11.547550
  H       8.335265     28.625929     13.571122
  H       6.905570     28.373081     11.207728
  H       5.180200     29.439802     12.594518
  H       7.485028     30.612258     10.458037
  H       5.312269     30.770059     10.253511
  H       6.835504     31.644144     13.229019
  H      10.246714     32.055236     11.684869
  H       9.768879     36.531047     10.060601
  H       8.465525     37.629697      9.832685
  H       4.837305     35.560122     11.680305
  H       6.325013     36.980750     10.658630
163
Coordinates from ORCA-job /data/Seafile/amp/protonated/frames/frame02/dry/amp_prot02 E -13464.791535396476
  Si      3.524501     33.935228      7.817266
  Si      3.430568     30.853272      7.863236
  O       2.323493     34.905195      8.338161
  O       2.062076     30.193075      8.436587
  O       3.444261     32.409038      8.380096
  O       3.599158     33.866796      6.177199
  O       3.500780     30.905304      6.226583
  Si      6.124568     26.202577      7.841994
  Si      8.737361     24.550018      7.827708
  O       4.673387     25.672430      8.361051
  O       7.394867     25.335685      8.375022
  O       8.581505     23.012610      8.354474
  O       6.208537     26.267203      6.200332
  O       8.669799     24.669262      6.187133
  Si      6.064429     29.261458      7.764980
  Si      6.155194     35.493008      7.692149
  Si      8.889154     33.845470      7.691776
  Si      8.857754     30.820337      7.794685
  O       4.778151     30.083601      8.412725
  O       4.903996     34.667864      8.326189
  O       7.556127     34.756180      8.014160
  O       7.384609     30.136703      8.071398
  O       6.197596     27.761174      8.375106
  O       8.720765     32.376897      8.360530
  O       5.718779     29.158407      6.164572
  O       5.905723     35.721059      6.089838
  O       9.083811     33.683458      6.076286
  O       9.162496     30.944616      6.195385
  Si      6.204110     38.577277      7.798809
  Si      8.923914     40.056064      7.827737
  O       4.939480     39.397551      8.409353
  O       7.568873     39.284401      8.370047
  O       6.207948     37.019498      8.321327
  O       9.022546     41.556719      8.432820
  O       6.274288     38.591887      6.165891
  O       8.900094     40.024541      6.188835
  Si     11.447759     25.989627      7.684117
  Si     14.164088     24.536984      7.829415
  O      10.101380     25.285197      8.330968
  O      12.824718     25.341667      8.289513
  O      14.006197     23.020683      8.412309
  O      11.364235     25.534601      6.094750
  O      14.217951     24.541214      6.182886
  Si     11.505769     29.202988      8.206513
  Si     11.570290     35.335105      7.668996
  Si     14.238203     33.802417      7.687537
  Si     14.273546     30.722695      7.739937
  O      10.006119     29.981308      8.528460
  O      10.180549     34.688730      8.238699
  O      12.918104     34.626951      8.230201
  O      13.039929     29.912053      8.357913
  O      11.410404     27.572518      7.836637
  O      14.337880     32.290768      8.259428
  O      11.369037     29.708137      6.538877
  O      11.571917     35.170856      6.038345
  O      14.094480     33.691387      6.055132
  O      14.117896     30.770322      6.105210
  Si     11.593419     38.510057      7.735858
  Si     14.243328     40.060137      7.841152
  O      10.219552     39.193507      8.328352
  O      12.941569     39.190153      8.333874
  O      11.563283     36.922623      8.086182
  O      14.052776     41.573610      8.411277
  O      11.637616     38.793277      6.121210
  O      14.318955     39.996221      6.199107
  Si     16.880964     26.042493      7.865943
  O      15.522968     25.281182      8.360203
  O      18.160841     25.219497      8.458802
  O      16.846706     26.043770      6.221427
  Si     17.015318     29.124803      7.785245
  Si     16.952321     35.446300      7.757155
  Si     19.597883     33.870458      7.866981
  Si     19.622771     30.776339      7.856085
  O      15.681826     29.979782      8.126607
  O      15.582500     34.635268      8.078226
  O      18.239844     34.649713      8.356768
  O      18.336111     29.905423      8.362087
  O      16.899631     27.602992      8.369447
  O      19.557493     32.322524      8.380387
  O      17.223991     28.927527      6.165267
  O      17.222449     35.546710      6.138049
  O      19.595379     33.827714      6.222756
  O      19.528645     30.789792      6.210949
  Si     16.926530     38.519388      7.844853
  O      15.630281     39.382428      8.364025
  O      18.324544     39.117794      8.420780
  O      16.831304     36.969022      8.341520
  O      16.885645     38.517771      6.200026
  O      21.018756     30.144518      8.408467
  O      20.937122     34.585093      8.460061
  H       4.074658     24.986772      8.036591
  H       1.410409     29.602015      8.036749
  H       1.410409     35.007985      8.036749
  H       4.074657     39.623228      8.036591
  H       8.948181     22.173255      8.038302
  H       8.948181     42.436745      8.038302
  H      14.277762     22.173204      8.038282
  H      14.277762     42.436796      8.038282
  H      18.960557     24.876228      8.036406
  H      18.960556     39.733772      8.036406
  H      21.624717     29.491420      8.036583
  H      21.624717     35.118580      8.036583
  H      13.343739     34.182753      5.693656
  H      10.778205     34.720172      5.706203
  H       9.118897     32.733163      5.825016
  H      10.049662     30.470637      6.079055
  H      12.216773     29.874653      6.113243
  H      14.153322     31.663674      5.737883
  H      13.489964     39.719897      5.783875
  H      10.798097     39.064787      5.730075
  H       8.101319     39.634799      5.807323
  H       6.119165     37.722746      5.762803
  H       5.250045     35.124287      5.700969
  H       3.572948     32.960874      5.832526
  H       4.173942     30.309729      5.854423
  H       5.916305     28.289331      5.782048
  H       6.981476     25.791537      5.853080
  H       9.531714     24.914153      5.807242
  H      12.212833     25.273747      5.715703
  H      14.997670     24.994058      5.832415
  H      17.001450     26.923928      5.845035
  H      17.863352     29.540717      5.778785
  H      19.619828     31.674758      5.832503
  H      18.901031     34.377557      5.830679
  H      17.069428     36.425090      5.765925
  H      16.118827     38.985416      5.839085
  P      11.768765     29.499941     11.241388
  O      11.728917     30.972832     11.212854
  O      11.579582     28.759542      9.915434
  O      13.096435     28.948609     11.917200
  O      10.684405     28.831194     12.207099
  C       9.383917     28.645334     11.685423
  C       8.336577     29.184915     12.633480
  O       8.587570     30.564863     12.961568
  C       6.969154     29.153695     11.976862
  O       5.965379     28.997749     12.946177
  C       6.888691     30.556223     11.370101
  O       5.576835     30.992470     11.156440
  C       7.573455     31.368874     12.464435
  N       8.169962     32.614112     11.997001
  C       9.486580     32.835565     11.643154
  N       9.695566     34.062184     11.232244
  C       8.476494     34.657804     11.300760
  C       8.053780     35.913482     10.870965
  N       8.838330     36.827067     10.316952
  N       6.726392     36.143147     11.056766
  C       5.865721     35.228574     11.599076
  N       6.205968     34.046078     11.982637
  C       7.508711     33.775724     11.789160
  H      13.718705     29.672919     12.031459
  H       9.289853     29.115855     10.702083
  H       9.208477     27.573028     11.548383
  H       8.336387     28.625966     13.571236
  H       6.906768     28.373090     11.207750
  H       5.181472     29.439832     12.594486
  H       7.486712     30.612396     10.458219
  H       5.313737     30.770549     10.253444
  H       6.836980     31.643520     13.229435
  H      10.247890     32.055929     11.685586
  H       9.768995     36.531805     10.061296
  H       8.465402     37.630113      9.833428
  H       4.837403     35.559072     11.680260
  H       6.324808     36.980034     10.658215
163
Coordinates from ORCA-job /data/Seafile/amp/protonated/frames/frame02/dry/amp_prot02 E -13464.791536776060
  Si      3.524424     33.935031      7.817380
  Si      3.430643     30.852954      7.863453
  O       2.323482     34.905128      8.338138
  O       2.062692     30.191964      8.437210
  O       3.443867     32.408832      8.380127
  O       3.599339     33.866592      6.177301
  O       3.500531     30.904862      6.226776
  Si      6.124582     26.202633      7.842126
  Si      8.737371     24.550045      7.827711
  O       4.673329     25.672478      8.361004
  O       7.394890     25.335656      8.375132
  O       8.581483     23.012623      8.354338
  O       6.208669     26.267483      6.200453
  O       8.669734     24.669462      6.187093
  Si      6.064674     29.261492      7.765289
  Si      6.155128     35.492777      7.692345
  Si      8.889188     33.845398      7.692026
  Si      8.858030     30.820417      7.794895
  O       4.778543     30.083958      8.412972
  O       4.903911     34.667628      8.326380
  O       7.556050     34.755961      8.014331
  O       7.385038     30.136477      8.071636
  O       6.197585     27.761156      8.375426
  O       8.720731     32.376919      8.360850
  O       5.718966     29.158414      6.164933
  O       5.905575     35.720737      6.090023
  O       9.083856     33.683293      6.076553
  O       9.162764     30.944678      6.195654
  Si      6.204011     38.577085      7.799012
  Si      8.923754     40.056062      7.827899
  O       4.939335     39.397295      8.409525
  O       7.568754     39.284303      8.370221
  O       6.207901     37.019314      8.321479
  O       9.022327     41.556746      8.432919
  O       6.274133     38.591766      6.166086
  O       8.899935     40.024512      6.189016
  Si     11.447829     25.989607      7.684163
  Si     14.164187     24.536967      7.829597
  O      10.101474     25.285120      8.331036
  O      12.824779     25.341634      8.289661
  O      14.006452     23.020672      8.412500
  O      11.364098     25.534658      6.094825
  O      14.217893     24.541263      6.183046
  Si     11.506115     29.202976      8.206581
  Si     11.570139     35.335221      7.669116
  Si     14.238201     33.802693      7.687300
  Si     14.273734     30.722852      7.739677
  O      10.006504     29.981487      8.528616
  O      10.180546     34.688737      8.238905
  O      12.918092     34.627110      8.230019
  O      13.040170     29.912062      8.357701
  O      11.410371     27.572478      7.837053
  O      14.337845     32.290999      8.259057
  O      11.369308     29.708149      6.538971
  O      11.571742     35.171046      6.038427
  O      14.094458     33.691836      6.054863
  O      14.118111     30.770378      6.105005
  Si     11.593270     38.510116      7.735923
  Si     14.243177     40.060263      7.841196
  O      10.219441     39.193606      8.328511
  O      12.941445     39.190226      8.333860
  O      11.563087     36.922712      8.086341
  O      14.052577     41.573710      8.411393
  O      11.637360     38.793288      6.121249
  O      14.318835     39.996518      6.199130
  Si     16.881067     26.042619      7.866016
  O      15.523129     25.281218      8.360245
  O      18.161119     25.219974      8.458903
  O      16.846779     26.043635      6.221464
  Si     17.015448     29.124904      7.785041
  Si     16.952302     35.446517      7.756958
  Si     19.597869     33.870710      7.866847
  Si     19.622912     30.776609      7.855582
  O      15.682112     29.980131      8.126499
  O      15.582525     34.635461      8.078079
  O      18.239845     34.649979      8.356603
  O      18.336531     29.905274      8.361607
  O      16.899535     27.603167      8.369308
  O      19.557490     32.322714      8.380114
  O      17.224055     28.927459      6.165063
  O      17.222368     35.547036      6.137833
  O      19.595489     33.828080      6.222621
  O      19.528308     30.790183      6.210466
  Si     16.926458     38.519657      7.844835
  O      15.630103     39.382529      8.364067
  O      18.324264     39.118241      8.421010
  O      16.831247     36.969248      8.341325
  O      16.885775     38.518195      6.200000
  O      21.019362     30.145497      8.407694
  O      20.936948     34.585418      8.460177
  H       4.074658     24.986772      8.036591
  H       1.410409     29.602015      8.036749
  H       1.410409     35.007985      8.036749
  H       4.074657     39.623228      8.036591
  H       8.948181     22.173255      8.038302
  H       8.948181     42.436745      8.038302
  H      14.277762     22.173204      8.038282
  H      14.277762     42.436796      8.038282
  H      18.960557     24.876228      8.036406
  H      18.960556     39.733772      8.036406
  H      21.624717     29.491420      8.036583
  H      21.624717     35.118580      8.036583
  H      13.343616     34.183155      5.693533
  H      10.778058     34.720257      5.706367
  H       9.119502     32.732987      5.825295
  H      10.049749     30.470458      6.079273
  H      12.217067     29.874441      6.113350
  H      14.153440     31.663674      5.737529
  H      13.489913     39.720159      5.783807
  H      10.797807     39.064918      5.730276
  H       8.101214     39.634716      5.807483
  H       6.119082     37.722664      5.762908
  H       5.249765     35.123968      5.701349
  H       3.572910     32.960693      5.832610
  H       4.173754     30.309419      5.854531
  H       5.916515     28.289301      5.782485
  H       6.981633     25.791857      5.853198
  H       9.531650     24.914488      5.807314
  H      12.212726     25.274097      5.715679
  H      14.997790     24.993799      5.832561
  H      17.001630     26.923706      5.844917
  H      17.863164     29.540872      5.778535
  H      19.619835     31.675132      5.832086
  H      18.901176     34.377945      5.830524
  H      17.069547     36.425499      5.765839
  H      16.118996     38.985837      5.838990
  P      11.769278     29.500209     11.241449
  O      11.729282     30.973100     11.212579
  O      11.580238     28.759711      9.915532
  O      13.096854     28.949153     11.917600
  O      10.684936     28.831372     12.207203
  C       9.384349     28.645651     11.685599
  C       8.337184     29.185391     12.633717
  O       8.588412     30.565342     12.961539
  C       6.969695     29.154272     11.977139
  O       5.965899     28.998503     12.946474
  C       6.889400     30.556750     11.370286
  O       5.577654     30.993129     11.156462
  C       7.574150     31.369292     12.464722
  N       8.170611     32.614613     11.997387
  C       9.487280     32.836228     11.643750
  N       9.696138     34.062839     11.232818
  C       8.476988     34.658284     11.301068
  C       8.054180     35.913887     10.871222
  N       8.838628     36.827537     10.317180
  N       6.726786     36.143409     11.056999
  C       5.866125     35.228760     11.599269
  N       6.206444     34.046280     11.982795
  C       7.509250     33.776111     11.789347
  H      13.718762     29.673717     12.032539
  H       9.290294     29.116233     10.702334
  H       9.208761     27.573438     11.548649
  H       8.336972     28.626565     13.571571
  H       6.907200     28.373621     11.208084
  H       5.181962     29.440410     12.594578
  H       7.487642     30.612885     10.458540
  H       5.314470     30.771314     10.253476
  H       6.837667     31.643787     13.229788
  H      10.248624     32.056611     11.686245
  H       9.769394     36.532463     10.061666
  H       8.465659     37.630590      9.833714
  H       4.837805     35.559194     11.680541
  H       6.325144     36.980147     10.658436
