35
Coordinates from ORCA-job cmp_prot_geom E -1458.150527908023
  P       3.091654     -1.692435      0.256702
  O       0.358296      1.281091     -1.283845
  O       0.697013      4.104729     -0.214528
  O      -1.684717      3.250918      0.717883
  O       2.489318     -0.329850     -0.403969
  O      -3.339178      0.973966      0.383864
  O       3.435999     -2.559723     -0.901042
  O       2.194654     -2.157070      1.348699
  O       4.438180     -1.163160      0.987991
  N      -1.412039      0.031041     -0.378287
  N      -3.166915     -1.284491      0.374119
  N      -3.065896     -3.582132      0.430525
  C       0.688929      2.851569      0.418146
  C      -0.717390      2.254231      0.589379
  C       1.384214      1.772375     -0.399243
  C      -0.882498      1.391066     -0.682335
  C       1.981835      0.674455      0.450428
  C      -0.707920     -1.091696     -0.639961
  C      -2.681199     -0.018746      0.140890
  C      -1.197203     -2.328310     -0.391667
  C      -2.495251     -2.435458      0.147458
  H       1.169781      2.997128      1.386143
  H      -0.706023      1.593130      1.464309
  H       2.154908      2.200953     -1.041115
  H      -1.597360      1.845473     -1.372928
  H       1.242797      0.245025      1.135406
  H       2.784218      1.111529      1.055465
  H       0.209769      4.051355     -1.044144
  H      -2.535943      2.790942      0.748657
  H       0.278348     -0.932990     -1.055554
  H      -0.615181     -3.213714     -0.596987
  H      -2.566133     -4.441787      0.267687
  H      -3.995609     -3.641584      0.816040
  H       5.132122     -0.970953      0.346936
  H      -4.104878     -1.311758      0.757387
35
Coordinates from ORCA-job cmp_prot_geom E -1458.150501028051
  P       3.092589     -1.692092      0.257102
  O       0.358305      1.280824     -1.283662
  O       0.696950      4.104564     -0.214637
  O      -1.684767      3.250851      0.717823
  O       2.489557     -0.329870     -0.403673
  O      -3.338923      0.974086      0.384421
  O       3.436485     -2.559630     -0.900591
  O       2.196235     -2.156692      1.349666
  O       4.439380     -1.162364      0.987646
  N      -1.412163      0.030850     -0.378144
  N      -3.167161     -1.284421      0.374464
  N      -3.066726     -3.582102      0.430118
  C       0.688845      2.851489      0.418165
  C      -0.717479      2.254126      0.589405
  C       1.384193      1.772239     -0.399087
  C      -0.882517      1.390874     -0.682233
  C       1.981990      0.674481      0.450646
  C      -0.708347     -1.091989     -0.640165
  C      -2.681157     -0.018771      0.141423
  C      -1.197881     -2.328559     -0.392053
  C      -2.495853     -2.435479      0.147277
  H       1.169640      2.997124      1.386180
  H      -0.706099      1.593073      1.464376
  H       2.154876      2.200765     -1.041012
  H      -1.597323      1.845208     -1.372927
  H       1.243139      0.245034      1.135831
  H       2.784445      1.111683      1.055493
  H       0.210600      4.050822     -1.044755
  H      -2.536032      2.790954      0.748455
  H       0.277870     -0.933398     -1.055939
  H      -0.616085     -3.214037     -0.597675
  H      -2.567198     -4.441820      0.266904
  H      -3.996386     -3.641454      0.815770
  H       5.132877     -0.969636      0.346268
  H      -4.105176     -1.311615      0.757628
