161
4 Eopt=-24.3697464417 (Eh) Einter=-41.918761 (kcal/mol)
Si 3.55619742211729672476 33.84476445961610835411 7.82276351328872276980
Si 3.55590014041792468191 30.76676461851585386853 7.82284077718473369600
O  2.14725497388555375267 34.47991501493694954661 8.40973850920981647050
O  2.14683491635394751995 30.13191592910987282039 8.40984763780696020774
O  3.71004523797258212170 32.30576446665142498205 8.41280331203867248746
O  3.55520842646667745157 33.84672285731715390966 6.16676353249637898557
O  3.55491064128071165840 30.76472334439581857168 6.16684084862502679414
Si 6.21945436718778488228 26.15150720340378498463 7.82297308947127056911
Si 8.88330595059219163545 24.61424971408053608002 7.82302827375633658136
O  4.81038912311858357640 25.51665836930506969793 8.40997994608316012943
O  7.47536352274643789428 25.24940040893284987078 8.41000351258884570882
O  9.03815422632381526569 23.07524947556144923055 8.41306749322884783737
O  6.21946467057723761940 26.14946603083463827488 6.16697312916560580476
O  8.88331682618937001905 24.61620855314261646640 6.16702822357537616682
Si 6.21975162537219627978 29.22950716313017238690 7.82289627394119690962
Si 6.22034592204485825562 35.38150690741061765721 7.82274207699814105865
Si 8.88419722006576151330 33.84424945201109835580 7.82279831239800671483
Si 8.88390005653468683988 30.76624978156177903088 7.82287513989942606685
O  4.81080925919686208658 29.86465802744003994462 8.40987142010622967803
O  4.81128105074006207076 34.74665774881177071620 8.40974909147022842149
O  7.47625524596394530619 34.47940047284009779105 8.40977284171311900707
O  7.47583509051269512469 30.13140032340341889494 8.40988181703160364577
O  6.37359924004366629191 27.69050702990491430455 8.41293572264211064748
O  9.03904493592261104595 32.30524962915496445248 8.41283705067275633382
O  6.21976242534272572016 29.23146574825740984238 6.16689623675873210829
O  6.22035656912990564393 35.37946534422944466769 6.16674219588980765394
O  8.88420840166601877286 33.84620807707466383363 6.16679773457710567186
O  8.88391053884502213123 30.76420834533069381678 6.16687499354627099990
Si 6.22064344108598188399 38.45950675409319785558 7.82266469636298733548
Si 8.88479195976917246469 39.99624949974817411658 7.82264304974608482013
O  4.81170078748368368338 39.09465713563892563798 8.40963963043384410412
O  7.47672682173583957876 39.36140026467069930050 8.40965003233745456157
O  6.37449095656186681680 36.92050684024123086147 8.41270449630268757346
O  9.03993734282278360581 41.53524933976768807042 8.41260523403403048803
O  6.22065423089675562096 38.46146494332319321074 6.16666464632436017723
O  8.88480247241552056892 39.99420773062325906722 6.16664310151993433351
Si 11.54845427752973918700 26.15099231749438501993 7.82300709763799151375
Si 14.21330586740544887903 24.61373494985868148888 7.82306254060216677004
O  10.13938923485883769615 25.51614300909831811737 8.41001394123890300136
O  12.80436339820139579615 25.24888565247312754991 8.41003768296829079532
O  14.36715412904766786539 23.07473484658074625031 8.41310183084068974324
O  11.54846467928106079626 26.14895110524859589418 6.16700720459066253909
O  14.21231680452832080164 24.61569388572026895190 6.16706248691704495002
Si 11.54875152623995582246 29.22899231751619097963 7.82293034756165273080
Al 11.54934596115700173868 35.38099221007603034650 7.82277621276981971477
Si 14.21419727320511583457 33.84373478114893885049 7.82283187841641769467
Si 14.21389985347575368735 30.76573485949942110551 7.82290903134233861493
O  10.13980911838741150177 29.86414296318663019747 8.40990553062088430636
O  10.14028088412867489865 34.74614305133038527629 8.40978321957662622310
O  12.80525495639130006964 34.47888556834362816517 8.40980707852978781602
O  12.80483483608238870488 30.13088561421914590710 8.40991595211841946877
O  11.70259908750966992841 27.68999213011422710906 8.41296987003479479483
O  14.36804481029580848883 32.30473472297952497456 8.41287149499018482857
O  11.54876230576188511634 29.23095091562675662544 6.16693038596558906761
O  11.54935626154675176736 35.37895059066782721402 6.16677636997865707968
O  14.21320801623631702171 33.84569330056274338858 6.16683185082321561055
O  14.21291021061453285768 30.76369352228977049890 6.16690907538532417931
Si 11.54964333532863030030 38.45899208189849360906 7.82269887248548556613
Si 14.21479182470475244315 39.99573458213370003023 7.82267713427767397150
O  10.14070099313495632032 39.09414297115162639784 8.40967387132719856879
O  12.80572674093033214149 39.36088552541863805345 8.40968416424507658746
O  11.70349085178943759900 36.91999208939564880438 8.41273862508731795629
O  14.36893718480566839446 41.53473448287939362444 8.41263927724678417519
O  11.54965410953618132339 38.46095034383304778203 6.16669881917145179528
O  14.21380227383099459360 39.99369288863907456744 6.16667717759131228661
Si 16.87745391010859208336 26.15047761509833890159 7.82304130574571399137
O  15.46838899684228252340 25.51562837123883298318 8.41004824222015656687
O  18.13336275256757090801 25.24837058496771646787 8.41007177006862427504
O  16.87746415420757273296 26.14843622938185774274 6.16704135748603299305
Si 16.87775122709706110413 29.22847752772994667225 7.82296442156742077856
Si 16.87834565607468562121 35.38047740737381019471 7.82281020394847104171
Si 19.54219701923713614633 33.84322009133896358435 7.82286556866813054256
Si 19.54189960953907601038 30.76522002312488979214 7.82294274793586374983
O  15.46880890757087279042 29.86362830577256488596 8.40993960250243333121
O  15.46928062925823432749 34.74562830108323652212 8.40981724180794820711
O  18.13425471743315142703 34.47837083089892473708 8.40984083746251798175
O  18.13383458910816514731 30.13037081946991690984 8.40994985470950062734
O  17.03159883875479962967 27.68947742808498091449 8.41300387118378445450
O  19.69704459165378551688 32.30421986012295576529 8.41290518417686072894
O  16.87776193020329884575 29.23043612852532291413 6.16696437314755385728
O  16.87835593859220750801 35.37843578552405432447 6.16681025162228380054
O  19.54220750059558753264 33.84517862127376019998 6.16686553400752401899
O  19.54190969518316833842 30.76317845047667276503 6.16694281271713151682
Si 16.87864312461224614026 38.45847737782938224882 7.82273276667295558440
O  15.46970084591038663291 39.09362819592625726273 8.40970792245532550169
O  18.13472631084874109320 39.36037116597967155940 8.40971797641947382829
O  17.03249067113054593392 36.91947735817676345960 8.41277248429473267777
O  16.87865370781233664843 38.46043573923385139324 6.16673271751277063402
O  20.79780833879203782999 29.86311288553022080805 8.40997325160826569856
O  20.79828007192809025128 34.74511392144218291378 8.40985083231284136218
H  4.07465742884051707051 24.98677204236657445335 8.03659115466444262665
H  1.41040898398643399503 29.60201496006938270966 8.03674926045876780734
H  1.41040902906295606556 35.00798499203850866479 8.03674926977122616734
H  4.07465743640090671818 39.62322797164662802061 8.03659115962244818832
H  8.94818084770623123347 22.17325470682040844395 8.03830168976599779285
H  8.94818087907468040498 42.43674530213186812944 8.03830168097265840288
H  14.27776170530007604498 22.17320383739897948772 8.03828217763951258235
H  14.27776172437643076307 42.43679616719659009050 8.03828219070009986069
H  18.96055658502132246213 24.87622777282442854130 8.03640577851888693317
H  18.96055653323145051559 39.73377222817543952260 8.03640577823531643276
H  21.62471722511369165431 29.49141992994239558357 8.03658340842547502803
H  21.62471722905729620834 35.11858007585485097479 8.03658340995117370653
H  13.39922795939042110547 34.28531247118937130836 5.85463177001221346529
H  10.85603170048512922108 34.89218231285580174017 5.71721596758898442658
H  8.79316674445058055198 32.97374191103364893252 5.76219939639301603762
H  9.66357959678359357270 30.35160697857545031297 5.76895566855928709771
H  12.30629749867796540741 29.68608881698916945879 5.77123880795847288283
H  14.17430145595357515731 31.65300279584744203021 5.78286317114165715481
H  13.45700859404182025969 39.52750482779948271173 5.78093078838528295904
H  10.82185198599568565214 38.95872177549839676658 5.76976940881336286537
H  8.14980839558078429263 39.50861002868092697327 5.76627385366253619736
H  6.23194667469502583401 37.58116490957819877394 5.76471310520680457756
H  5.44704955047694117098 34.95093755012702274598 5.77257541417059449884
H  3.60664936106357725265 32.96826992832731662020 5.76388710958453476252
H  4.32819223888136228595 30.34484057379757260264 5.76402041735433812164
H  6.20754699333200488098 28.34935899978196616189 5.76818374357645957673
H  7.00943285688380246512 25.75772182323903791712 5.76748914475081875253
H  9.64047061012266937041 25.06526887781459578264 5.76511829313727108826
H  12.31477063265735694131 25.70825778712076825627 5.77188275977407716510
H  14.95393929896434670468 25.09100721990286331220 5.76597661960387597446
H  16.85170393442240310833 27.02666099262124532743 5.76146800090159771912
H  17.64768340146415326330 29.66420704495924454136 5.77142433846950453358
H  19.48180901128249686849 31.64168672074206156708 5.76490010434540955941
H  18.77140968487956129707 34.27358367505286196320 5.76790924550010597471
H  16.89481965263375684572 36.26079389795083329773 5.76914703409490492447
H  16.09152697044222435352 38.86028470145417657022 5.76951241477278031766
P  11.64892044969215945116 32.56256050069063689989 11.21883490013183681810
O  10.52252193458041773511 29.14608734198284878403 12.97845165454348403955
O  11.52304406480661036483 26.41289940376395861676 12.05897362818074824986
O  9.04664074207351553980 26.58196804125119427908 11.08911643704163907387
O  11.94893551301180778523 31.24605821304001551653 12.10787912576237346229
O  6.74499300980530946958 28.20675828664492357234 11.50948389296048901542
O  10.54172666876474906417 33.35408268625356242865 11.87332366452660536993
O  11.27983500914213621513 32.14196398722197756115 9.81337962051354750770
O  12.99576998556823603792 33.40687227642850842813 11.09093942571352897630
N  8.42670106727451617701 29.70495794172867576322 11.92372095977676771383
N  6.38392398000485172815 30.39584069330494386918 10.96345251145939769799
N  6.13525220531360382381 32.61181806588765397237 10.16572393034636512255
C  11.28943647470352118489 27.59788607661367620949 11.33690924692598045453
C  9.77368795092082720544 27.78846436411484788209 11.11495892916812167073
C  11.66776247872203420286 28.85285112721114941792 12.17353889572108016637
C  9.34087194322111891154 28.64639514494679417567 12.33196433877121478417
C  12.01251747039179562648 30.08821681803714298553 11.32265800003994371536
C  8.89278675665373441461 30.98146564580659756416 11.83909562007935001304
C  7.14644510276833955231 29.35977682381362185993 11.48046906296369051859
C  8.13708569421094196628 31.96917304122526459764 11.30365924143138123270
C  6.85366159136287844689 31.67861622073662175580 10.83714570659544307318
H  11.85024052012982309634 27.53486943931846653300 10.39362001520212785977
H  9.57924362301554843668 28.32892447538248958949 10.17382812825228199927
H  12.48009826090552287781 28.61699329108600409199 12.87555743021657761460
H  8.82822609797552004807 28.01209877295958605714 13.06655489486000121246
H  11.27590961892041576675 30.20252863307685942118 10.50921899770272105457
H  13.01239465073823176056 30.02604008431844562210 10.86277900787869299393
H  10.89349759677170226269 25.73166364616906776064 11.73315278482860790632
H  8.10112130076458392125 26.84673673831536078183 11.13601220666787128266
H  9.89531356261826822163 31.17224949053679949884 12.18088496838186429727
H  8.54704220905757594551 32.95829793825868847534 11.18144760371718504643
H  6.60514338121586952468 33.38063714004741200370 9.69807392597195594419
H  5.27939810805597620202 32.39218474026345262473 9.66619098175625701685
H  12.96602573005320380162 33.82482208484651664548 10.20579899167518433956
H  5.58463044325387780731 30.13737451708034242870 10.38973507955313557716
