36
Coordinates from ORCA-job amp_geom E -1529.891526329202
  P          -3.52791399008007     -1.56866118437544     -0.31512694123316
  O          -4.14189208786232     -1.08157432619252     -1.57034259740488
  O          -4.14621250661470     -2.48389473155922      0.66657288296552
  O          -2.05408012735241     -2.20052907483240     -0.72244711626934
  O          -3.03127519630588     -0.24273521446737      0.54216189677477
  C          -2.57679786083241      0.82532341724605     -0.22431615132747
  C          -1.64042257463549      1.69537666509979      0.58680638990377
  O          -0.51152714267630      0.94647965201333      1.06944997381603
  C          -1.05720699134105      2.80498310687240     -0.26789123198665
  O          -0.69756685849656      3.91671483455219      0.51879206388422
  C           0.19890921450546      2.13147973812931     -0.81284360972072
  O           1.20239975548849      3.04853477337876     -1.19375822393049
  C           0.64996088554896      1.31337175557660      0.39570537805357
  N           1.41044986630764      0.13486958381760      0.05607718543052
  C           0.94095723713537     -1.03813724368264     -0.49053509466256
  N           1.88330950412181     -1.92258336802435     -0.68674062402154
  C           3.02854520561437     -1.30620291205498     -0.24599406745434
  C           4.35937422772164     -1.72468459644009     -0.16513470011063
  N           4.75615430842078     -2.93683368894289     -0.62413235737234
  N           5.26837989032163     -0.89857244178808      0.35558977747739
  C           4.86201141692821      0.30328822282548      0.77311437419007
  N           3.64434780497850      0.82227651055680      0.74711780007973
  C           2.75817912386678     -0.02653216812641      0.22915222602665
  H          -1.85282161648206     -2.84140989833242     -0.03395758135673
  H          -2.06333113769954      0.47227951958117     -1.13010205400699
  H          -3.41591810810220      1.44510439464965     -0.57138389565062
  H          -2.15603411024645      2.09881782585373      1.46116376471222
  H          -1.75010582926875      3.09947778140706     -1.06670114355159
  H           0.08940132104594      4.29353722332792      0.10500988761582
  H          -0.05679776283126      1.45738253472966     -1.63491599582909
  H           1.16473415508140      3.16907685081760     -2.14414487630108
  H           1.31597079271213      1.92550578832306      1.01571103082673
  H          -0.11558993751979     -1.19879460410158     -0.68644954638461
  H           4.03703107693707     -3.61614883584083     -0.80318169872298
  H           5.65722364898788     -3.26264125258248     -0.32260245496569
  H           5.64015440262317      0.93605536258553      1.19227733050649
