163
Coordinates from ORCA-job /data/Seafile/amp/al_surf/protonated_al_surf/frames/frame14/amp_al_frame14 E -13417.857823060682
  Si          3.50252674569416     33.89793124700824      7.82744588993150
  Si          3.45805964344581     30.81221678035115      7.87300394151648
  O           2.30801339583603     34.87095996622763      8.36260624720832
  O           2.11957172715621     30.09790668639515      8.46612414647102
  O           3.41097924020458     32.37124970498894      8.38128138529341
  O           3.54475334181001     33.83002187538306      6.18286512830552
  O           3.47772938209929     30.86938675819496      6.22697001214578
  Si          6.12111786757372     26.18106500576765      7.95277763240891
  Si          8.74673979625084     24.53769360669518      8.36298369824284
  O           4.58153554443273     25.76230063837207      8.30381650531572
  O           7.27585156402813     25.26276758310802      8.60715486412652
  O           8.96390172063054     22.90028564952430      8.67179877500458
  O           6.37027548806628     26.18703126286887      6.32060756561502
  O           8.59479979220851     24.49321496707420      6.65648865060257
  Si          6.08858771021442     29.21847749456996      7.76963663310600
  Si          6.14297759571213     35.44439751077193      7.72503958964645
  Si          8.91061394397391     33.88747826014939      7.60961650504215
  Si          8.85712502067815     30.78343384425322      7.54357701411370
  O           4.83880427810500     30.10039441004954      8.36711042268101
  O           4.88662434994697     34.60408970997741      8.33401463027631
  O           7.52064691529783     34.65095754086403      8.06348641582989
  O           7.47641992652563     30.05830282446430      7.96830323853346
  O           6.21339872792011     27.75485477466051      8.42962640487172
  O           8.81930615401650     32.31921720273851      8.10355692054327
  O           5.74720677699063     29.06363128946139      6.16538984570221
  O           5.91838994003269     35.63325616219041      6.10907292698205
  O           9.04480682764700     33.88247723346876      5.98042141685100
  O           9.01926555286372     30.90347882953699      5.91592721913807
  Si          6.19033445712978     38.52285988262849      7.84463175723739
  Si          8.86309277629607     40.08185197084342      7.85889838832650
  O           4.91546967332040     39.35491479380531      8.43681609945459
  O           7.55855090238164     39.23829972608092      8.36796878819043
  O           6.19267680001908     36.95852054282759      8.33149254059573
  O           8.65498197899617     41.60223394420765      8.41939082143164
  O           6.21947952381322     38.54582387537544      6.20069995979442
  O           8.90374963558855     40.01359224125110      6.21224533293359
  Si         11.45624326612330     26.05041261928981      7.73852454133966
  Si         14.14869991282774     24.54212570724286      7.84378377057803
  O          10.13204287567521     25.47410280413705      8.42061787677006
  O          12.85027677022879     25.39916761895406      8.32386112313408
  O          13.98165777466261     23.01893444657353      8.40310629367055
  O          11.39979255491626     25.69886029287986      6.13623861052828
  O          14.20551295970655     24.56734035134816      6.19785218540901
  Si         11.53137240665036     29.24972254831435      7.56598363661747
  Al         11.66584521298359     35.43496229076506      7.77005315031487
  Si         14.27550520672635     33.79120786797519      7.83357834206749
  Si         14.21182207396975     30.74548653899157      7.70466493464348
  O          10.16285277146729     29.96959741348597      8.11852660787702
  O          10.14837980438781     34.63718949440617      8.31948719093189
  O          13.05320945820791     34.59401727970571      8.49601108555101
  O          12.87332212850612     29.94094159691880      8.19887062907400
  O          11.51996289037534     27.67987034416622      7.95227238102185
  O          14.34016530563196     32.22386929844756      8.37601210018632
  O          11.54981185441247     29.50003309132750      5.94462390175105
  O          11.85636085864354     35.10849249259458      6.05451902676953
  O          14.07573470661449     33.68116542900967      6.20674880414268
  O          14.07098021580768     30.92088545792465      6.08084228627058
  Si         11.63412653934660     38.69707372392400      7.82093676290648
  Si         14.38331288569010     40.07594862624348      7.87946559815983
  O          10.27255440463989     39.45240029805554      8.37262372211419
  O          12.98326104538217     39.44106675364382      8.41827889045301
  O          11.62221711819078     37.14231836868288      8.14945277932985
  O          14.62901317931228     41.61056602401953      8.39347970307891
  O          11.72287997966022     39.03560391627660      6.20193125241836
  O          14.39182143181133     39.96714952459276      6.23682962549035
  Si         16.87589819204457     26.01128842247783      7.87759215386388
  O          15.52679469367563     25.25132029550445      8.38288511645786
  O          18.15965712078726     25.19707490301648      8.47216644318837
  O          16.84800296939994     26.01127579322756      6.23314566238894
  Si         16.91850915054877     29.08685866422429      7.76893341150854
  Si         17.05635547392017     35.32954484404516      7.80684894211428
  Si         19.68847362679186     33.74175030110039      7.85892565789372
  Si         19.55804057787725     30.65419708468602      7.84907672276994
  O          15.51480034037834     29.83770208438849      8.08241626599643
  O          15.73191902862129     34.47780981442180      8.16528036805003
  O          18.38001664580065     34.55965234619379      8.39431453342732
  O          18.16544390353558     29.96192985923685      8.35387460382374
  O          16.87215614210316     27.57294654302350      8.38011696433880
  O          19.67996891354014     32.19203774155338      8.38763398607049
  O          17.15148299818354     28.88598617243881      6.15308986783030
  O          17.32111537948948     35.40672405093996      6.18289783310788
  O          19.59775642135397     33.67303155491010      6.21687426347984
  O          19.51829142833280     30.71089802706839      6.20447263365999
  Si         16.98477886563278     38.40934702108146      7.85058153801516
  O          15.69566675063255     39.24534593978583      8.40410002359657
  O          18.42001511315845     39.00163321128439      8.36173733739242
  O          16.94959075944307     36.85902762592404      8.36873069231853
  O          16.88872147115853     38.38716153348741      6.20803097853767
  O          20.74813715713253     29.68136603105382      8.39258583567375
  O          21.10210403938910     34.37745148263189      8.37400629892327
  H           4.07465743273532     24.98677204324271      8.03659115451220
  H           1.41040896486919     29.60201496809483      8.03674925491201
  H           1.41040897050601     35.00798496054824      8.03674926331139
  H           4.07465744452916     39.62322796834265      8.03659116046861
  H           8.94818084786650     22.17325472320802      8.03830169371872
  H           8.94818088005142     42.43674527891181      8.03830168372302
  H          14.27776170688113     22.17320384851023      8.03828218841784
  H          14.27776176536628     42.43679620732684      8.03828218618889
  H          18.96055658238775     24.87622777255494      8.03640577841805
  H          18.96055653853866     39.73377222906262      8.03640577885104
  H          21.62471723264975     29.49141993071455      8.03658340904976
  H          21.62471722540949     35.11858006959615      8.03658341039506
  H          13.25739407185556     34.18308408192438      5.93625653542870
  H          11.06223890823565     34.83826791710006      5.58724497849679
  H           9.00801998641144     32.98935634924435      5.60814351531944
  H           9.79147518112557     30.42435327392589      5.57675429409047
  H          12.36709131165047     29.93192550458183      5.64604624519150
  H          14.08448411920741     31.86883540705456      5.83153449274516
  H          13.52939128226220     39.67996905610855      5.88879528081049
  H          10.87175008929824     39.24977911036820      5.80041620587866
  H           8.10046167434342     39.63739005813841      5.82851004915036
  H           6.09910676462538     37.66715209536913      5.81003706886496
  H           5.25173859681222     35.04079902567457      5.73513024206746
  H           3.53521877464266     32.91737493535771      5.85389262453674
  H           4.14219239818596     30.26762221453311      5.85164388729009
  H           5.96855641205845     28.18049492998136      5.82811271508896
  H           7.15557030359403     25.63493528870874      6.12993358543503
  H           9.43006558859507     24.65669596660701      6.20619989032186
  H          12.24159820144401     25.40934098705367      5.76433782608209
  H          14.99501953225188     25.00661107228743      5.85285306616194
  H          16.99122855717433     26.89338291615449      5.85593766504900
  H          17.80802735531209     29.48571471318963      5.77381029059274
  H          19.53623644058100     31.61881101724411      5.86458352840431
  H          18.89383589854483     34.24100574559556      5.86171131449903
  H          17.10613339146265     36.26275953166407      5.78938491290190
  H          16.10254356396220     38.84989309080389      5.87801088743449
  P           7.88118632826068     24.99465419417661     11.64701943282685
  O           7.59489908503970     26.43151476661372     11.45623674027360
  O           6.89000592243896     23.92201642340439     11.79253898334947
  O           8.90098260035505     24.51610317652371     10.36694262984423
  O           8.97806238085382     24.80787786144620     12.84034503225995
  C           9.65031416866434     25.90299106782073     13.39746214701427
  C          10.94023566826742     26.26850036651273     12.70130863164730
  O          10.69947379397499     26.84523300298600     11.41356204528477
  C          11.72759238753148     27.32381273767675     13.48855514962167
  O          12.62178368913538     26.80907780000577     14.42862893206131
  C          12.38973972401689     28.13961834370397     12.38131606124528
  O          13.54951130442371     27.43344882487821     12.01160308468238
  C          11.33608453299918     28.05945493052439     11.28270251420334
  N          10.35380185796501     29.15420258130604     11.39442334962066
  C           8.98032395442696     29.03673069049463     11.50154485139708
  N           8.37444430000938     30.19909273357419     11.44613402196257
  C           9.37840695619311     31.09974103953246     11.24875949265559
  C           9.33577378882898     32.45174916957770     10.92384725720813
  N           8.22309758546991     33.18369393393525     10.92090893456428
  N          10.53208908284481     32.99068422484337     10.58116022146720
  C          11.70142476635100     32.29168395111382     10.59907791133560
  N          11.80405309146032     31.04434971644231     10.93567149869923
  C          10.62063591281031     30.46802077488522     11.20348224911291
  H           9.06290223267180     23.56950144037230     10.49258886885555
  H           8.99497350897286     26.78053664354627     13.42791650489858
  H           9.90987154561623     25.62927816574902     14.42657128243624
  H          11.55358145597178     25.37275301723268     12.55754913774273
  H          11.02782677245087     27.96607481490238     14.03322430382629
  H          13.38725204188167     26.49634791271336     13.93120383926781
  H          12.61844994446436     29.16808856911555     12.67194031745208
  H          14.00332775972565     27.90189411967112     11.30565405857539
  H          11.78277750805561     28.13325352926938     10.28947520216553
  H           8.48984652969108     28.05790002245937     11.56149569286428
  H           7.36028935611703     32.66313240569905     10.97164358476371
  H           8.18535247899070     34.06093865184649     10.42463890190937
  H          12.56984197670538     32.85180015362904     10.27415880849916
  H          10.52409888025089     33.86474875545959     10.04348971572280
