163
8 Eopt=-411.6227235116 (Eh) Einter=-26.873378 (kcal/mol)
Si 3.55625019716432433370 33.84481352310599078237 7.82283052338941509163
Si 3.55593639487209767225 30.76681375296017861842 7.82283149642553254921
O  2.14730563682186748053 34.47995712178526162006 8.40980825181732960516
O  2.14686231933845306230 30.13195801611480106885 8.40980966013565378603
O  3.71008409415497819595 32.30579811882687835123 8.41283350938176610612
O  3.55527628731402334239 33.84681297567991720143 6.16683050728737924828
O  3.55496202284667361937 30.76481349685400701333 6.16683148070829290077
Si 6.21946584788678613620 26.15154206615012100201 7.82287394366373423082
Si 8.88330921786566207743 24.61427032247030410872 7.82291554051690596339
O  4.81039181948940353095 25.51668623392156121099 8.40985212586528518841
O  7.47536479307832468777 25.24941400975487226788 8.40989357672586912429
O  9.03814384229208833688 23.07525464090483779955 8.41291806183364343497
O  6.21949137489198378148 26.14954191061340083024 6.16687394247308695583
O  8.88333532747333620705 24.61627018264710997641 6.16691554096012062303
Si 6.21977963222201868376 29.22954193309926651523 7.82287342141211627933
Si 6.22040692145205920127 35.38154177707539105313 7.82287164974437132514
Si 8.88425010455093655537 33.84427024761033919731 7.82291378462391939763
Si 8.88393627392905216311 30.76627025419455918609 7.82291470162877811134
O  4.81083521698629112961 29.86468585747845594369 8.40985130776436307087
O  4.81133299369013034408 34.74668571262560590185 8.40984984586360262426
O  7.47630574699167915753 34.47941394724809782701 8.40989158977213691060
O  7.47586233469319960676 30.13141411628406629575 8.40989275233340016769
O  6.37361355685475938770 27.69052643370016042468 8.41287611526716005983
O  9.03908403785601066716 32.30525454871331447748 8.41291662927478434142
O  6.21980562136419301567 29.23154163470860567031 6.16687340436680031530
O  6.22043261278884251908 35.37954121094986703611 6.16687165209394638765
O  8.88427616949857679174 33.84626969096187565356 6.16691375972440347653
O  8.88396190478401415191 30.76426993651130814555 6.16691459146260179125
Si 6.22072074865279134315 38.45954160537743860004 7.82287044030839329167
Si 8.88487749479918242912 39.99627008743885170361 7.82291135090581590816
O  4.81177610575810366100 39.09468497625905314408 8.40984815250882355997
O  7.47680356757534791967 39.36141385543697879257 8.40988966321042852314
O  6.37455463187721438345 36.92052622913320902853 8.41287352671839627760
O  9.04002569316513238107 41.53525449213910292201 8.41291308220878342183
O  6.22074678687239668307 38.46154080483787396361 6.16687043972209369969
O  8.88490322624018524778 39.99426934498375629801 6.16691135356932917944
Si 11.54846582163854407099 26.15099865389410638272 7.82295695380296152166
Si 14.21330910872709196724 24.61372706442764979329 7.82299879606793790998
O  10.13939192187384819022 25.51614235881577386067 8.40993509722164489517
O  12.80436466729794986463 25.24887075063497832161 8.40997671349400022223
O  14.36714370279833552502 23.07471155145942276476 8.41300136318620950249
O  11.54849137286686477921 26.14899849766598549650 6.16695699223956328439
O  14.21233531425366081180 24.61572701448231015320 6.16699878099800180564
Si 11.54877953356461617318 29.22899822976489048187 7.82295684035139249346
Si 11.54940672782595179058 35.38099845883949257086 7.82295480687412414511
Si 14.21425009370872594161 33.84372663571050310338 7.82299690972573813497
Si 14.21393604177981018211 30.76572677375872899574 7.82299770766058433225
O  10.13983512455727087342 29.86414249919808483469 8.40993433875157947455
O  10.14033288732457194214 34.74614237579675091183 8.40993305610289176855
O  12.80530557816893733047 34.47887083711965772181 8.40997468161166494838
O  12.80486211370086735428 30.13087109057269330492 8.40997573640015438912
O  11.70261333845965978639 27.68998312426240104855 8.41295909792301799257
O  14.36808371947965135007 32.30471143192949767808 8.41299970368197591597
O  11.54880554317858987190 29.23099829790669801355 6.16695642015624923005
O  11.54943234817198671749 35.37899793883934052019 6.16695479926024514583
O  14.21327584445916869527 33.84572651027571055238 6.16699676403538887826
O  14.21296161864480289694 30.76372665504900538735 6.16699769119240226445
Si 11.54972062156243772790 38.45899845503974745498 7.82295354347100957426
Si 14.21487733852094770270 39.99572671151963021430 7.82299437131436281589
O  10.14077631190479777956 39.09414232837037417312 8.40993138845598409148
O  12.80580352256915865894 39.36087054699186182916 8.40997282030265402852
O  11.70355452471310897522 36.91998300041962011164 8.41295665323551666859
O  14.36902551388351056971 41.53471119076208850629 8.41299610596009550534
O  11.54974665565601021910 38.46099770712718424193 6.16695360036226780664
O  14.21390301953139712055 39.99372599071615752564 6.16699441196497843976
Si 16.87746540290499552839 26.15045546567893097745 7.82304011399943011185
O  15.46839169601377150798 25.51559921995703916764 8.41001837313560329790
O  18.13336401857404212024 25.24832717944743620819 8.41005977476255850434
O  16.87749085190499442888 26.14845510331350908473 6.16704011512329053346
Si 16.87777916949792711421 29.22845536866287829980 7.82303946397951222025
Si 16.87840656050077825512 35.38045546643140681908 7.82303784579432992530
Si 19.54224962092656170398 33.84318377952277501208 7.82307948330249303126
Si 19.54193572642425991148 30.76518362116364713188 7.82308037274686896012
O  15.46883491281373146364 29.86359914286168759645 8.41001743759791331456
O  15.46933260899911743991 34.74559916691134020539 8.41001590471052651310
O  18.13430527821947180200 34.47832723363011098172 8.41005738558311044528
O  18.13386196197324551349 30.13032742725636836667 8.41005879394278288430
O  17.03161312483630140946 27.68943984603251706744 8.41304222236551879632
O  19.69708355303747993048 32.30416804355081694666 8.41308233195590027265
O  16.87780511117944115540 29.23045500499468474231 6.16703948421142200687
O  16.87843193440614442125 35.37845464627504554755 6.16703760130457379063
O  19.54227534844768854327 33.84518323455937149902 6.16707943527561042174
O  19.54196108707909118607 30.76318307754066339044 6.16708037248877705139
Si 16.87872041179122462040 38.45845523814480060310 7.82303646871991897882
O  15.46977614410008072809 39.09359902961777066821 8.41001440700654079308
O  18.13480302602263094514 39.36032777642896007819 8.41005555417974903776
O  17.03255436190881511038 36.91943972009043051230 8.41303941708411961997
O  16.87874623851794453344 38.46045461586130187470 6.16703646311778008737
O  20.79783428708867631940 29.86305522946402035700 8.41010005911421565372
O  20.79833212386171581443 34.74505629104206150259 8.41009855950622586818
H  4.07465742972885180961 24.98677204085620218166 8.03659115500568077550
H  1.41040896901971635202 29.60201496901794371297 8.03674925634820880305
H  1.41040900865158569388 35.00798498511930745281 8.03674926199888695066
H  4.07465743666810542578 39.62322797214176972602 8.03659115987939465242
H  8.94818084769858401728 22.17325470610271409555 8.03830168966703340061
H  8.94818087836769393562 42.43674530337917616407 8.03830168089804963927
H  14.27776169982643672540 22.17320384924303766638 8.03828218701844221528
H  14.27776173976970852664 42.43679615848445507709 8.03828218886429368695
H  18.96055658449530412213 24.87622777366422255341 8.03640577891674467992
H  18.96055653609263202952 39.73377222630882243948 8.03640577754380736053
H  21.62471723001966239508 29.49141993137187256480 8.03658340876798860108
H  21.62471723314618543554 35.11858007427895955743 8.03658341174264378992
H  13.43954240484128170863 34.27033902902534379109 5.76911862420480581193
H  10.79702478052987046908 34.91824968017326824565 5.76839602533510209526
H  8.90770700551431460212 32.96594596376596086884 5.76499475622780543915
H  9.65945428924167437401 30.34299411377764243980 5.76888004645803498249
H  12.30259132850502368228 29.68912271902334154561 5.76803922826826820369
H  14.18560350645552858850 31.64418153372653819133 5.76552257610353446893
H  13.46208428997392481108 39.53603768354973624355 5.76468154353025674652
H  10.78553467957651967879 38.90473306548949494754 5.77122839050222147250
H  8.14831461442926574534 39.50994490573054918059 5.76699955037405231906
H  6.23317386268808171224 37.58286575809553653471 5.76180503595647763859
H  5.45415702049725314993 34.93908511546516137969 5.77152547625619494198
H  3.60566386873167221694 32.96814933235325639771 5.76410508777334662511
H  4.32812544092740303370 30.34544671663740800227 5.76331957710304099152
H  6.21212642018580929459 28.34933201721459994360 5.76816829205372183509
H  7.00946743375878877913 25.75759722038855770165 5.76754704158260533831
H  9.64012207172429747004 25.06582757814544137887 5.76488469570224637550
H  12.31500792264172972068 25.70853944271074453809 5.77192568604880129612
H  14.95343799036469967234 25.09203406509291411908 5.76610003190622233404
H  16.85241663971615366791 27.02653749686479045522 5.76116217517991024977
H  17.64630213774888289890 29.66655897824931642504 5.77122747422870396861
H  19.48194552548639180145 31.64158903397011712855 5.76482831416670737923
H  18.77355786592946174096 34.27390174876125428227 5.76498788312635923603
H  16.88031300924254551887 36.26100717865526945616 5.76894104501674220842
H  16.09309773688478983900 38.86024083943861739954 5.76722976360336758717
P  6.46922091302758683895 32.42407256186546504750 10.03569694057708616697
O  10.58344256005980810187 32.71936007839963878041 10.43502869639086938491
O  12.51489502096705486167 33.07649172018558658692 13.35540599474176559625
O  12.18198006479645378874 30.81976102939351136456 11.95916447599172727223
O  7.71790665160707334280 31.38782028443437610576 10.54406322827165531919
O  6.66015521103395879976 33.67968683124417594854 10.79208657339231791639
O  5.24684243479428147339 31.58556624035012916352 10.74023764905086686383
O  10.97199791831379300788 39.55347386103041174010 11.53596766051472322090
O  6.29996759713047005391 32.30109867164463821609 8.56256717846079951073
N  10.73874740409159223020 34.93814359668746760690 11.30383256786852719245
N  9.47203068630406441741 36.76030518370725985733 11.47372188687794114514
N  12.91460286070998719765 35.95095593972427394647 11.07830345930728910275
N  12.79617414751953319296 38.28899188930318331359 11.11361223275440579528
N  14.82058167412892757397 37.18895118854251080620 10.72447484139420836868
C  11.29680622489349950399 32.93859289252891642263 12.68956215526781150515
C  10.98244817150337659939 31.46860952818943246712 12.33613664811992194359
C  11.26517605434032454070 33.59590943136343099695 11.27967448012633333576
C  10.01923518979079830160 31.62901542881961347575 11.16379749293861678439
C  8.54458810634138998807 31.81349728658975450912 11.56550830525959838724
C  11.57664883848564940649 36.00513615250044097138 11.25930740721013734174
C  9.46957125935599819400 35.46439739070277852306 11.40030695141840411111
C  10.78360133519066721419 37.14687580616893569641 11.38907427799723315331
C  11.40736086253586023531 38.43314037095604618344 11.36101008279258728351
C  13.46844349499134985138 37.11645619854229494194 10.94548759322993980447
H  10.51903189113853542835 33.36946982108260328914 13.32538241101804210587
H  10.57337431242933689646 30.91134248072015822117 13.18096848442088209197
H  12.29473034963201527603 33.72546291066505830258 10.90648688324754544965
H  10.04882827856133076239 30.76852488304142596576 10.49174545768149968694
H  8.31505141819457094243 32.85947948605716106840 11.79311407156974311761
H  8.35315806850484676715 31.20142893420732832510 12.46401912606805950645
H  13.10361010893564959190 32.40492486296628271703 12.97363575572953031667
H  12.29005828119335674842 30.91067169713822693211 11.00331017840257352702
H  8.57054747187747523185 34.87609072636338680695 11.35006764515612154298
H  13.28411280692347418153 39.15978552670480894449 10.94762971765413972491
H  15.13520221100538343251 37.98363911162053341286 10.18827652734459299211
H  15.19910402075231914409 36.31086614052517802520 10.39919155923552729348
H  5.00548759669129772476 30.93252469554227701565 10.08953054927526515883
