37
Guest for DOCKER
P 4.764100 1.477600 0.108500
O 1.227800 -0.799200 1.066200
O -0.628500 -2.761400 -1.317900
O 1.345200 -3.736500 0.333300
O 3.757800 0.331400 0.652100
O 3.928600 2.190100 -1.078700
O 5.886400 0.626300 -0.685600
O -4.243000 3.018600 -0.426700
O 5.298500 2.403200 1.162100
N -0.869600 0.073200 0.173300
N -1.391100 2.203800 -0.263300
N -3.080000 -0.892600 0.374800
N -4.754400 0.786700 0.032400
N -5.361700 -1.441500 0.490500
C 0.372800 -1.874200 -0.861100
C 1.648000 -2.581800 -0.448200
C -0.015300 -1.147200 0.422200
C 2.303700 -1.554400 0.465800
C 3.209100 -0.583700 -0.279900
C -2.231800 0.137700 0.162100
C -0.409600 1.340900 -0.087600
C -2.519300 1.453900 -0.107700
C -3.892200 1.869300 -0.191100
C -4.345500 -0.540400 0.304300
H 0.584000 -1.153800 -1.660900
H 2.261600 -2.901000 -1.295500
H -0.596000 -1.776200 1.107600
H 2.857600 -2.019300 1.289200
H 2.643200 -0.020500 -1.028200
H 4.016700 -1.129100 -0.777700
H -0.258100 -3.257500 -2.067600
H 2.190400 -4.134400 0.603600
H 0.645000 1.574900 -0.140500
H -5.752900 0.970400 -0.004000
H -6.334500 -1.160700 0.434100
H -5.168400 -2.416800 0.690300
H 6.673700 1.092500 -1.039100
