37
Coordinates from ORCA-job gmp_geom E -1605.226872248567
  P           4.01781617958198      1.65926364162976      0.38503711642297
  O           1.15910387229342     -1.02338693012341      0.97958324948104
  O          -0.48517121692426     -2.71886739454237     -1.65304179115222
  O           1.26154390712844     -3.92690241517567      0.09625147540485
  O           3.71614413207592      0.13114067973712      0.83909922380325
  O           2.94742045993409      2.12321831725409     -0.54717808192582
  O           5.40350253955119      1.52034677426324     -0.44946969581622
  O          -3.99936999751180      3.05565811767231     -0.57336150175996
  O           4.33098862658812      2.38759307402605      1.64026825453869
  N          -0.68626761025544     -0.06393693109381     -0.05224329898660
  N          -1.06675315910951      2.05128919093796     -0.64722165905743
  N          -2.92772228213217     -0.78391018881110      0.49202368396092
  N          -4.47796236037385      0.95353167629231      0.15394005294213
  N          -5.16825841740687     -1.12844177611383      0.88584883477752
  C           0.54161494879477     -1.97602281021449     -1.06487055034322
  C           1.73782509780912     -2.75431231272926     -0.52301771274455
  C           0.02644149059106     -1.29165235773376      0.19606329911708
  C           2.29286114914321     -1.75218207493105      0.48389535557656
  C           3.30908057707115     -0.81504270326703     -0.12932109480301
  C          -2.03218616617278      0.12536857866952      0.07559641568553
  C          -0.15760214227481      1.12932638491635     -0.48955448490816
  C          -2.25264071016454      1.44131785968293     -0.30340211943867
  C          -3.58322806797949      1.94109983148345     -0.27859760087289
  C          -4.15685577010205     -0.32085264709607      0.51994873634520
  H           0.91643276090155     -1.20872185657801     -1.75134671116783
  H           2.46537583508901     -2.98665807734307     -1.30795235963124
  H          -0.67477275695688     -1.95260024148405      0.71511585457005
  H           2.74393388665427     -2.27035501462208      1.33509713381808
  H           2.88261307418294     -0.30583739009702     -0.99917325560900
  H           4.17262612424453     -1.40283763867618     -0.46071831346991
  H          -0.22428734196071     -2.94678194822308     -2.55096064057415
  H           2.01380535307977     -4.38527411199207      0.48474116789293
  H           0.90879591173998      1.26538673365725     -0.63329019486832
  H          -5.44722203967350      1.24128568560181      0.18270082677283
  H          -6.05976979529955     -0.74095238575943      1.14605845038054
  H          -4.91479339837232     -2.00767743524492      1.30453345012700
  H           5.22923730621600      1.40568009602764     -1.38998151448799
