37
Coordinates from ORCA-job gmp_geom E -1605.186135911150
  P       4.764100      1.477600      0.108500
  O       1.227800     -0.799200      1.066200
  O      -0.628500     -2.761400     -1.317900
  O       1.345200     -3.736500      0.333300
  O       3.757800      0.331400      0.652100
  O       3.928600      2.190100     -1.078700
  O       5.886400      0.626300     -0.685600
  O      -4.243000      3.018600     -0.426700
  O       5.298500      2.403200      1.162100
  N      -0.869600      0.073200      0.173300
  N      -1.391100      2.203800     -0.263300
  N      -3.080000     -0.892600      0.374800
  N      -4.754400      0.786700      0.032400
  N      -5.361700     -1.441500      0.490500
  C       0.372800     -1.874200     -0.861100
  C       1.648000     -2.581800     -0.448200
  C      -0.015300     -1.147200      0.422200
  C       2.303700     -1.554400      0.465800
  C       3.209100     -0.583700     -0.279900
  C      -2.231800      0.137700      0.162100
  C      -0.409600      1.340900     -0.087600
  C      -2.519300      1.453900     -0.107700
  C      -3.892200      1.869300     -0.191100
  C      -4.345500     -0.540400      0.304300
  H       0.584000     -1.153800     -1.660900
  H       2.261600     -2.901000     -1.295500
  H      -0.596000     -1.776200      1.107600
  H       2.857600     -2.019300      1.289200
  H       2.643200     -0.020500     -1.028200
  H       4.016700     -1.129100     -0.777700
  H      -0.258100     -3.257500     -2.067600
  H       2.190400     -4.134400      0.603600
  H       0.645000      1.574900     -0.140500
  H      -5.752900      0.970400     -0.004000
  H      -6.334500     -1.160700      0.434100
  H      -5.168400     -2.416800      0.690300
  H       6.673700      1.092500     -1.039100
37
Coordinates from ORCA-job gmp_geom E -1605.211150162235
  P       4.640316      1.550864      0.075813
  O       1.181917     -0.823178      1.039749
  O      -0.645993     -2.780013     -1.311059
  O       1.328664     -3.759708      0.309408
  O       3.683247      0.374149      0.620266
  O       3.860468      2.256330     -1.088921
  O       5.805849      0.675122     -0.612407
  O      -4.199070      2.995250     -0.434436
  O       5.130495      2.415311      1.187871
  N      -0.822604      0.010405      0.162515
  N      -1.293849      2.143418     -0.287823
  N      -3.057421     -0.895581      0.388095
  N      -4.682910      0.797964      0.044783
  N      -5.313438     -1.368999      0.522186
  C       0.372673     -1.913935     -0.869164
  C       1.657161     -2.601165     -0.447876
  C      -0.025737     -1.192625      0.405097
  C       2.284208     -1.541470      0.448049
  C       3.164575     -0.568061     -0.306755
  C      -2.183618      0.104421      0.160041
  C      -0.337076      1.262312     -0.111723
  C      -2.448944      1.427017     -0.120801
  C      -3.813917      1.858831     -0.195585
  C      -4.303179     -0.506650      0.321840
  H       0.594211     -1.182223     -1.653823
  H       2.284634     -2.889948     -1.295627
  H      -0.620363     -1.819828      1.072912
  H       2.848872     -1.986572      1.270284
  H       2.586256     -0.034990     -1.066520
  H       3.983439     -1.106225     -0.793113
  H      -0.299149     -3.274653     -2.061243
  H       2.157341     -4.159104      0.592261
  H       0.721485      1.466134     -0.170434
  H      -5.673461      1.000121      0.014406
  H      -6.272446     -1.075638      0.472218
  H      -5.124842     -2.333768      0.727700
  H       6.594505      1.144985     -0.897086
37
Coordinates from ORCA-job gmp_geom E -1605.220942833165
  P       4.578946      1.586886      0.045750
  O       1.152053     -0.828238      1.002952
  O      -0.660969     -2.768089     -1.325450
  O       1.310962     -3.763559      0.291652
  O       3.655291      0.389377      0.589125
  O       3.889460      2.278555     -1.091841
  O       5.790669      0.684804     -0.513888
  O      -4.233900      2.969761     -0.444699
  O       5.007895      2.380026      1.223163
  N      -0.802434     -0.003789      0.133528
  N      -1.262553      2.126275     -0.340149
  N      -3.041723     -0.883762      0.406240
  N      -4.655752      0.797701      0.068042
  N      -5.277385     -1.346063      0.586180
  C       0.376913     -1.931599     -0.894015
  C       1.665120     -2.612495     -0.449997
  C      -0.035475     -1.196594      0.370633
  C       2.272899     -1.529176      0.430499
  C       3.157666     -0.573244     -0.328842
  C      -2.163305      0.101147      0.149210
  C      -0.316610      1.243585     -0.166557
  C      -2.430856      1.426977     -0.146974
  C      -3.792237      1.853546     -0.201698
  C      -4.287161     -0.485787      0.354782
  H       0.623523     -1.193093     -1.665654
  H       2.311789     -2.877429     -1.291835
  H      -0.646617     -1.836239      1.013804
  H       2.835706     -1.965953      1.258599
  H       2.589360     -0.066044     -1.114002
  H       3.983649     -1.123528     -0.788660
  H      -0.342256     -3.270738     -2.080603
  H       2.126040     -4.170219      0.598624
  H       0.742049      1.435708     -0.237283
  H      -5.642736      1.013547      0.048156
  H      -6.240514     -1.068107      0.553125
  H      -5.060006     -2.301959      0.800312
  H       6.584803      1.176107     -0.731129
37
Coordinates from ORCA-job gmp_geom E -1605.222254422954
  P       4.537130      1.598490      0.090395
  O       1.138417     -0.857919      0.982447
  O      -0.635669     -2.768561     -1.404859
  O       1.300550     -3.788215      0.248326
  O       3.641391      0.367088      0.616338
  O       3.884282      2.238254     -1.087205
  O       5.824914      0.746900     -0.385754
  O      -4.237264      2.969672     -0.497681
  O       4.867493      2.421954      1.281143
  N      -0.805829     -0.011408      0.070725
  N      -1.263751      2.106845     -0.460381
  N      -3.037868     -0.862672      0.448656
  N      -4.652473      0.818427      0.105541
  N      -5.270917     -1.310725      0.727924
  C       0.397369     -1.943850     -0.946144
  C       1.673109     -2.633747     -0.474795
  C      -0.040022     -1.211765      0.317035
  C       2.266076     -1.555349      0.424393
  C       3.171317     -0.598308     -0.310439
  C      -2.164617      0.106006      0.126382
  C      -0.320911      1.222529     -0.288709
  C      -2.432134      1.425016     -0.207341
  C      -3.788701      1.860257     -0.231983
  C      -4.286022     -0.458552      0.427375
  H       0.669924     -1.198028     -1.702860
  H       2.338205     -2.887996     -1.306041
  H      -0.670007     -1.861781      0.932719
  H       2.813307     -2.002548      1.258256
  H       2.627267     -0.097677     -1.117718
  H       4.011066     -1.151435     -0.742352
  H      -0.315358     -3.256883     -2.169900
  H       2.105737     -4.202405      0.574030
  H       0.737486      1.402387     -0.396314
  H      -5.636956      1.048719      0.108770
  H      -6.235832     -1.034832      0.721838
  H      -5.041024     -2.258116      0.967930
  H       6.592613      1.288527     -0.588646
37
Coordinates from ORCA-job gmp_geom E -1605.223134992437
  P       4.478653      1.604084      0.175445
  O       1.112114     -0.891074      0.955408
  O      -0.597032     -2.750166     -1.521911
  O       1.278115     -3.813586      0.184726
  O       3.629791      0.322911      0.677527
  O       3.848923      2.197571     -1.036034
  O       5.843566      0.829149     -0.237851
  O      -4.246700      2.952470     -0.589699
  O       4.710406      2.447624      1.380033
  N      -0.809674     -0.022813     -0.022027
  N      -1.275998      2.068687     -0.645840
  N      -3.019869     -0.832849      0.511391
  N      -4.642368      0.838017      0.153728
  N      -5.237907     -1.256303      0.933135
  C       0.428540     -1.946131     -1.020297
  C       1.679633     -2.654904     -0.509031
  C      -0.046980     -1.224517      0.238889
  C       2.248711     -1.591294      0.425052
  C       3.193454     -0.637263     -0.265966
  C      -2.162618      0.110821      0.094197
  C      -0.333259      1.186516     -0.471972
  C      -2.436730      1.413448     -0.299082
  C      -3.786753      1.858059     -0.282239
  C      -4.269859     -0.422257      0.530688
  H       0.740371     -1.191723     -1.753621
  H       2.373302     -2.896777     -1.321170
  H      -0.703194     -1.885034      0.814506
  H       2.764014     -2.058411      1.269618
  H       2.695411     -0.137091     -1.103131
  H       4.047083     -1.201713     -0.657221
  H      -0.275908     -3.206625     -2.307165
  H       2.066427     -4.238971      0.539032
  H       0.721877      1.349552     -0.635599
  H      -5.623193      1.084642      0.185157
  H      -6.203913     -0.983379      0.965752
  H      -4.986047     -2.187958      1.213116
  H       6.559911      1.435587     -0.456443
37
Coordinates from ORCA-job gmp_geom E -1605.223529328488
  P       4.419125      1.608757      0.282908
  O       1.080637     -0.917709      0.927717
  O      -0.548944     -2.745642     -1.623704
  O       1.270411     -3.835891      0.130403
  O       3.626037      0.277365      0.754336
  O       3.756788      2.213001     -0.906524
  O       5.813833      0.901607     -0.170384
  O      -4.249067      2.933439     -0.669260
  O       4.632942      2.421603      1.514101
  N      -0.813383     -0.045708     -0.112694
  N      -1.289438      2.016757     -0.820181
  N      -3.001127     -0.805314      0.560860
  N      -4.625493      0.861248      0.196221
  N      -5.198663     -1.187245      1.108538
  C       0.463411     -1.953024     -1.082881
  C       1.693995     -2.670745     -0.535025
  C      -0.053970     -1.242582      0.166447
  C       2.230986     -1.618796      0.431743
  C       3.208926     -0.664624     -0.213424
  C      -2.158708      0.108094      0.058669
  C      -0.348314      1.133361     -0.648734
  C      -2.439166      1.392716     -0.387621
  C      -3.782098      1.850654     -0.333761
  C      -4.247256     -0.381056      0.619088
  H       0.804855     -1.193023     -1.796945
  H       2.416537     -2.900484     -1.325618
  H      -0.729268     -1.910230      0.710592
  H       2.712958     -2.100464      1.288144
  H       2.749582     -0.151591     -1.065021
  H       4.067200     -1.238537     -0.581859
  H      -0.222128     -3.164885     -2.427178
  H       2.043888     -4.265261      0.511549
  H       0.700012      1.275320     -0.868668
  H      -5.600171      1.125741      0.258650
  H      -6.161558     -0.908800      1.175281
  H      -4.932761     -2.105148      1.419621
  H       6.471689      1.555392     -0.434284
37
Coordinates from ORCA-job gmp_geom E -1605.223823394350
  P       4.374325      1.608342      0.371409
  O       1.051680     -0.927137      0.893896
  O      -0.498177     -2.743803     -1.712953
  O       1.265120     -3.848634      0.089527
  O       3.624234      0.243804      0.819411
  O       3.687184      2.219305     -0.803077
  O       5.784968      0.947706     -0.111219
  O      -4.260049      2.913935     -0.722526
  O       4.577335      2.400475      1.617904
  N      -0.822130     -0.068096     -0.193490
  N      -1.314556      1.970002     -0.958519
  N      -2.985978     -0.783124      0.599809
  N      -4.612703      0.880026      0.236694
  N      -5.163171     -1.127058      1.242797
  C       0.497986     -1.956468     -1.135808
  C       1.709606     -2.678854     -0.553416
  C      -0.059791     -1.255668      0.099942
  C       2.215173     -1.634056      0.437967
  C       3.225951     -0.686933     -0.166478
  C      -2.158658      0.104082      0.030797
  C      -0.372505      1.087531     -0.790563
  C      -2.448395      1.373358     -0.451681
  C      -3.784340      1.844927     -0.358613
  C      -4.226682     -0.347471      0.688941
  H       0.863297     -1.194539     -1.835155
  H       2.457822     -2.903203     -1.321332
  H      -0.743405     -1.929771      0.624901
  H       2.661758     -2.123800      1.308686
  H       2.805667     -0.164487     -1.032090
  H       4.087829     -1.272304     -0.507895
  H      -0.162129     -3.122876     -2.531937
  H       2.024900     -4.278941      0.495265
  H       0.666498      1.213828     -1.057451
  H      -5.581970      1.155792      0.323926
  H      -6.121229     -0.839420      1.336157
  H      -4.889242     -2.034460      1.576277
  H       6.386077      1.626289     -0.439002
37
Coordinates from ORCA-job gmp_geom E -1605.224124866373
  P       4.285627      1.617175      0.459336
  O       1.026072     -0.949358      0.862915
  O      -0.437386     -2.763322     -1.795914
  O       1.268934     -3.874934      0.057098
  O       3.611208      0.209114      0.886334
  O       3.535086      2.235182     -0.675167
  O       5.702932      1.028364     -0.094439
  O      -4.228669      2.921764     -0.740682
  O       4.498116      2.380597      1.720196
  N      -0.820459     -0.104116     -0.269391
  N      -1.309125      1.926226     -1.057507
  N      -2.967217     -0.764109      0.620005
  N      -4.578420      0.917015      0.275750
  N      -5.126652     -1.053831      1.342559
  C       0.538019     -1.976405     -1.181074
  C       1.731767     -2.699374     -0.564546
  C      -0.060655     -1.284916      0.037670
  C       2.203200     -1.659079      0.448141
  C       3.236493     -0.713167     -0.117527
  C      -2.145731      0.095835      0.002249
  C      -0.375698      1.031931     -0.906189
  C      -2.433245      1.356985     -0.500392
  C      -3.759849      1.850540     -0.376385
  C      -4.195986     -0.305417      0.741280
  H       0.924192     -1.214723     -1.868028
  H       2.504348     -2.920302     -1.308621
  H      -0.752133     -1.963032      0.546648
  H       2.617502     -2.152564      1.332344
  H       2.846224     -0.182201     -0.991328
  H       4.105160     -1.301531     -0.435312
  H      -0.090789     -3.090275     -2.632210
  H       2.016597     -4.302644      0.486389
  H       0.655058      1.138021     -1.211023
  H      -5.538299      1.212312      0.394048
  H      -6.075098     -0.744824      1.460631
  H      -4.858919     -1.958746      1.686988
  H       6.210097      1.726110     -0.523745
37
Coordinates from ORCA-job gmp_geom E -1605.224411210105
  P       4.119750      1.639477      0.541423
  O       1.010198     -0.997860      0.841553
  O      -0.370153     -2.811622     -1.863918
  O       1.285164     -3.923390      0.033662
  O       3.581374      0.172033      0.949583
  O       3.254940      2.245842     -0.517401
  O       5.532637      1.177039     -0.129650
  O      -4.126633      2.972380     -0.717953
  O       4.357546      2.369038      1.814600
  N      -0.798803     -0.154387     -0.336236
  N      -1.252040      1.885434     -1.121277
  N      -2.939096     -0.744990      0.620289
  N      -4.506125      0.985553      0.319781
  N      -5.087991     -0.968138      1.393906
  C       0.583146     -2.020987     -1.215622
  C       1.762214     -2.741363     -0.568656
  C      -0.052188     -1.336142     -0.015284
  C       2.200638     -1.704144      0.461781
  C       3.242044     -0.748900     -0.069867
  C      -2.109242      0.086926     -0.024845
  C      -0.340671      0.965354     -0.991673
  C      -2.372931      1.354374     -0.521751
  C      -3.679702      1.891455     -0.355624
  C      -4.148240     -0.249349      0.772926
  H       0.985926     -1.261229     -1.893735
  H       2.555530     -2.959438     -1.290967
  H      -0.755849     -2.014219      0.476928
  H       2.590902     -2.198711      1.356139
  H       2.868486     -0.214588     -0.948161
  H       4.125441     -1.326056     -0.365386
  H      -0.018704     -3.075299     -2.719851
  H       2.023187     -4.346079      0.483692
  H       0.683356      1.041076     -1.327854
  H      -5.452884      1.308906      0.467109
  H      -6.022160     -0.627386      1.532064
  H      -4.844387     -1.881912      1.732240
  H       5.877618      1.879603     -0.690867
37
Coordinates from ORCA-job gmp_geom E -1605.224718744079
  P       3.996130      1.653268      0.538196
  O       1.027322     -1.033565      0.855212
  O      -0.352440     -2.841744     -1.855157
  O       1.289403     -3.955644      0.049308
  O       3.577542      0.151990      0.954752
  O       3.030541      2.222846     -0.450814
  O       5.386570      1.294649     -0.231540
  O      -4.024466      3.036021     -0.647702
  O       4.266300      2.375547      1.807026
  N      -0.764157     -0.168011     -0.330422
  N      -1.169116      1.903941     -1.055821
  N      -2.925625     -0.743941      0.586586
  N      -4.455193      1.026737      0.324563
  N      -5.087865     -0.949486      1.326903
  C       0.601603     -2.051331     -1.204896
  C       1.776045     -2.776751     -0.554036
  C      -0.033718     -1.361157     -0.008731
  C       2.217470     -1.740547      0.475169
  C       3.253845     -0.781710     -0.059647
  C      -2.072012      0.090748     -0.023889
  C      -0.276112      0.963595     -0.942337
  C      -2.306719      1.376292     -0.485554
  C      -3.605423      1.933926     -0.316005
  C      -4.125826     -0.230520      0.740852
  H       1.008926     -1.297122     -1.886086
  H       2.568750     -3.002775     -1.274416
  H      -0.746647     -2.032262      0.479666
  H       2.609472     -2.233512      1.369631
  H       2.873821     -0.256589     -0.940519
  H       4.147157     -1.346926     -0.346188
  H      -0.012092     -3.075743     -2.723925
  H       2.025016     -4.379464      0.502440
  H       0.754319      1.033286     -1.259375
  H      -5.397020      1.362235      0.477035
  H      -6.016461     -0.593194      1.462125
  H      -4.870125     -1.878196      1.641061
  H       5.593083      1.973410     -0.882364
37
Coordinates from ORCA-job gmp_geom E -1605.222637983076
  P       3.720690      1.664240      0.432116
  O       1.110095     -1.101424      0.924503
  O      -0.359147     -2.874720     -1.762894
  O       1.284737     -4.009322      0.121728
  O       3.596066      0.127973      0.895923
  O       2.553519      2.075936     -0.400094
  O       5.021112      1.532799     -0.531247
  O      -3.801159      3.175255     -0.431496
  O       4.046897      2.422844      1.663247
  N      -0.658967     -0.153439     -0.238350
  N      -0.955746      1.997214     -0.758762
  N      -2.891482     -0.747362      0.468538
  N      -4.354157      1.091742      0.294509
  N      -5.102855     -0.957451      1.049252
  C       0.623144     -2.096870     -1.135799
  C       1.793096     -2.849324     -0.503392
  C       0.028204     -1.383898      0.068479
  C       2.282402     -1.816899      0.504680
  C       3.295200     -0.858545     -0.077163
  C      -1.975333      0.117677      0.006430
  C      -0.095523      1.021921     -0.681809
  C      -2.146354      1.448953     -0.334091
  C      -3.440090      2.027722     -0.193390
  C      -4.084412     -0.215433      0.598525
  H       1.032215     -1.357786     -1.832417
  H       2.561550     -3.105406     -1.239871
  H      -0.705278     -2.031309      0.558283
  H       2.704410     -2.305293      1.387944
  H       2.880576     -0.377556     -0.967501
  H       4.208417     -1.395252     -0.350027
  H      -0.061581     -3.070651     -2.656542
  H       2.020192     -4.446498      0.563660
  H       0.962329      1.102038     -0.890843
  H      -5.297324      1.433205      0.425977
  H      -6.027450     -0.582227      1.160115
  H      -4.938515     -1.919189      1.287337
  H       4.932825      2.084637     -1.314462
37
Coordinates from ORCA-job gmp_geom E -1605.225186565212
  P       4.028446      1.638440      0.442661
  O       1.079691     -1.006420      0.894752
  O      -0.404199     -2.816749     -1.761039
  O       1.243066     -3.931416      0.122753
  O       3.666404      0.133941      0.897494
  O       3.013854      2.182616     -0.502127
  O       5.393393      1.330567     -0.384528
  O      -4.017569      3.080747     -0.512915
  O       4.331648      2.366241      1.700558
  N      -0.739601     -0.110787     -0.260145
  N      -1.129387      2.006118     -0.849706
  N      -2.934120     -0.769883      0.500965
  N      -4.472919      1.001363      0.290715
  N      -5.124142     -1.050151      1.131588
  C       0.580010     -2.033315     -1.147978
  C       1.751671     -2.778903     -0.512007
  C      -0.010547     -1.314836      0.056633
  C       2.246467     -1.741401      0.489651
  C       3.302003     -0.821427     -0.084632
  C      -2.062269      0.115257     -0.005104
  C      -0.230679      1.067613     -0.757510
  C      -2.291578      1.427207     -0.387181
  C      -3.603939      1.957515     -0.245257
  C      -4.146544     -0.281444      0.635750
  H       0.984041     -1.294764     -1.848829
  H       2.519638     -3.040184     -1.247562
  H      -0.723477     -1.973360      0.561700
  H       2.647403     -2.233271      1.380949
  H       2.921033     -0.315285     -0.976621
  H       4.181934     -1.410012     -0.361841
  H      -0.106051     -3.039207     -2.648516
  H       1.976496     -4.369281      0.567497
  H       0.819414      1.179796     -0.989881
  H      -5.426233      1.312329      0.424740
  H      -6.062515     -0.712850      1.249132
  H      -4.910901     -1.995030      1.397174
  H       5.472358      1.908525     -1.150232
37
Coordinates from ORCA-job gmp_geom E -1605.225460601444
  P       4.010019      1.644511      0.442931
  O       1.082928     -1.027881      0.911991
  O      -0.409316     -2.813795     -1.754740
  O       1.261843     -3.945433      0.109931
  O       3.652760      0.135601      0.892662
  O       2.987407      2.184211     -0.500722
  O       5.374122      1.346056     -0.390812
  O      -3.992139      3.075893     -0.545117
  O       4.316684      2.371975      1.701859
  N      -0.727835     -0.122031     -0.228277
  N      -1.104746      1.990277     -0.840426
  N      -2.932521     -0.768051      0.518484
  N      -4.462947      1.005883      0.274087
  N      -5.130836     -1.032945      1.129048
  C       0.576651     -2.036093     -1.138647
  C       1.755137     -2.783247     -0.518823
  C      -0.008240     -1.330652      0.077222
  C       2.248893     -1.750071      0.487721
  C       3.281797     -0.811938     -0.092894
  C      -2.052451      0.109704      0.014013
  C      -0.210153      1.049485     -0.732295
  C      -2.272418      1.420024     -0.381136
  C      -3.583649      1.956402     -0.257018
  C      -4.145001     -0.273055      0.636556
  H       0.974474     -1.287496     -1.832392
  H       2.520162     -3.030082     -1.262302
  H      -0.722550     -1.990964      0.578503
  H       2.666643     -2.244359      1.369963
  H       2.880836     -0.300578     -0.973475
  H       4.160783     -1.391277     -0.393440
  H      -0.113679     -3.033097     -2.643955
  H       2.001428     -4.382327      0.545242
  H       0.841336      1.151367     -0.967033
  H      -5.416807      1.321987      0.389951
  H      -6.069625     -0.691905      1.234088
  H      -4.922290     -1.976219      1.404900
  H       5.445597      1.928422     -1.154545
37
Coordinates from ORCA-job gmp_geom E -1605.225730910651
  P       4.016884      1.644488      0.374858
  O       1.116924     -1.037754      0.956294
  O      -0.452532     -2.787961     -1.687852
  O       1.262693     -3.946690      0.127894
  O       3.665690      0.140235      0.849641
  O       2.984392      2.161197     -0.571967
  O       5.378771      1.349629     -0.461618
  O      -3.973834      3.082656     -0.522461
  O       4.328704      2.389377      1.623741
  N      -0.705520     -0.102401     -0.135085
  N      -1.068289      2.021435     -0.713255
  N      -2.936175     -0.779795      0.496186
  N      -4.466290      0.990550      0.225577
  N      -5.154360     -1.067231      1.017169
  C       0.554366     -2.024228     -1.090312
  C       1.743707     -2.783759     -0.507068
  C       0.005314     -1.323169      0.146846
  C       2.268043     -1.757479      0.490813
  C       3.275769     -0.813201     -0.120904
  C      -2.041054      0.114520      0.050877
  C      -0.172663      1.082957     -0.588719
  C      -2.251573      1.433906     -0.320973
  C      -3.570201      1.959064     -0.243445
  C      -4.155508     -0.292987      0.576081
  H       0.939525     -1.268946     -1.784193
  H       2.488112     -3.027279     -1.272293
  H      -0.705858     -1.980843      0.656305
  H       2.714958     -2.254293      1.357153
  H       2.844323     -0.307749     -0.990714
  H       4.149626     -1.386810     -0.447586
  H      -0.175575     -3.016081     -2.580858
  H       2.010877     -4.391005      0.540232
  H       0.888493      1.196430     -0.773949
  H      -5.426615      1.298317      0.304754
  H      -6.098314     -0.733728      1.096183
  H      -4.949730     -2.014279      1.282867
  H       5.429219      1.901209     -1.249122
37
Coordinates from ORCA-job gmp_geom E -1605.225873991401
  P       4.008577      1.638073      0.273509
  O       1.185458     -1.047598      1.035054
  O      -0.522003     -2.721164     -1.568861
  O       1.254265     -3.943259      0.157181
  O       3.715516      0.131317      0.788386
  O       2.904899      2.110214     -0.618121
  O       5.324221      1.379176     -0.643024
  O      -3.940827      3.089373     -0.495660
  O       4.384380      2.401528      1.495009
  N      -0.662036     -0.063702      0.037268
  N      -1.010010      2.075367     -0.488371
  N      -2.924190     -0.794087      0.461961
  N      -4.455549      0.963951      0.132409
  N      -5.169367     -1.126204      0.803836
  C       0.523290     -1.990711     -1.000185
  C       1.723411     -2.779479     -0.481073
  C       0.038428     -1.301203      0.272369
  C       2.305284     -1.772684      0.504994
  C       3.286152     -0.831191     -0.153292
  C      -2.011005      0.127662      0.121943
  C      -0.111152      1.142937     -0.333344
  C      -2.211369      1.459348     -0.214111
  C      -3.539501      1.963227     -0.224541
  C      -4.153403     -0.324141      0.465768
  H       0.892398     -1.224350     -1.690247
  H       2.431831     -3.018919     -1.281101
  H      -0.663614     -1.956637      0.797507
  H       2.789457     -2.280754      1.343908
  H       2.820449     -0.334493     -1.010511
  H       4.143685     -1.409846     -0.514901
  H      -0.289935     -2.937172     -2.477405
  H       2.011051     -4.405581      0.531433
  H       0.961590      1.278817     -0.432062
  H      -5.423230      1.257851      0.140842
  H      -6.121978     -0.810407      0.826993
  H      -4.967006     -2.078827      1.050223
  H       5.234134      1.801868     -1.502684
37
Coordinates from ORCA-job gmp_geom E -1605.226106594907
  P       4.001396      1.632120      0.368827
  O       1.155060     -1.037155      0.992522
  O      -0.475098     -2.727530     -1.650962
  O       1.254059     -3.941571      0.120318
  O       3.720661      0.111654      0.850635
  O       2.893847      2.117812     -0.511083
  O       5.317055      1.400154     -0.558741
  O      -3.972159      3.069408     -0.558029
  O       4.376912      2.371784      1.604197
  N      -0.677876     -0.073769     -0.056284
  N      -1.046154      2.043814     -0.651406
  N      -2.920566     -0.778483      0.498333
  N      -4.460930      0.971795      0.173666
  N      -5.148688     -1.088742      0.952177
  C       0.551694     -1.991750     -1.055618
  C       1.739267     -2.775113     -0.500889
  C       0.029043     -1.301314      0.200108
  C       2.289815     -1.769361      0.505319
  C       3.307153     -0.837538     -0.112060
  C      -2.022095      0.125601      0.081202
  C      -0.143038      1.115399     -0.500229
  C      -2.234572      1.443963     -0.296677
  C      -3.560648      1.952570     -0.265808
  C      -4.147569     -0.304000      0.539023
  H       0.937987     -1.228571     -1.739286
  H       2.472473     -3.012220     -1.279015
  H      -0.679520     -1.959877      0.712307
  H       2.737377     -2.282072      1.361530
  H       2.882691     -0.329653     -0.983438
  H       4.167009     -1.429720     -0.445347
  H      -0.230642     -2.918627     -2.561686
  H       1.999896     -4.401286      0.518659
  H       0.923310      1.242399     -0.658657
  H      -5.425419      1.272813      0.216946
  H      -6.098633     -0.768593      1.007345
  H      -4.935753     -2.032167      1.223506
  H       5.184957      1.786126     -1.430303
37
Coordinates from ORCA-job gmp_geom E -1605.226233097096
  P       4.042231      1.628552      0.357489
  O       1.156775     -1.014410      0.985830
  O      -0.484948     -2.724187     -1.640801
  O       1.240768     -3.926451      0.129691
  O       3.735387      0.115407      0.846379
  O       2.951996      2.125732     -0.534800
  O       5.364579      1.383181     -0.555573
  O      -3.999466      3.066752     -0.536728
  O       4.414411      2.369532      1.591210
  N      -0.686406     -0.060130     -0.057509
  N      -1.067077      2.059664     -0.635393
  N      -2.924748     -0.783250      0.489528
  N      -4.476591      0.959902      0.176969
  N      -5.152497     -1.115619      0.932048
  C       0.542905     -1.981870     -1.053542
  C       1.730625     -2.763897     -0.497438
  C       0.026196     -1.285066      0.200159
  C       2.288003     -1.756689      0.503771
  C       3.319959     -0.838835     -0.112743
  C      -2.031398      0.130079      0.080301
  C      -0.157887      1.136304     -0.488041
  C      -2.252472      1.449081     -0.288572
  C      -3.582056      1.949481     -0.252916
  C      -4.155072     -0.318807      0.530306
  H       0.926538     -1.223494     -1.744712
  H       2.460888     -3.009114     -1.275926
  H      -0.677415     -1.942152      0.721132
  H       2.727887     -2.269803      1.363768
  H       2.907875     -0.335950     -0.992822
  H       4.178432     -1.440613     -0.430149
  H      -0.243432     -2.918346     -2.551818
  H       1.986114     -4.387231      0.528599
  H       0.907753      1.273535     -0.637155
  H      -5.443554      1.253123      0.222986
  H      -6.104999     -0.802141      0.986364
  H      -4.934958     -2.060292      1.195778
  H       5.227953      1.726321     -1.444566
37
Coordinates from ORCA-job gmp_geom E -1605.226394458527
  P       4.054296      1.625242      0.351322
  O       1.171173     -1.000997      0.993968
  O      -0.495236     -2.699988     -1.624633
  O       1.233980     -3.916234      0.129100
  O       3.760789      0.109059      0.844476
  O       2.945663      2.114936     -0.522135
  O       5.364344      1.406129     -0.586016
  O      -4.011773      3.058857     -0.543611
  O       4.447476      2.363485      1.578925
  N      -0.681104     -0.043985     -0.029904
  N      -1.070377      2.072785     -0.611625
  N      -2.920159     -0.784248      0.489980
  N      -4.481008      0.947518      0.161267
  N      -5.150210     -1.135277      0.903164
  C       0.538623     -1.963483     -1.040750
  C       1.726069     -2.752804     -0.494889
  C       0.033228     -1.269641      0.218744
  C       2.294565     -1.752755      0.507500
  C       3.335767     -0.845618     -0.110120
  C      -2.028865      0.135871      0.091287
  C      -0.156037      1.155271     -0.456352
  C      -2.255218      1.453653     -0.278972
  C      -3.588695      1.944459     -0.256863
  C      -4.154335     -0.329195      0.516245
  H       0.920521     -1.203392     -1.731062
  H       2.451333     -2.998092     -1.278105
  H      -0.665672     -1.927431      0.745319
  H       2.731164     -2.272307      1.365345
  H       2.931249     -0.344922     -0.994923
  H       4.188434     -1.458585     -0.421805
  H      -0.267361     -2.877624     -2.542470
  H       1.978910     -4.381819      0.523170
  H       0.910368      1.300847     -0.593106
  H      -5.450221      1.234793      0.196355
  H      -6.105789     -0.829987      0.947763
  H      -4.927142     -2.078657      1.166882
  H       5.153550      1.612434     -1.502371
37
Coordinates from ORCA-job gmp_geom E -1605.226557117883
  P       4.066210      1.629158      0.338826
  O       1.187574     -0.986616      1.002540
  O      -0.508100     -2.675338     -1.604988
  O       1.233121     -3.905200      0.124213
  O       3.780504      0.110507      0.836876
  O       2.943316      2.104694     -0.524145
  O       5.373846      1.447910     -0.609713
  O      -4.023611      3.049081     -0.552621
  O       4.474764      2.366273      1.560056
  N      -0.676696     -0.028235      0.006725
  N      -1.074124      2.084088     -0.584565
  N      -2.917170     -0.785938      0.494110
  N      -4.486274      0.933888      0.144305
  N      -5.149985     -1.156007      0.871052
  C       0.531238     -1.943015     -1.025515
  C       1.721981     -2.737939     -0.495746
  C       0.039744     -1.255440      0.242349
  C       2.302196     -1.746095      0.508018
  C       3.347146     -0.845390     -0.112508
  C      -2.027336      0.140699      0.107061
  C      -0.154947      1.173044     -0.416788
  C      -2.258480      1.456633     -0.267104
  C      -3.595896      1.937569     -0.261735
  C      -4.154953     -0.340625      0.502122
  H       0.906968     -1.178654     -1.714406
  H       2.440294     -2.979870     -1.286392
  H      -0.651535     -1.915225      0.776483
  H       2.739562     -2.273214      1.361011
  H       2.944887     -0.347848     -1.000242
  H       4.195286     -1.466472     -0.421227
  H      -0.294821     -2.834874     -2.529587
  H       1.980519     -4.373513      0.510150
  H       0.912319      1.325102     -0.540593
  H      -5.457670      1.214905      0.166724
  H      -6.108464     -0.858841      0.903271
  H      -4.921948     -2.097681      1.136452
  H       5.102832      1.426780     -1.533370
37
Coordinates from ORCA-job gmp_geom E -1605.226642531878
  P       4.064828      1.634627      0.340011
  O       1.185884     -0.992019      1.002342
  O      -0.508101     -2.684880     -1.603685
  O       1.240666     -3.909267      0.124037
  O       3.769354      0.116297      0.832701
  O       2.948238      2.111053     -0.530467
  O       5.383158      1.453615     -0.593131
  O      -4.016428      3.051765     -0.552114
  O       4.466662      2.369780      1.564598
  N      -0.677656     -0.034009      0.006847
  N      -1.070322      2.079302     -0.585030
  N      -2.919990     -0.786020      0.495150
  N      -4.484831      0.938049      0.145943
  N      -5.153951     -1.149884      0.872455
  C       0.529690     -1.949297     -1.025377
  C       1.723830     -2.740465     -0.497702
  C       0.037755     -1.262293      0.242770
  C       2.302064     -1.746525      0.504614
  C       3.337076     -0.837350     -0.119027
  C      -2.027901      0.138311      0.107843
  C      -0.153725      1.165769     -0.418026
  C      -2.255959      1.454644     -0.266680
  C      -3.592239      1.939074     -0.260651
  C      -4.156501     -0.337533      0.503507
  H       0.902000     -1.183934     -1.714941
  H       2.441197     -2.980281     -1.289767
  H      -0.653310     -1.921998      0.777105
  H       2.745931     -2.272022      1.355306
  H       2.923645     -0.336756     -1.000061
  H       4.187189     -1.450708     -0.438030
  H      -0.289513     -2.853552     -2.525432
  H       1.991004     -4.374176      0.508344
  H       0.913718      1.313116     -0.544287
  H      -5.455746      1.220612      0.169072
  H      -6.111368     -0.849430      0.904521
  H      -4.929231     -2.091959      1.139193
  H       5.125186      1.426645     -1.520853
37
Coordinates from ORCA-job gmp_geom E -1605.226710052460
  P       4.050585      1.650234      0.360264
  O       1.173133     -1.003603      0.989544
  O      -0.496128     -2.710477     -1.623333
  O       1.258109     -3.918175      0.115202
  O       3.737486      0.129770      0.833328
  O       2.958920      2.122898     -0.542611
  O       5.407112      1.481360     -0.518024
  O      -4.005118      3.055755     -0.556680
  O       4.414172      2.381443      1.599300
  N      -0.683423     -0.051573     -0.021119
  N      -1.068841      2.060794     -0.622644
  N      -2.924850     -0.783671      0.501934
  N      -4.481188      0.950818      0.163576
  N      -5.156714     -1.126309      0.913864
  C       0.534044     -1.966205     -1.041936
  C       1.732571     -2.746550     -0.508329
  C       0.030969     -1.279055      0.221978
  C       2.297730     -1.745754      0.494074
  C       3.316043     -0.817788     -0.127997
  C      -2.031140      0.131431      0.097069
  C      -0.156986      1.142755     -0.458663
  C      -2.254567      1.446602     -0.283609
  C      -3.587222      1.941114     -0.263584
  C      -4.157485     -0.325485      0.524881
  H       0.903594     -1.200052     -1.732036
  H       2.453937     -2.981907     -1.297949
  H      -0.662668     -1.938941      0.752384
  H       2.748790     -2.266200      1.344052
  H       2.884665     -0.309578     -0.996224
  H       4.173262     -1.412539     -0.463518
  H      -0.261949     -2.896314     -2.538007
  H       2.012119     -4.374174      0.503099
  H       0.909873      1.278657     -0.599984
  H      -5.449966      1.239351      0.199777
  H      -6.110567     -0.815942      0.957613
  H      -4.937417     -2.067409      1.188566
  H       5.191416      1.393018     -1.453158
37
Coordinates from ORCA-job gmp_geom E -1605.226723776184
  P       4.038527      1.656085      0.363417
  O       1.167344     -1.008613      0.983304
  O      -0.491525     -2.719922     -1.632442
  O       1.260674     -3.921295      0.113313
  O       3.723168      0.135313      0.832773
  O       2.965473      2.120940     -0.565210
  O       5.416896      1.492190     -0.480713
  O      -4.001646      3.059733     -0.549928
  O       4.368976      2.392828      1.608896
  N      -0.685429     -0.057292     -0.037049
  N      -1.068661      2.057160     -0.633197
  N      -2.925178     -0.782824      0.501523
  N      -4.478857      0.956291      0.174148
  N      -5.155080     -1.118458      0.930193
  C       0.536749     -1.973376     -1.050638
  C       1.735121     -2.750636     -0.511873
  C       0.028780     -1.284018      0.210348
  C       2.295678     -1.746512      0.489888
  C       3.311385     -0.814289     -0.130523
  C      -2.031677      0.129859      0.090936
  C      -0.158632      1.136147     -0.477319
  C      -2.253993      1.445771     -0.287645
  C      -3.584978      1.944120     -0.258696
  C      -4.156269     -0.320932      0.533545
  H       0.907504     -1.208671     -1.741753
  H       2.458751     -2.986512     -1.299272
  H      -0.667323     -1.943475      0.738104
  H       2.747004     -2.263987      1.341486
  H       2.879056     -0.307231     -0.998886
  H       4.173257     -1.403207     -0.464264
  H      -0.252315     -2.913273     -2.544265
  H       2.014189     -4.375386      0.504426
  H       0.907521      1.269589     -0.624983
  H      -5.446672      1.247115      0.217092
  H      -6.107472     -0.804666      0.981297
  H      -4.937017     -2.059710      1.205328
  H       5.228971      1.389445     -1.420262
37
Coordinates from ORCA-job gmp_geom E -1605.226743728693
  P       4.030707      1.658702      0.365678
  O       1.165025     -1.012111      0.981730
  O      -0.489669     -2.722228     -1.636391
  O       1.259339     -3.922172      0.113659
  O       3.720127      0.135931      0.831896
  O       2.961721      2.121674     -0.568386
  O       5.414552      1.503467     -0.470501
  O      -4.000705      3.061460     -0.547405
  O       4.350536      2.394917      1.614629
  N      -0.685165     -0.058483     -0.045191
  N      -1.068076      2.057337     -0.636953
  N      -2.923740     -0.782241      0.499742
  N      -4.477079      0.958029      0.177143
  N      -5.152343     -1.115820      0.936807
  C       0.538793     -1.976070     -1.054803
  C       1.735820     -2.753205     -0.512658
  C       0.028786     -1.284915      0.204679
  C       2.295263     -1.747505      0.488263
  C       3.311247     -0.814660     -0.131728
  C      -2.030717      0.130060      0.087377
  C      -0.158161      1.135892     -0.483344
  C      -2.253052      1.446611     -0.289221
  C      -3.583491      1.945723     -0.257336
  C      -4.154437     -0.319176      0.536110
  H       0.911654     -1.212745     -1.746415
  H       2.460649     -2.990482     -1.298605
  H      -0.669748     -1.943935      0.729886
  H       2.746429     -2.263259      1.340946
  H       2.880591     -0.308489     -1.001311
  H       4.174360     -1.402589     -0.463804
  H      -0.248741     -2.920436     -2.546732
  H       2.011347     -4.376769      0.507088
  H       0.907699      1.270429     -0.632015
  H      -5.444561      1.249643      0.222219
  H      -6.104125     -0.800924      0.992916
  H      -4.933774     -2.056761      1.212613
  H       5.235239      1.383400     -1.409485
37
Coordinates from ORCA-job gmp_geom E -1605.226743042725
  P       4.029446      1.658941      0.364678
  O       1.164773     -1.015079      0.984638
  O      -0.490535     -2.721958     -1.634427
  O       1.258199     -3.922398      0.116031
  O       3.721236      0.135462      0.830179
  O       2.957057      2.124289     -0.564439
  O       5.409386      1.505081     -0.477621
  O      -3.998702      3.063061     -0.544405
  O       4.353798      2.393255      1.613760
  N      -0.683838     -0.058223     -0.044100
  N      -1.065628      2.058994     -0.631444
  N      -2.923041     -0.782511      0.497300
  N      -4.475868      0.958258      0.175447
  N      -5.152053     -1.116666      0.931554
  C       0.538781     -1.976698     -1.053528
  C       1.735347     -2.754409     -0.511222
  C       0.029149     -1.285182      0.206046
  C       2.295598     -1.748223      0.488666
  C       3.310337     -0.814928     -0.132846
  C      -2.029453      0.130415      0.087578
  C      -0.156062      1.136877     -0.479378
  C      -2.251115      1.447894     -0.286364
  C      -3.581491      1.947014     -0.255590
  C      -4.153804     -0.319324      0.533080
  H       0.912315     -1.213857     -1.745368
  H       2.459938     -2.992557     -1.297165
  H      -0.670802     -1.943736      0.729983
  H       2.748652     -2.262991      1.340909
  H       2.879377     -0.308811     -1.002331
  H       4.172692     -1.403196     -0.466216
  H      -0.248272     -2.925144     -2.543336
  H       2.009698     -4.377804      0.509482
  H       0.909892      1.272584     -0.626499
  H      -5.443352      1.250099      0.219068
  H      -6.103702     -0.801570      0.988928
  H      -4.933421     -2.057818      1.206614
  H       5.227768      1.389163     -1.416565
37
Coordinates from ORCA-job gmp_geom E -1605.226747043380
  P       4.028216      1.660219      0.363319
  O       1.164049     -1.017839      0.986678
  O      -0.491082     -2.721702     -1.633856
  O       1.258583     -3.922638      0.116061
  O       3.719562      0.136740      0.828698
  O       2.955910      2.125118     -0.566275
  O       5.408750      1.507954     -0.477788
  O      -3.997343      3.063838     -0.542945
  O       4.352039      2.394548      1.612459
  N      -0.683136     -0.058326     -0.042548
  N      -1.064159      2.059270     -0.628901
  N      -2.922826     -0.782459      0.497109
  N      -4.475155      0.958582      0.174941
  N      -5.152192     -1.116865      0.928787
  C       0.538440     -1.976860     -1.052980
  C       1.735244     -2.754632     -0.511336
  C       0.028853     -1.286018      0.206988
  C       2.295563     -1.748395      0.488286
  C       3.308293     -0.813674     -0.134044
  C      -2.028822      0.130522      0.088470
  C      -0.154831      1.136886     -0.476604
  C      -2.249943      1.448341     -0.284699
  C      -3.580291      1.947587     -0.254855
  C      -4.153578     -0.319117      0.532128
  H       0.911846     -1.213802     -1.744667
  H       2.459693     -2.992621     -1.297470
  H      -0.671950     -1.944374      0.729974
  H       2.750799     -2.262594      1.339696
  H       2.876860     -0.307881     -1.003555
  H       4.170629     -1.401657     -0.468137
  H      -0.246238     -2.930366     -2.540842
  H       2.010216     -4.378250      0.508974
  H       0.911149      1.272988     -0.623307
  H      -5.442541      1.250871      0.217673
  H      -6.103585     -0.801336      0.987646
  H      -4.933413     -2.057921      1.204048
  H       5.228695      1.384160     -1.416027
37
Coordinates from ORCA-job gmp_geom E -1605.226755071113
  P       4.027699      1.660855      0.363051
  O       1.162694     -1.020774      0.988301
  O      -0.490969     -2.722244     -1.634311
  O       1.259312     -3.923257      0.115659
  O       3.717355      0.137796      0.828380
  O       2.955810      2.126292     -0.566853
  O       5.408295      1.506935     -0.477268
  O      -3.995795      3.064702     -0.541978
  O       4.351659      2.395182      1.612048
  N      -0.682844     -0.058958     -0.042006
  N      -1.062889      2.058869     -0.628046
  N      -2.922978     -0.782222      0.497258
  N      -4.474521      0.959399      0.174999
  N      -5.152698     -1.116304      0.927084
  C       0.538312     -1.977452     -1.052950
  C       1.735410     -2.754957     -0.511598
  C       0.028109     -1.287396      0.207126
  C       2.295136     -1.748652      0.488137
  C       3.305900     -0.812235     -0.134531
  C      -2.028531      0.130463      0.088981
  C      -0.153995      1.136013     -0.475694
  C      -2.248973      1.448461     -0.283949
  C      -3.579147      1.948240     -0.254272
  C      -4.153609     -0.318519      0.531709
  H       0.911550     -1.214092     -1.744425
  H       2.460004     -2.992590     -1.297696
  H      -0.673591     -1.945521      0.729093
  H       2.752319     -2.262324      1.338816
  H       2.873976     -0.306299     -1.003720
  H       4.168283     -1.399778     -0.469517
  H      -0.242129     -2.937714     -2.538628
  H       2.011224     -4.378874      0.508002
  H       0.911989      1.272010     -0.622625
  H      -5.441724      1.252356      0.217304
  H      -6.103620     -0.799806      0.988239
  H      -4.933886     -2.057081      1.203270
  H       5.229162      1.387778     -1.416290
37
Coordinates from ORCA-job gmp_geom E -1605.226751106047
  P       4.028446      1.661129      0.363224
  O       1.162206     -1.021475      0.988838
  O      -0.490972     -2.722042     -1.634662
  O       1.259840     -3.923170      0.114799
  O       3.716724      0.138403      0.828697
  O       2.956454      2.126892     -0.566382
  O       5.408704      1.506158     -0.477333
  O      -3.995833      3.064780     -0.541985
  O       4.353547      2.395272      1.611868
  N      -0.682973     -0.058846     -0.041438
  N      -1.062932      2.058891     -0.627777
  N      -2.923250     -0.782091      0.497506
  N      -4.474715      0.959512      0.174969
  N      -5.153246     -1.116580      0.925731
  C       0.538111     -1.977088     -1.052973
  C       1.735524     -2.754397     -0.512071
  C       0.027650     -1.287643      0.207218
  C       2.294931     -1.748341      0.488046
  C       3.305147     -0.811246     -0.134461
  C      -2.028749      0.130553      0.089265
  C      -0.154158      1.135852     -0.475647
  C      -2.249095      1.448478     -0.283871
  C      -3.579271      1.948332     -0.254111
  C      -4.153913     -0.318513      0.531448
  H       0.910948     -1.213402     -1.744343
  H       2.460108     -2.991639     -1.298282
  H      -0.674206     -1.945685      0.729003
  H       2.752798     -2.262091      1.338313
  H       2.873220     -0.305035     -1.003447
  H       4.167469     -1.398835     -0.469693
  H      -0.239122     -2.942279     -2.537012
  H       2.012113     -4.378753      0.506502
  H       0.911820      1.271841     -0.622660
  H      -5.441900      1.252572      0.216974
  H      -6.103756     -0.799267      0.989183
  H      -4.934127     -2.056787      1.203622
  H       5.228759      1.384840     -1.415957
37
Coordinates from ORCA-job gmp_geom E -1605.226720667057
  P       4.028226      1.661308      0.364309
  O       1.161257     -1.022234      0.988479
  O      -0.490244     -2.722043     -1.636564
  O       1.260292     -3.923409      0.113164
  O       3.715227      0.138900      0.829907
  O       2.957283      2.127125     -0.566416
  O       5.409042      1.504629     -0.475095
  O      -3.995837      3.064938     -0.542397
  O       4.352636      2.395707      1.612886
  N      -0.683367     -0.059132     -0.042513
  N      -1.063271      2.058419     -0.629614
  N      -2.923562     -0.781832      0.497651
  N      -4.474830      0.960028      0.175586
  N      -5.153641     -1.116088      0.926085
  C       0.538443     -1.976983     -1.054078
  C       1.735887     -2.754098     -0.513005
  C       0.027052     -1.288126      0.205943
  C       2.294424     -1.748303      0.487877
  C       3.304610     -0.810542     -0.133828
  C      -2.029121      0.130505      0.088617
  C      -0.154587      1.135334     -0.477263
  C      -2.249398      1.448275     -0.284962
  C      -3.579481      1.948396     -0.254536
  C      -4.154109     -0.318055      0.532103
  H       0.911214     -1.212938     -1.745148
  H       2.460800     -2.990866     -1.299036
  H      -0.675078     -1.946176      0.727290
  H       2.752285     -2.262255      1.338027
  H       2.872994     -0.304065     -1.002770
  H       4.167276     -1.397862     -0.468731
  H      -0.234079     -2.948654     -2.536148
  H       2.012806     -4.378996      0.504421
  H       0.911360      1.271134     -0.624607
  H      -5.441943      1.253283      0.217942
  H      -6.103279     -0.797083      0.994110
  H      -4.934065     -2.055172      1.207411
  H       5.229077      1.385231     -1.413996
37
Coordinates from ORCA-job gmp_geom E -1605.226772499422
  P       4.026832      1.661809      0.367457
  O       1.159194     -1.023645      0.987084
  O      -0.488351     -2.721328     -1.641679
  O       1.260952     -3.923945      0.108866
  O       3.711998      0.139694      0.833009
  O       2.958169      2.127834     -0.565581
  O       5.408942      1.502711     -0.469752
  O      -3.996081      3.065170     -0.543893
  O       4.349394      2.396428      1.616268
  N      -0.684265     -0.059737     -0.045720
  N      -1.064151      2.057590     -0.633826
  N      -2.924147     -0.781278      0.497513
  N      -4.475119      0.961025      0.176430
  N      -5.154382     -1.115080      0.926662
  C       0.539585     -1.976481     -1.057190
  C       1.736716     -2.753470     -0.515405
  C       0.025922     -1.288954      0.202418
  C       2.293259     -1.748410      0.487397
  C       3.304006     -0.809466     -0.132131
  C      -2.029915      0.130425      0.086617
  C      -0.155652      1.134320     -0.481739
  C      -2.250168      1.447884     -0.287796
  C      -3.580032      1.948544     -0.255742
  C      -4.154461     -0.317120      0.533176
  H       0.912656     -1.211569     -1.747298
  H       2.462505     -2.989114     -1.300928
  H      -0.676809     -1.947263      0.722554
  H       2.750418     -2.263077      1.337491
  H       2.873265     -0.302517     -1.001178
  H       4.167621     -1.396037     -0.465912
  H      -0.221711     -2.964161     -2.534036
  H       2.013804     -4.379868      0.499147
  H       0.910218      1.269744     -0.629796
  H      -5.442157      1.254449      0.219415
  H      -6.101218     -0.790975      1.008827
  H      -4.933149     -2.050384      1.219151
  H       5.228608      1.384549     -1.408780
37
Coordinates from ORCA-job gmp_geom E -1605.226756823084
  P       4.026092      1.661557      0.369830
  O       1.158543     -1.023572      0.985822
  O      -0.487458     -2.719472     -1.645013
  O       1.260809     -3.924042      0.105600
  O       3.711212      0.139307      0.835338
  O       2.957855      2.128024     -0.563394
  O       5.408014      1.501639     -0.468088
  O      -3.996789      3.064851     -0.545979
  O       4.348607      2.395935      1.618802
  N      -0.684810     -0.059671     -0.047345
  N      -1.064964      2.057535     -0.635852
  N      -2.924509     -0.781095      0.496868
  N      -4.475630      0.961029      0.175527
  N      -5.155157     -1.115402      0.924709
  C       0.540353     -1.975382     -1.059177
  C       1.736991     -2.752808     -0.517092
  C       0.025581     -1.288800      0.200402
  C       2.292682     -1.748612      0.487170
  C       3.304651     -0.809645     -0.130717
  C      -2.030449      0.130458      0.085194
  C      -0.156352      1.134461     -0.483517
  C      -2.250886      1.447729     -0.289607
  C      -3.580784      1.948284     -0.257385
  C      -4.154774     -0.316965      0.532897
  H       0.913906     -1.209752     -1.748366
  H       2.463238     -2.987671     -1.302428
  H      -0.677174     -1.947563      0.719927
  H       2.748557     -2.264290      1.337339
  H       2.874568     -0.302347     -0.999869
  H       4.168738     -1.395909     -0.463651
  H      -0.213605     -2.974535     -2.531811
  H       2.013753     -4.380674      0.494900
  H       0.909544      1.269860     -0.631336
  H      -5.442837      1.253957      0.218032
  H      -6.098968     -0.786237      1.021130
  H      -4.931963     -2.046458      1.229140
  H       5.225716      1.384576     -1.406900
37
Coordinates from ORCA-job gmp_geom E -1605.226769876512
  P       4.023837      1.660210      0.375755
  O       1.158186     -1.021357      0.981732
  O      -0.485472     -2.714502     -1.652390
  O       1.259685     -3.924062      0.098594
  O       3.711616      0.136873      0.840678
  O       2.955657      2.127158     -0.557171
  O       5.405229      1.501361     -0.464850
  O      -3.999219      3.063166     -0.552424
  O       4.345680      2.393786      1.625577
  N      -0.686052     -0.059419     -0.051462
  N      -1.067327      2.057371     -0.641033
  N      -2.925112     -0.780975      0.495299
  N      -4.477036      0.960140      0.172323
  N      -5.156635     -1.116661      0.920639
  C       0.542353     -1.972630     -1.063717
  C       1.737382     -2.751550     -0.520583
  C       0.025617     -1.287642      0.195868
  C       2.291748     -1.749361      0.486791
  C       3.307928     -0.811861     -0.127181
  C      -2.031611      0.130327      0.081580
  C      -0.158165      1.135088     -0.488054
  C      -2.252838      1.447120     -0.294225
  C      -3.582956      1.947020     -0.262280
  C      -4.155341     -0.317114      0.532039
  H       0.917639     -1.205589     -1.750662
  H       2.464719     -2.984925     -1.305391
  H      -0.676495     -1.947874      0.714503
  H       2.743047     -2.267761      1.337748
  H       2.879671     -0.304022     -0.996929
  H       4.172939     -1.397778     -0.457695
  H      -0.199888     -2.990260     -2.529331
  H       2.012306     -4.382575      0.486343
  H       0.907802      1.270438     -0.635191
  H      -5.444822      1.251329      0.213343
  H      -6.092048     -0.775065      1.051537
  H      -4.927936     -2.036403      1.254334
  H       5.218212      1.386298     -1.403012
37
Coordinates from ORCA-job gmp_geom E -1605.226783503277
  P       4.021163      1.657471      0.381757
  O       1.160400     -1.015637      0.976256
  O      -0.484380     -2.708394     -1.657683
  O       1.257044     -3.923669      0.093308
  O       3.716484      0.131684      0.845183
  O       2.950631      2.124632     -0.548412
  O       5.400868      1.504817     -0.464890
  O      -4.002624      3.059912     -0.561545
  O       4.342795      2.389380      1.633184
  N      -0.686989     -0.058804     -0.054931
  N      -1.070007      2.057577     -0.645100
  N      -2.925331     -0.781588      0.493057
  N      -4.478730      0.957463      0.166280
  N      -5.158009     -1.119405      0.915311
  C       0.544293     -1.969550     -1.067289
  C       1.737059     -2.750860     -0.522958
  C       0.027317     -1.284955      0.192688
  C       2.291821     -1.750615      0.486675
  C       3.314225     -0.817195     -0.123778
  C      -2.032430      0.129877      0.077844
  C      -0.159781      1.136733     -0.490941
  C      -2.254937      1.446262     -0.298696
  C      -3.585582      1.944622     -0.268986
  C      -4.155662     -0.318387      0.529845
  H       0.922128     -1.201589     -1.752006
  H       2.465155     -2.983464     -1.307404
  H      -0.672863     -1.947309      0.711556
  H       2.736167     -2.272329      1.339260
  H       2.887602     -0.309202     -0.994341
  H       4.179659     -1.403233     -0.451833
  H      -0.195534     -2.991697     -2.531166
  H       2.008499     -4.384590      0.480431
  H       0.906393      1.272229     -0.636249
  H      -5.447499      1.245640      0.204471
  H      -6.082648     -0.763905      1.083273
  H      -4.922406     -2.025386      1.280997
  H       5.208008      1.391766     -1.402070
37
Coordinates from ORCA-job gmp_geom E -1605.226789984906
  P       4.017806      1.656764      0.386849
  O       1.159714     -1.015037      0.973139
  O      -0.483048     -2.704679     -1.663661
  O       1.256461     -3.924216      0.087473
  O       3.716134      0.129687      0.848677
  O       2.947545      2.123931     -0.543678
  O       5.398171      1.507597     -0.460317
  O      -4.003847      3.058463     -0.567276
  O       4.337137      2.387607      1.639691
  N      -0.687902     -0.059396     -0.058222
  N      -1.071187      2.056902     -0.648570
  N      -2.926105     -0.781762      0.491455
  N      -4.479566      0.956512      0.162339
  N      -5.160300     -1.121095      0.909102
  C       0.545691     -1.968009     -1.071098
  C       1.737298     -2.750476     -0.526071
  C       0.027224     -1.284918      0.189126
  C       2.291015     -1.751677      0.485823
  C       3.315896     -0.818920     -0.121657
  C      -2.033223      0.129260      0.074774
  C      -0.160772      1.136346     -0.494206
  C      -2.255935      1.445500     -0.302110
  C      -3.586690      1.943566     -0.273410
  C      -4.156241     -0.318582      0.527996
  H       0.925130     -1.198838     -1.753778
  H       2.466432     -2.981675     -1.310020
  H      -0.672606     -1.948646      0.706797
  H       2.732208     -2.275288      1.338876
  H       2.890606     -0.310670     -0.992766
  H       4.182155     -1.404382     -0.448142
  H      -0.185803     -3.004952     -2.528680
  H       2.007532     -4.386832      0.473312
  H       0.905492      1.271752     -0.638876
  H      -5.448835      1.243266      0.198209
  H      -6.072247     -0.751489      1.114091
  H      -4.917058     -2.013278      1.303292
  H       5.204019      1.395966     -1.397384
37
Coordinates from ORCA-job gmp_geom E -1605.226795258684
  P       4.014515      1.654300      0.382925
  O       1.167533     -1.008477      0.972080
  O      -0.488865     -2.703250     -1.652040
  O       1.253117     -3.924242      0.096366
  O       3.728491      0.122746      0.839605
  O       2.937297      2.119534     -0.541593
  O       5.394216      1.527571     -0.468781
  O      -4.002256      3.055763     -0.572241
  O       4.331333      2.381829      1.639551
  N      -0.685354     -0.059730     -0.052037
  N      -1.067550      2.058174     -0.636510
  N      -2.925468     -0.784574      0.487604
  N      -4.478392      0.951146      0.149183
  N      -5.163786     -1.128667      0.890874
  C       0.543415     -1.969805     -1.065284
  C       1.734337     -2.754534     -0.521395
  C       0.032517     -1.282745      0.197258
  C       2.295079     -1.754163      0.485254
  C       3.321184     -0.827364     -0.126816
  C      -2.030555      0.127643      0.076270
  C      -0.156681      1.138012     -0.481793
  C      -2.252746      1.445514     -0.296579
  C      -3.584187      1.941823     -0.277281
  C      -4.155485     -0.322146      0.517712
  H       0.925140     -1.202568     -1.748507
  H       2.461909     -2.988076     -1.306395
  H      -0.664045     -1.948284      0.717649
  H       2.733189     -2.277510      1.340029
  H       2.893600     -0.321630     -0.998687
  H       4.185734     -1.413476     -0.455648
  H      -0.222181     -2.958939     -2.540741
  H       2.001462     -4.388656      0.485004
  H       0.910207      1.274082     -0.621844
  H      -5.448901      1.234445      0.177014
  H      -6.065919     -0.748690      1.124249
  H      -4.916089     -2.012383      1.303378
  H       5.206488      1.415629     -1.406733
37
Coordinates from ORCA-job gmp_geom E -1605.226839381892
  P       4.015770      1.657807      0.383930
  O       1.160577     -1.018011      0.975971
  O      -0.486519     -2.707719     -1.656822
  O       1.257597     -3.925596      0.092406
  O       3.717867      0.129229      0.840970
  O       2.943657      2.123655     -0.545932
  O       5.398868      1.521040     -0.458365
  O      -4.000120      3.058636     -0.567826
  O       4.331431      2.386389      1.639184
  N      -0.686424     -0.061587     -0.053598
  N      -1.066929      2.055736     -0.641006
  N      -2.927007     -0.782811      0.490560
  N      -4.477941      0.954989      0.155160
  N      -5.165556     -1.125914      0.891497
  C       0.543080     -1.971577     -1.067450
  C       1.736153     -2.753500     -0.524173
  C       0.028016     -1.287645      0.194330
  C       2.292549     -1.752917      0.484179
  C       3.312582     -0.819156     -0.127077
  C      -2.031702      0.127734      0.076740
  C      -0.157457      1.133794     -0.487113
  C      -2.252487      1.445188     -0.297837
  C      -3.583187      1.944023     -0.274206
  C      -4.156477     -0.319438      0.520756
  H       0.922627     -1.203252     -1.750767
  H       2.464842     -2.985124     -1.308513
  H      -0.671831     -1.951584      0.711784
  H       2.737410     -2.274224      1.336706
  H       2.886092     -0.312141     -0.998492
  H       4.177786     -1.404858     -0.456584
  H      -0.203607     -2.988331     -2.533016
  H       2.007927     -4.388514      0.479111
  H       0.909018      1.269333     -0.630690
  H      -5.447476      1.241612      0.185144
  H      -6.066339     -0.745770      1.128592
  H      -4.917377     -2.010599      1.301221
  H       5.216889      1.409405     -1.397676
37
Coordinates from ORCA-job gmp_geom E -1605.226859467771
  P       4.018130      1.658010      0.386705
  O       1.158107     -1.019301      0.975879
  O      -0.484211     -2.711101     -1.659418
  O       1.259901     -3.925575      0.090964
  O       3.716392      0.130492      0.842685
  O       2.947010      2.122527     -0.544747
  O       5.402661      1.518611     -0.451047
  O      -4.001990      3.057138     -0.570825
  O       4.333451      2.386781      1.641218
  N      -0.687792     -0.062483     -0.055599
  N      -1.069246      2.052848     -0.649217
  N      -2.928000     -0.782109      0.493990
  N      -4.478986      0.955187      0.157730
  N      -5.166678     -1.125450      0.894509
  C       0.543112     -1.972227     -1.068612
  C       1.737393     -2.752344     -0.525200
  C       0.026195     -1.289263      0.192431
  C       2.291624     -1.751602      0.484003
  C       3.310968     -0.816514     -0.125982
  C      -2.033199      0.127123      0.076101
  C      -0.159815      1.130860     -0.494089
  C      -2.254329      1.443324     -0.302257
  C      -3.584918      1.942990     -0.276123
  C      -4.157204     -0.318900      0.523737
  H       0.921362     -1.203814     -1.752432
  H       2.466953     -2.983350     -1.308778
  H      -0.674165     -1.952389      0.709964
  H       2.737807     -2.271965      1.336417
  H       2.887458     -0.308431     -0.998006
  H       4.175533     -1.404472     -0.454268
  H      -0.203363     -2.981092     -2.539576
  H       2.010961     -4.386995      0.478111
  H       0.906304      1.266245     -0.640269
  H      -5.448141      1.243051      0.188887
  H      -6.064440     -0.743354      1.139545
  H      -4.916532     -2.008908      1.305556
  H       5.223986      1.404754     -1.390890
37
Coordinates from ORCA-job gmp_geom E -1605.226870534737
  P       4.018752      1.657931      0.387539
  O       1.157850     -1.019537      0.975821
  O      -0.483502     -2.714106     -1.659029
  O       1.260822     -3.925801      0.091764
  O       3.717059      0.130384      0.842209
  O       2.948353      2.120704     -0.545409
  O       5.404859      1.519294     -0.446475
  O      -4.002673      3.055634     -0.573593
  O       4.331754      2.386943      1.642229
  N      -0.688334     -0.063330     -0.055956
  N      -1.070104      2.051154     -0.652280
  N      -2.928714     -0.782681      0.494362
  N      -4.479631      0.954281      0.156977
  N      -5.168359     -1.126937      0.891737
  C       0.542763     -1.973299     -1.068265
  C       1.737843     -2.752427     -0.525045
  C       0.025739     -1.290217      0.192448
  C       2.291688     -1.751266      0.483829
  C       3.310930     -0.816059     -0.126347
  C      -2.033931      0.126078      0.075108
  C      -0.160644      1.129272     -0.495865
  C      -2.255141      1.441720     -0.304813
  C      -3.585743      1.941636     -0.278314
  C      -4.157746     -0.319624      0.523466
  H       0.919917     -1.205170     -1.752831
  H       2.467298     -2.983659     -1.308582
  H      -0.674573     -1.952680      0.710802
  H       2.738656     -2.270854      1.336312
  H       2.888460     -0.307382     -0.998394
  H       4.174792     -1.405459     -0.454361
  H      -0.210166     -2.965832     -2.546884
  H       2.012304     -4.386059      0.479496
  H       0.905458      1.264855     -0.641983
  H      -5.448777      1.242241      0.187408
  H      -6.060221     -0.740087      1.151267
  H      -4.914833     -2.006338      1.309750
  H       5.230099      1.404978     -1.386997
37
Coordinates from ORCA-job gmp_geom E -1605.226873609101
  P       4.019783      1.658325      0.384811
  O       1.159061     -1.020356      0.977931
  O      -0.484487     -2.717536     -1.654305
  O       1.261109     -3.925876      0.096217
  O       3.718202      0.130756      0.839341
  O       2.949018      2.120735     -0.547759
  O       5.405722      1.519525     -0.448676
  O      -4.001423      3.055626     -0.572207
  O       4.332964      2.387531      1.639327
  N      -0.687332     -0.063351     -0.053513
  N      -1.068773      2.051326     -0.649509
  N      -2.928171     -0.783490      0.493520
  N      -4.479000      0.953759      0.156598
  N      -5.167913     -1.127758      0.890370
  C       0.541859     -1.974940     -1.065391
  C       1.737760     -2.753349     -0.522850
  C       0.026271     -1.290556      0.195189
  C       2.292653     -1.751160      0.484196
  C       3.310464     -0.815674     -0.128384
  C      -2.033165      0.125738      0.075863
  C      -0.159371      1.129446     -0.492388
  C      -2.254167      1.441462     -0.303704
  C      -3.584789      1.941309     -0.277538
  C      -4.157332     -0.320592      0.522135
  H       0.917517     -1.207740     -1.751576
  H       2.466031     -2.985849     -1.307066
  H      -0.674244     -1.951832      0.714754
  H       2.741952     -2.269379      1.336296
  H       2.886443     -0.306792     -0.999527
  H       4.173501     -1.405450     -0.457974
  H      -0.222341     -2.947438     -2.551348
  H       2.012990     -4.384646      0.484958
  H       0.906847      1.265438     -0.637451
  H      -5.448083      1.241957      0.186921
  H      -6.063293     -0.743969      1.142153
  H      -4.916655     -2.011275      1.301068
  H       5.232690      1.404378     -1.389380
37
Coordinates from ORCA-job gmp_geom E -1605.226875788012
  P       4.018373      1.658628      0.385645
  O       1.159321     -1.021749      0.978505
  O      -0.484820     -2.718320     -1.653763
  O       1.261211     -3.926508      0.096086
  O       3.717768      0.130356      0.839281
  O       2.947408      2.121806     -0.546278
  O       5.404026      1.520834     -0.448779
  O      -4.000471      3.055155     -0.574163
  O       4.331438      2.386962      1.640843
  N      -0.686812     -0.063771     -0.053008
  N      -1.067800      2.051136     -0.648702
  N      -2.928004     -0.783898      0.492398
  N      -4.478583      0.953256      0.154225
  N      -5.168476     -1.128593      0.886816
  C       0.541773     -1.975554     -1.065224
  C       1.737785     -2.753958     -0.523059
  C       0.026484     -1.291123      0.195547
  C       2.292828     -1.751865      0.483953
  C       3.310182     -0.815761     -0.128909
  C      -2.032717      0.125340      0.075283
  C      -0.158474      1.129322     -0.490952
  C      -2.253479      1.441079     -0.304239
  C      -3.584114      1.940785     -0.279096
  C      -4.157167     -0.321004      0.520444
  H       0.916970     -1.208285     -1.751540
  H       2.465593     -2.986412     -1.307719
  H      -0.674290     -1.952214      0.715017
  H       2.742818     -2.270164      1.335646
  H       2.884861     -0.306475     -0.999225
  H       4.173305     -1.404675     -0.459540
  H      -0.224308     -2.944996     -2.552096
  H       2.013321     -4.385078      0.484633
  H       0.907884      1.265415     -0.634959
  H      -5.447848      1.240968      0.183164
  H      -6.059416     -0.740774      1.148557
  H      -4.914583     -2.007633      1.305687
  H       5.230310      1.406067     -1.389383
37
Coordinates from ORCA-job gmp_geom E -1605.226872248567
  P       4.017816      1.659264      0.385037
  O       1.159104     -1.023387      0.979583
  O      -0.485171     -2.718867     -1.653042
  O       1.261544     -3.926902      0.096251
  O       3.716144      0.131141      0.839099
  O       2.947420      2.123218     -0.547178
  O       5.403503      1.520347     -0.449470
  O      -3.999370      3.055658     -0.573362
  O       4.330989      2.387593      1.640268
  N      -0.686268     -0.063937     -0.052243
  N      -1.066753      2.051289     -0.647222
  N      -2.927722     -0.783910      0.492024
  N      -4.477962      0.953532      0.153940
  N      -5.168258     -1.128442      0.885849
  C       0.541615     -1.976023     -1.064871
  C       1.737825     -2.754312     -0.523018
  C       0.026441     -1.291652      0.196063
  C       2.292861     -1.752182      0.483895
  C       3.309081     -0.815043     -0.129321
  C      -2.032186      0.125369      0.075596
  C      -0.157602      1.129326     -0.489554
  C      -2.252641      1.441318     -0.303402
  C      -3.583228      1.941100     -0.278598
  C      -4.156856     -0.320853      0.519949
  H       0.916433     -1.208722     -1.751347
  H       2.465376     -2.986658     -1.307952
  H      -0.674773     -1.952600      0.715116
  H       2.743934     -2.270355      1.335097
  H       2.882613     -0.305837     -0.999173
  H       4.172626     -1.402838     -0.460718
  H      -0.224287     -2.946782     -2.550961
  H       2.013805     -4.385274      0.484741
  H       0.908796      1.265387     -0.633290
  H      -5.447222      1.241286      0.182701
  H      -6.059770     -0.740952      1.146058
  H      -4.914793     -2.007677      1.304533
  H       5.229237      1.405680     -1.389982
