195
12 Eopt=-476.5219841081 (Eh) Einter=10.881427 (kcal/mol)
Si 3.55625021436849486633 33.84481352362608674866 7.82283052237410458929
Si 3.55593639245201842414 30.76681375039286336914 7.82283149595813664945
O  2.14730557121295362322 34.47995711157982157147 8.40980824279445826619
O  2.14686231990964238037 30.13195801651254512876 8.40980966073978741804
O  3.71008409525755133984 32.30579812104118531124 8.41283350969177057266
O  3.55527628417127949945 33.84681297397059296372 6.16683050661880205467
O  3.55496202314583076287 30.76481349793260022807 6.16683148120463453523
Si 6.21946584779380007291 26.15154208967122428930 7.82287394676628888845
Si 8.88330922494919050791 24.61427035246146033387 7.82291554753981799308
O  4.81039181978553731511 25.51668622837616595689 8.40985212678465465785
O  7.47536479781920704113 25.24941397652409946772 8.40989356177880864607
O  9.03814382874847410676 23.07525462358666601403 8.41291806265304842327
O  6.21949137846993682643 26.14954190544711565281 6.16687394373444419671
O  8.88333531938476461676 24.61627017992540800151 6.16691554325237767387
Si 6.21977960582596889338 29.22954198760858446349 7.82287340514477680387
Si 6.22040692387472926583 35.38154178542084338233 7.82287165000024931061
Si 8.88425012937965696835 33.84427022550747210516 7.82291376448317077319
Si 8.88393626546659476162 30.76627030778324822791 7.82291459123993426772
O  4.81083522078639092001 29.86468585824333388246 8.40985130276336079191
O  4.81133299417512372287 34.74668571052453813763 8.40984984560294357436
O  7.47630574171222495039 34.47941394237272305645 8.40989159485549286899
O  7.47586239031674804068 30.13141403161898068674 8.40989279947433310269
O  6.37361354602239238432 27.69052643305854743971 8.41287612225266201449
O  9.03908399741824553075 32.30525462498753341833 8.41291665908856067801
O  6.21980562075440435166 29.23154162480885531750 6.16687340481991963514
O  6.22043261159581106767 35.37954121059771495084 6.16687165193358577397
O  8.88427616340482906310 33.84626969386398798179 6.16691376375137068067
O  8.88396189082937759451 30.76426993371048013159 6.16691461127845386159
Si 6.22072074786599493734 38.45954160623715978318 7.82287044024989164370
Si 8.88487749625399914066 39.99627010222768319636 7.82291135464213738260
O  4.81177610580473391622 39.09468497629588767950 8.40984815217089121120
O  7.47680356913299082322 39.36141385249304391891 8.40988966454441566611
O  6.37455463162919322428 36.92052622845022824549 8.41287352633773188870
O  9.04002569248763876431 41.53525447880145549107 8.41291308192401388055
O  6.22074678685995419158 38.46154080475390202309 6.16687043972730641883
O  8.88490322739474969183 39.99426934220900875516 6.16691135362316877888
Si 11.54846578111370547504 26.15099869842597968272 7.82295696740787960266
Si 14.21330909189438962414 24.61372716998645415742 7.82299872057424572347
O  10.13939192888957840921 25.51614235354368886988 8.40993509018078455597
O  12.80436464366814597327 25.24887072216416328274 8.40997671469442131809
O  14.36714371148044300242 23.07471151515458274162 8.41300139051318929262
O  11.54849137025976091309 26.14899847971189927875 6.16695698350318277647
O  14.21233531043997722065 24.61572700944359581854 6.16699879004745632471
Si 11.54877951399403634980 29.22899854567120669913 7.82295649006198345887
Si 11.54940674543605538815 35.38099852368637243671 7.82295479825479755931
Si 14.21425001812119859324 33.84372686507742855611 7.82299677332933107721
Si 14.21393619472364200362 30.76572687671123773612 7.82299768062654887757
O  10.13983509247816883203 29.86414241999050744880 8.40993446248980269786
O  10.14033289055979025761 34.74614237634528279841 8.40993306796680073489
O  12.80530557558378390581 34.47887069287473593704 8.40997469918202256167
O  12.80486213019588781492 30.13087083642602692635 8.40997588751388391870
O  11.70261340459482113374 27.68998304329196002982 8.41295917948402482978
O  14.36808367172369038656 32.30471139281369374885 8.41299970626630155834
O  11.54880548032317300056 29.23099829724112197482 6.16695650401575434785
O  11.54943233924545076263 35.37899793554112193306 6.16695480144303953551
O  14.21327585410584326553 33.84572643347127041125 6.16699679409456180679
O  14.21296155289742024763 30.76372666746837936103 6.16699766725300246861
Si 11.54972065524547986115 38.45899843007292417951 7.82295359217373320604
Si 14.21487736600950668731 39.99572666146939781129 7.82299441373287951507
O  10.14077630375877348001 39.09414231413602180965 8.40993137999755724366
O  12.80580347943927854715 39.36087059222271733461 8.40997277192203185336
O  11.70355452272874785535 36.91998300630059048899 8.41295663607684218732
O  14.36902554523590680446 41.53471127867740619877 8.41299608163658518833
O  11.54974665190219162980 38.46099771297806313441 6.16695359091528683138
O  14.21390301302233716285 39.99372599038692754903 6.16699440406204146825
Si 16.87746497203053053227 26.15045568660270092209 7.82303999426462670641
O  15.46839182910418841743 25.51559904753238328112 8.41001845741667430900
O  18.13336409269997062665 25.24832713914056014914 8.41005983336198248423
O  16.87749086322482838796 26.14845506827495213997 6.16704013637806180981
Si 16.87777918576480828960 29.22845551686741316644 7.82303947545830968835
Si 16.87840650246070239859 35.38045526686190100918 7.82303765033781139948
Si 19.54224963274006299230 33.84318369974876361539 7.82307942024054803198
Si 19.54193579151781179348 30.76518370056937001777 7.82308034451606548743
O  15.46883472383054147770 29.86359913310371538842 8.41001737981546071410
O  15.46933268843487141453 34.74559912599197275540 8.41001601586866698312
O  18.13430533497734842285 34.47832742386584925498 8.41005748517005891074
O  18.13386183331825662890 30.13032730936672010102 8.41005886962414983543
O  17.03161360166530613469 27.68943971600094755559 8.41304223169676035354
O  19.69708349601500785298 32.30416802947164711668 8.41308233594071097627
O  16.87780510424930824342 29.23045494762809681788 6.16703947797748242010
O  16.87843199416515460598 35.37845465806181977086 6.16703765304912643330
O  19.54227535459164499798 33.84518325266575544674 6.16707944403798258293
O  19.54196107435756246673 30.76318307336257262818 6.16708036379731616705
Si 16.87872042325266264129 38.45845522964616236550 7.82303645921019263909
O  15.46977614543411227999 39.09359902468874992110 8.41001439558222685378
O  18.13480303374223012725 39.36032777919142233714 8.41005555070820598473
O  17.03255432223186005558 36.91943977796069731312 8.41303947427107345902
O  16.87874623752416880507 38.46045461171637214193 6.16703646075433997709
O  20.79783428391990085515 29.86305523928501060027 8.41010006322354364272
O  20.79833211777847878921 34.74505627860087741965 8.41009857657700798939
H  4.07465743868166185848 24.98677206438651055009 8.03659115912048349628
H  1.41040896880909372157 29.60201496899824036291 8.03674925608036438973
H  1.41040902047196681224 35.00798498960560323212 8.03674926884207607714
H  4.07465743673067937181 39.62322797216594238989 8.03659115989992045570
H  8.94818085054019718427 22.17325468644783015293 8.03830169137971495275
H  8.94818087758354785421 42.43674530624191731931 8.03830167972205344995
H  14.27776169854632293266 22.17320385485751543797 8.03828218687111117902
H  14.27776173618003952015 42.43679612441130899469 8.03828220879849730807
H  18.96055657743936961879 24.87622776847940997413 8.03640577581463411150
H  18.96055652160515592186 39.73377222063078306746 8.03640578004693217906
H  21.62471723146729374321 29.49141992242900656152 8.03658340533029758035
H  21.62471723316551930338 35.11858007789231095330 8.03658340819218075524
H  13.43954240685538792377 34.27033905547673953151 5.76911862889968407586
H  10.79702478258843179049 34.91824967627052700436 5.76839602500515269412
H  8.90770700734219644801 32.96594596299027557507 5.76499475644246661687
H  9.65945432695076711127 30.34299409052208318371 5.76888005113775825805
H  12.30259136930427921186 29.68912269290936833954 5.76803922928197465581
H  14.18560354280454482989 31.64418151366479747821 5.76552258300407238778
H  13.46208429057780264770 39.53603768881102809019 5.76468154338352256616
H  10.78553467814144184445 38.90473306572197031983 5.77122838987494191088
H  8.14831461400841838838 39.50994490589599905661 5.76699955025432586808
H  6.23317386276805240897 37.58286575778073057563 5.76180503597530968563
H  5.45415702123563317372 34.93908511538063521584 5.77152547612233490781
H  3.60566386883682898912 32.96814933230651689655 5.76410508806969978934
H  4.32812544085724759668 30.34544671586890629555 5.76331957707341757668
H  6.21212642423351102394 28.34933201797413815370 5.76816829123723362471
H  7.00946743295819452158 25.75759721886524999945 5.76754704053844236000
H  9.64012207571127710537 25.06582757847228748460 5.76488469450954355011
H  12.31500792920933484709 25.70853945102010840174 5.77192568572621578227
H  14.95343799041189214449 25.09203406327998209235 5.76610003341140497923
H  16.85241665149672130042 27.02653751519502733913 5.76116217913578054777
H  17.64630212756017613174 29.66655900320673211468 5.77122747827900184348
H  19.48194553512509585858 31.64158902378433779745 5.76482831981551413492
H  18.77355784279274075743 34.27390175759149570922 5.76498788480469048778
H  16.88031298497154963911 36.26100719768101754426 5.76894103300667726586
H  16.09309773649903263504 38.86024083728904798818 5.76722976425623912178
O  16.78260803979279103260 29.30562867189323839057 10.43387558634689327164
P  15.46063157062973836275 28.82589376570964390112 10.90703326443193432738
C  14.78690664106813912326 31.31445903917040141096 11.50694545358425280313
H  15.40850791509995687534 31.77440587850543707304 10.73158359514583715111
H  15.37806933694480981956 31.22311638808464451245 12.42800270279189156497
O  14.36174432224623487286 30.06208664675016706269 11.07557858036025244530
C  13.57248685073487592945 32.21072389850839101655 11.79152154859939116704
H  13.91250324256519377286 33.25494072197150785541 11.85975738769958098828
O  12.60766274039107770477 32.11701746086396269675 10.74075632078303677019
C  12.79279293456009902741 31.87879419266755576245 13.07643282655813621318
H  12.69891382600030205197 30.79093564218814904621 13.17865693355479805859
O  13.40735910497043903433 32.40037718546800959984 14.22776170817450847039
C  11.41141119002137216398 32.47113952686031268513 12.73098899430053521087
H  10.61235417305900163853 32.00955799189132733318 13.32490081201156684187
O  11.36620881276628658441 33.85991770641386722218 12.82147510946080615213
H  11.46593836897424267818 34.06972028154309128922 13.78299885993387263738
C  11.31515151201822710902 32.04993685844930695339 11.25594799870293982735
H  10.65404487778097042394 32.71928375197717997480 10.69032329173997197813
N  7.01481242861489739937 29.22870072554707121526 11.20531536934338667777
C  7.21900056448199833881 30.53792712381408236411 11.28515862280169024245
H  6.32094417231760719034 31.14019104750903110812 11.34497332006215231104
N  8.35510647540095696684 31.20438471413708114710 11.29377782615349978812
C  9.42521341450773597614 30.40828129103907073727 11.22035778964577978911
C  9.35589262680991318177 29.00098405531240430832 11.17611111714324678701
C  8.08161059940467296769 28.42621654159527366801 11.13559954178556843374
N  7.90123970030457734026 27.07754947980106408068 11.08186404023444993072
H  7.02617945098977259022 26.76656642808190156302 10.69452411516059697760
H  8.72697543364048833325 26.55472594766402494315 10.83177319912600999885
N  10.61840052469202611007 28.48144416954675151032 11.11253195050022490875
C  11.41136007659117801438 29.51137508003957421465 11.10586741733497184725
H  12.48034500023660697821 29.45207233344853037238 11.02794012589080097086
N  10.75252042737307967002 30.71106928219465714847 11.17084467985963058823
O  15.68915973491719384469 28.44248010972363616133 12.47736372648422786824
H  14.81551443942323231795 28.25373306365987247091 12.85542917840754384429
O  14.66485418798506046301 27.74488509493899357494 10.25160333190290096184
P  12.53071173461535714466 32.69148669541740304112 15.56786670185905663288
C  10.57711958317894840320 31.24257911242010621322 16.45305147699600567535
H  9.60592651828021715232 31.00224909254119154411 16.00398614994930213129
H  10.49963399278876607923 32.19214395668623751590 16.99723014434962564678
O  11.51593114951879037733 31.35983233158011884711 15.43505895477822598139
C  10.93688300430517834627 30.11937822971171740960 17.43767793596267523526
H  10.43115971147317644352 30.30801403118512737933 18.39746968977383900778
O  10.49823732510659368700 28.85144904904353069242 16.96277197216575061134
C  12.45437989951412482981 29.99862186680424258611 17.65195553574499953697
H  12.94776490845577043842 30.31835236605289907175 16.73618249475724795161
O  12.93545916073421864212 30.76209264801572373926 18.72485887289615291706
H  13.21518437923464972528 31.59669361477652671510 18.27944257776954728456
C  12.65325677285343175527 28.49077616574578897257 17.83519774971467342084
H  13.65285701740983803631 28.15478624708417498823 17.52899607000772519427
O  12.42513829691042204217 28.11116151570187682296 19.17362679417294657469
H  12.57076359728689496364 28.91983993664417340597 19.68726251586549125250
C  11.56786471657523840406 27.93949042513261815657 16.89550612618022640277
H  11.18128677923711400410 26.96417239652306108155 17.21664283172034615177
N  11.07749318749375788684 25.27403722220408255339 12.54527298906244503485
C  10.45911232279115665733 25.20900555516853813742 13.70543711892453764278
H  9.69159059221428442754 24.44388838357667026457 13.77618654466815861781
N  10.64215532333357572270 25.91490066170009498592 14.81152966074743204672
C  11.58367301692771889066 26.85224191864474363456 14.64030786767374792134
C  12.32036113539728106048 27.04214275912711684668 13.46645085206823111434
C  12.05788494487671513866 26.19331167894778289451 12.36263868582774705374
N  12.75688433840461755153 26.19443849861821860259 11.24656175170983196665
H  12.43342725033971341020 25.60743206427050466800 10.49772071389969596567
H  13.47625617698074762529 26.91144938474097259018 10.98102544170943239976
N  13.21572219822495242170 28.05712967253661815903 13.65960345710073831071
C  13.03371762100817399244 28.46683873532376196636 14.87231109832545783433
H  13.61098447773070319045 29.25930021147429371808 15.29910110441950976679
N  12.06240669513899099741 27.76763109056323131085 15.55043476643880318022
O  11.69398923603253770409 33.92155346655375325327 15.46072060411726667439
O  13.40530976251004169342 32.54956181375257528998 16.76711195924228547938
