195
Coordinates from ORCA-job amp_dimer_gfn_frame04 E -14918.166574391418
  Si          3.49492937452025     33.90152685362616      7.76664908222558
  Si          3.46144609311802     30.78877158989848      7.79642127004960
  O           2.28462918051923     34.78788565773613      8.40222438868727
  O           2.17165516165340     30.04297388001648      8.45282003172162
  O           3.47485029971227     32.34985049513373      8.29683053431385
  O           3.45125827554152     33.89351471164824      6.12876006087234
  O           3.43759534605690     30.80886385439245      6.16165532771231
  Si          6.14626499094630     26.13756719551929      7.80723600323490
  Si          8.82417789019832     24.54530519368117      7.79959862151625
  O           4.80169072939632     25.48328595504856      8.44921171670626
  O           7.48867647777210     25.34856221384914      8.31655893011370
  O           8.76371342123945     23.04508942776135      8.43260198285884
  O           6.12171271411835     26.15312985160557      6.16971436188897
  O           8.78445863698826     24.54578618115462      6.16380458589113
  Si          6.12693396871870     29.22578441446659      7.71103071482775
  Si          6.16704195096403     35.46839969506409      7.63876223324869
  Si          8.90760519123590     33.85455940404706      7.65026380512108
  Si          8.87690110400865     30.77861921749789      7.65342059046048
  O           4.84606972767411     30.05440358270479      8.30745984672637
  O           4.89241948345787     34.63392004624900      8.21677927352686
  O           7.55397379876826     34.68857809973720      7.98336615262942
  O           7.49531556387655     30.03404300410003      8.09355553286620
  O           6.20423507910311     27.70661397809375      8.30223340510743
  O           8.82297047954367     32.31604333075379      8.21319736186269
  O           5.91495525246622     29.17144702994945      6.09010149471925
  O           6.00078018585918     35.65178720556045      6.01864815063059
  O           9.10998652739142     33.77702231512942      6.02187618105956
  O           9.00078813433653     30.86799445129720      6.02478012951556
  Si          6.19479089767361     38.55593258323201      7.78254008260893
  Si          8.91190815605822     40.07116324551050      7.77921635694855
  O           4.92327732929091     39.34624610719379      8.42823134685985
  O           7.55791584099097     39.30820511927486      8.30179141842030
  O           6.23062245055938     36.98202119662997      8.25764422526876
  O           9.04752118117124     41.55496183213074      8.43601449889161
  O           6.21047864005586     38.61079452970451      6.14619135209582
  O           8.89779328298556     40.11009807044564      6.14200381909541
  Si         11.51362935232848     26.07314620189245      7.70755423597569
  Si         14.19577581039972     24.53718393367279      7.79210772887876
  O          10.16678667216662     25.35624814305322      8.29724040455233
  O          12.87299482343368     25.38035334218306      8.28796327510371
  O          14.02956087028148     23.03876344156755      8.40548838268603
  O          11.45504400512470     25.88431165174122      6.08333775607558
  O          14.19772303239053     24.54043226055565      6.15444288084753
  Si         11.52686780867243     29.23061533816282      7.68163102933047
  Si         11.57744522548997     35.36539016845694      7.63975303653541
  Si         14.22895955069897     33.81313337562065      7.67510707103103
  Si         14.19178554016864     30.74678100324450      7.69493946988720
  O          10.16993782027062     29.96257075458723      8.23890255519674
  O          10.22189393199176     34.65483394747906      8.21512546626060
  O          12.92581833189554     34.63643024263120      8.21884489579176
  O          12.87745712438368     29.94952173038232      8.26902752175600
  O          11.49087413099609     27.65864573445548      8.10597777306834
  O          14.25913772881995     32.28139518457760      8.26331916321125
  O          11.50669837166888     29.39023448477384      6.05323081303033
  O          11.61819592451996     35.19103775358590      6.01231617567337
  O          14.12413552621447     33.68165530596572      6.04583150054381
  O          14.03054687910725     30.79249810180778      6.06667074821367
  Si         11.59808450944410     38.52462671483431      7.65641352078552
  Si         14.28201641660580     40.06579646237071      7.78872012060187
  O          10.24478629714424     39.22530000912894      8.23545139603364
  O          12.94929662174187     39.22545761996461      8.25339284494036
  O          11.60932279705718     36.93996677052307      8.05147179984951
  O          14.23323368836342     41.55462386854204      8.44686531008577
  O          11.66159395568260     38.72260033612514      6.03331032770320
  O          14.36631872980242     40.07719323478126      6.15329990150226
  Si         16.90536706267484     26.06272989985321      7.81339257321408
  O          15.55419052796490     25.28313744993128      8.32392114090810
  O          18.20655333352602     25.32509099085533      8.45749145800232
  O          16.87824986574139     26.02216167108444      6.17745181169983
  Si         16.91924029776183     29.15451789938031      7.72714557261378
  Si         16.96492156484595     35.38912913453245      7.71308759691783
  Si         19.63181970167406     33.82400544802240      7.80296806329650
  Si         19.58679400130392     30.70813792063760      7.81354818784652
  O          15.53349875682344     29.92803827984363      8.11923825285704
  O          15.60450548611133     34.57157057022508      8.10559978487522
  O          18.26022177419159     34.58286978534837      8.30447179070068
  O          18.19903591568076     29.98028212160596      8.31762208627392
  O          16.85302927607199     27.62872642980474      8.31274486587879
  O          19.60702746304662     32.26583706715106      8.32073013149199
  O          17.06965506190092     29.01737288763869      6.10394769656960
  O          17.16327992643939     35.43434543096257      6.08913203583076
  O          19.64403222974554     33.78747948749094      6.16729926757434
  O          19.57460974042160     30.67729987983319      6.17553586769870
  Si         16.95373334025621     38.47780733173547      7.78891644015870
  O          15.63243156275758     39.29369902562841      8.31239311622379
  O          18.33842547956034     39.07933435228571      8.39782635851252
  O          16.88191172554045     36.91312020182554      8.29252136842517
  O          16.94607825761300     38.46547365460501      6.15090820570211
  O          20.82713218502849     29.86645984380265      8.44789466195451
  O          20.96418694881318     34.52049984530768      8.43097784866950
  H           4.07465743745638     24.98677204148612      8.03659115475708
  H           1.41040896337911     29.60201496579435      8.03674925594528
  H           1.41040901788309     35.00798497827216      8.03674926299016
  H           4.07465744565799     39.62322799918802      8.03659115722343
  H           8.94818081989620     22.17325468117078      8.03830167199110
  H           8.94818086421920     42.43674526388265      8.03830170042975
  H          14.27776170017697     22.17320385408317      8.03828218834992
  H          14.27776168445757     42.43679603725047      8.03828221273494
  H          18.96055658132135     24.87622777460751      8.03640577919121
  H          18.96055653976178     39.73377222308697      8.03640577877451
  H          21.62471723074191     29.49141993118538      8.03658340328499
  H          21.62471722253976     35.11858006606721      8.03658341096089
  H          13.36345918368722     34.14749580644933      5.66326723597135
  H          10.83690499695000     34.73626342360124      5.65572271346169
  H           9.08446258243845     32.87628420393052      5.66301112295039
  H           9.77064266997574     30.40155888967421      5.66143541300234
  H          12.29284544094019     29.83085719041148      5.69140406931712
  H          14.05984384751311     31.68916147838582      5.69493336936562
  H          13.55882862327232     39.78883272703753      5.70539140616512
  H          10.85303869398660     39.06761842301326      5.63207067394572
  H           8.13149247366387     39.68140015719386      5.73689115197403
  H           6.09214368995997     37.75017976049405      5.71791645175265
  H           5.29909469909868     35.12254950084101      5.61701077350275
  H           3.45948442619012     33.01375501887510      5.72823440251408
  H           4.12502633622815     30.27004857654918      5.74354569930611
  H           6.02839672586730     28.29682356789251      5.69248395813434
  H           6.85862548014331     25.69148086664278      5.74758301135836
  H           9.58643501470065     24.88862627412889      5.74379775177618
  H          12.26596517564590     25.54626757553735      5.67960417686700
  H          14.95790940464992     24.98513784357315      5.75445466840063
  H          17.01587441949425     26.88041854353695      5.75166993843812
  H          17.77964183115975     29.55003593760511      5.71793836597024
  H          19.60787169306168     31.54568623465045      5.75207294713470
  H          18.94473480969491     34.31224163592952      5.75113041850280
  H          17.04440285566898     36.30546939945555      5.68609258123711
  H          16.19049613189567     38.92011440238615      5.75236669151420
  O          14.21060742087388     37.15359272087493     10.99552546419225
  P          13.32414168637604     36.37427746036719     11.90747868507141
  C          11.55619502032309     38.30396449279609     11.89695556747067
  H          11.76053747555537     38.78694844051580     10.93683823417412
  H          12.21158011655435     38.75965872769743     12.64693376773293
  O          11.78906448073154     36.91038224615869     11.79993258391537
  C          10.13640762801342     38.58198428488241     12.30731231143683
  H          10.03734002144109     39.66660432122795     12.43937269532805
  O           9.22581967516482     38.14159856148447     11.29991141336502
  C           9.66064695441637     37.89084989563304     13.57807642195647
  H          10.05273900478764     36.87180978798269     13.62403750400458
  O          10.00663478035426     38.62692019637326     14.72937655550112
  C           8.14855983714292     37.86799925266897     13.37859091236022
  H           7.66085914999774     37.06348674446077     13.93562636346858
  O           7.58333133674565     39.12160996825092     13.67789151945097
  H           8.04952471339250     39.46514377489584     14.45151829258761
  C           8.04526930111994     37.65191072008233     11.87414554568414
  H           7.17446646146123     38.17656125418695     11.47238955755460
  N           4.79554287951990     33.73678907799494     11.34919143664633
  C           4.61345836504304     34.99139925711793     11.75899373842912
  H           3.59318474177789     35.25106772383550     12.02902784499400
  N           5.51098380482717     35.96324117686611     11.87277979290244
  C           6.73239268839158     35.54124132239360     11.53778474634393
  C           7.07881305825739     34.26374916681712     11.11490429490808
  C           6.02592777421135     33.34477779379778     10.98693788382277
  N           6.21254943800733     32.10049558698860     10.52953736183260
  H           5.41296981116068     31.53988507267702     10.28862527950137
  H           7.09414851098814     31.86849229652186     10.10539304497105
  N           8.42639474845858     34.18726695317454     10.85688695463976
  C           8.88179345911047     35.38311913451886     11.11859410386548
  H           9.90834264408947     35.70568332636718     11.02977601164416
  N           7.90283462159428     36.25037148258799     11.52640509208851
  O          13.72589822176427     36.76380510959603     13.40790253679160
  H          12.99587720331645     36.83884860702972     14.07493597632584
  O          13.24140922182767     34.89333148086319     11.72817297955820
  P          10.84995943855015     37.93109433846006     15.93119912386576
  C           8.56818763954595     37.00002413872662     16.97504196205346
  H           8.01946326111676     37.71532351304970     16.35614495656533
  H           8.63116873801808     37.40380463646521     17.99083677729712
  O           9.86098118991625     36.77026138567511     16.45012127179669
  C           7.82414766746752     35.68766809887597     17.02419724867831
  H           6.83480009512100     35.88497519917199     17.45756260830888
  O           7.66424506467346     35.15444602644969     15.70533217550905
  C           8.51151710018395     34.58186442599514     17.82937902026011
  H           9.59392675745184     34.65630546532711     17.70813885897518
  O           8.24522606216745     34.62102661086355     19.20118430418673
  H           7.37655709300589     34.21569980024098     19.33009244664615
  C           8.00305777567200     33.31736188116340     17.13326975416126
  H           8.67213416199858     32.46661452116805     17.25425945573863
  O           6.75069171662087     32.92623708836173     17.65264438804831
  H           6.06303699344094     33.53159123620104     17.35020074702639
  C           7.90873856305372     33.76422048771184     15.67645701152655
  H           7.08968286633584     33.25112757405937     15.16710401364537
  N           9.95608632481582     31.15253752838701     11.75740084831408
  C           8.79834797899566     31.00544254184742     12.40014741856236
  H           8.14794532685541     30.22463691617532     12.01521968720319
  N           8.32847593005129     31.69558121070908     13.43339211355916
  C           9.21483187463602     32.59444069221724     13.86223990720727
  C          10.48208755036988     32.81131017344659     13.33588423119475
  C          10.81329182585644     32.10076843298371     12.17157079337552
  N          11.93445461781347     32.34379977264551     11.47988034081792
  H          12.02958300631879     31.89811674738240     10.58125578018531
  H          12.42995361084612     33.22638750528014     11.63174885156040
  N          11.14294291430058     33.78616052800404     14.04445816138221
  C          10.29303052919425     34.16243728964818     14.95731509333319
  H          10.46374402451894     34.94947788437489     15.67310364119081
  N           9.09808999116517     33.49098672324853     14.89668554206400
  O          11.03076354794811     38.98919475039813     16.95112931381834
  O          12.01044685815933     37.18291308892812     15.36519290847923
