195
Coordinates from ORCA-job amp_dimer_gfn_frame04_dry E -14917.833844005863
  Si          3.49544429689036     33.90678409081807      7.88676191439845
  Si          3.44423522199591     30.81116417723700      7.92389034606700
  O           2.26022881137534     34.81453815679670      8.44808031507923
  O           2.12669681059209     30.04083456472192      8.51442600248020
  O           3.42179764709186     32.36041857857857      8.42100507209016
  O           3.46602296145680     33.82875801627581      6.23716808448674
  O           3.41656441688335     30.85054040771972      6.27236180921562
  Si          6.12696048353666     26.15622334450825      7.88408663014489
  Si          8.77206288815926     24.54928885482842      7.87759392526970
  O           4.74496342683247     25.52152384895606      8.47706247386969
  O           7.43350142972475     25.31859780879531      8.40413658684453
  O           8.68690688616045     23.01487062613318      8.43862297684404
  O           6.14979784058373     26.12010691036708      6.23663297098866
  O           8.74278833094053     24.59546780396602      6.23182747549564
  Si          6.08845961618265     29.23290625899893      7.76664768401201
  Si          6.14443599045863     35.47203230366684      7.72555246025461
  Si          8.89693810695298     33.88671574220898      7.72175283085555
  Si          8.86411325496784     30.80019211615924      7.63309265301525
  O           4.82191249894387     30.05663968496237      8.36933980241911
  O           4.87168478284812     34.63601555873633      8.33861106279691
  O           7.50952511146387     34.68018353749704      8.07107017182358
  O           7.49092469217997     29.99643038235769      7.98920397822567
  O           6.19295001685508     27.70826856139622      8.36539279184526
  O           8.76457141111980     32.31049374228765      8.18206339170240
  O           5.73434523157934     29.09634928466929      6.15917302817854
  O           5.90305167879010     35.59691506267777      6.09875456079056
  O           9.07860029105337     33.86062147605206      6.08265195202394
  O           9.05277599536505     30.87510871100023      5.99958829437910
  Si          6.19564328418023     38.57735438295263      7.79686667666640
  Si          8.91373344692577     40.11870208663900      7.75523943389532
  O           4.94045994140774     39.43036408075604      8.42157092937445
  O           7.56142634995816     39.30915542038506      8.27386113418089
  O           6.17137413061381     37.00651721867303      8.25323727121500
  O           8.99206932154747     41.58791332847430      8.49220474834829
  O           6.13505621972222     38.58993422159763      6.14803041381686
  O           8.70214886021854     40.35684268523186      6.14576809675251
  Si         11.45045983204884     26.06485360751818      7.76965777987840
  Si         14.12045778069032     24.53263283121127      7.82894598751114
  O          10.11646379247450     25.33709470869309      8.37431267668395
  O          12.81507276455349     25.36638247369846      8.33189710986157
  O          13.89534088144508     23.00146519806579      8.35370945722673
  O          11.36743273792730     25.77314932131513      6.14924486580301
  O          14.16912835576946     24.60206693929369      6.18464831222566
  Si         11.51575723659844     29.24150899129268      7.72416125382650
  Si         11.68078650428841     35.32343941793335      8.21591179337763
  Si         14.33636734348717     33.71211090450533      7.89496330573223
  Si         14.22306217812124     30.68266176500271      7.78488589473881
  O          10.14758165840099     29.96199179995737      8.21725859174690
  O          10.14897030873659     34.61533305233714      8.39500999247630
  O          13.12648269987543     34.49547990527088      8.59298512730327
  O          12.87144291116786     29.92475532648528      8.34148424701006
  O          11.45129718858358     27.64771507238851      8.09532565012311
  O          14.43330333817027     32.14553611545234      8.44789858577491
  O          11.58966129359962     29.41360329976720      6.09080765018438
  O          11.82807334328788     34.75203780980394      6.55913055189731
  O          14.06491651862354     33.57994024973042      6.28297701108573
  O          14.02585092188878     30.85992279877219      6.16656672293538
  Si         11.73130536420572     38.55127735133846      8.13071061039731
  Si         14.45949428691975     40.07113220555796      7.92887513104209
  O          10.21651939015412     39.28106010704231      8.14824092432880
  O          13.09173624498878     39.48740098534291      8.54278423843910
  O          11.73618235400297     36.91501839453141      7.80394862523068
  O          14.76630969562397     41.64692587136852      8.30681080520855
  O          12.03152238192692     38.91089037270426      6.43564750445193
  O          14.45230137968732     39.81377191250238      6.30384604644829
  Si         16.85739986532814     25.95573055394985      7.86804536572787
  O          15.49764644806082     25.21101492794669      8.38386730441430
  O          18.08386490194874     25.02266056919148      8.41243685140729
  O          16.79133632351925     25.98715923795062      6.22294326512097
  Si         16.92932969781232     29.02570416264469      7.78664737077133
  Si         17.08604314246325     35.31780127885166      7.84780715006589
  Si         19.70367870164812     33.71376093718168      7.85020612063884
  Si         19.54714891220760     30.62708389173225      7.83907734182789
  O          15.50644435793922     29.72001665136115      8.09937574769942
  O          15.78526817217109     34.42175152446930      8.18901699095573
  O          18.42590445366293     34.54210949439351      8.41750175498622
  O          18.16177174373822     29.92727562271467      8.35721356066330
  O          16.93489391633780     27.49979503689604      8.39005333556149
  O          19.70825700001028     32.15677047100559      8.37943171481996
  O          17.16387825488257     28.81538787693407      6.16860138532768
  O          17.34854635341975     35.41227665825132      6.22239920723480
  O          19.56255026781592     33.63036905659784      6.21044430196026
  O          19.48682044541145     30.69224282201620      6.19450096812457
  Si         17.01266991010408     38.38339402755962      7.88117269881511
  O          15.81544655457389     39.29158837670418      8.48969741526531
  O          18.52054872240710     38.90753142616332      8.27575606543594
  O          16.98438881500449     36.83182692288216      8.43013311429501
  O          16.81533975972649     38.30982872538339      6.24868906614470
  O          20.72356940893500     29.61587394587947      8.35563108313045
  O          21.15443685663895     34.31765706450260      8.31171413155195
  H           4.07465729571833     24.98677194271879      8.03659112109197
  H           1.41040896805438     29.60201496725599      8.03674925642878
  H           1.41040918291648     35.00798497377716      8.03674929505276
  H           4.07465744237537     39.62322800068144      8.03659115686218
  H           8.94818082167840     22.17325469620476      8.03830167262288
  H           8.94818086387001     42.43674526494624      8.03830169969690
  H          14.27776170307071     22.17320385889930      8.03828219072796
  H          14.27776165906070     42.43679608225241      8.03828219618426
  H          18.96055658352559     24.87622780753606      8.03640579594571
  H          18.96055653845742     39.73377222541036      8.03640577879211
  H          21.62471722988872     29.49141993257220      8.03658340260454
  H          21.62471721887518     35.11858006381999      8.03658341062321
  H          13.16564085407174     34.03074043123927      6.15284342262262
  H          10.98208284117097     34.62016254978376      6.11885951545560
  H           9.05104061680702     32.96675800968564      5.71784467458702
  H           9.84417363860238     30.40619386058641      5.69604270964655
  H          12.38782778049946     29.89820904011173      5.81254917822736
  H          14.02768229536681     31.82148307022500      5.94119948194261
  H          13.54125916907206     39.43165514340068      6.11629694991102
  H          11.69796359934308     38.18232346309203      5.90933515662209
  H           7.99758887838197     39.81398241327798      5.77515793644723
  H           6.06050131847761     37.69650779514485      5.78376163719073
  H           5.22305880226842     35.00136217609478      5.76126307371866
  H           3.45776334760406     32.91510898268006      5.91662169690514
  H           4.10311618681964     30.28424291098186      5.88702740690648
  H           5.94541460533578     28.23533877034421      5.77890539314007
  H           6.92383787774537     25.65555851174445      5.88705402029399
  H           9.56929473678594     24.94547497928376      5.86133473377661
  H          12.21131849663252     25.52874954655357      5.74921937673755
  H          14.96637120546436     25.04555321636571      5.85707963874283
  H          16.94206156806181     26.87971965885403      5.86778189741187
  H          17.79834214030127     29.43534133908693      5.78338752595079
  H          19.47896026326650     31.60758512902041      5.86949368689717
  H          18.86011681340042     34.21953830461143      5.88112069716141
  H          17.11371304221732     36.27948675549165      5.85647791466076
  H          15.98733423602718     38.76889388631754      5.99101235251744
  O          11.56247710777538     38.22594782584819      9.90913182604217
  P          11.23395929997556     36.97613496409582     10.70548733853667
  C           8.93498840132265     38.09228448221876     11.22205788373726
  H           8.71603222136186     38.59827652738912     10.28400208748188
  H           9.51502167485498     38.76029222858600     11.86556544762986
  O           9.66452147481735     36.89902312624690     10.93782869571701
  C           7.66168079635926     37.75035856907138     11.93918565125276
  H           7.13995847894260     38.69522779359131     12.14317361800181
  O           6.84242667423344     36.90845072014221     11.14361645761499
  C           7.83070302310859     37.00681641249226     13.25514279357726
  H           8.63381507074471     36.27101812617835     13.17528873684856
  O           8.04984815508940     37.89272098369757     14.32373840049538
  C           6.48023780033873     36.31175867306401     13.39924389073089
  H           6.53550008570872     35.39770333875955     13.99735963717817
  O           5.53170839664384     37.20842938541884     13.92637370334725
  H           6.03967135343463     37.83281104882516     14.46341452896347
  C           6.13441354693387     36.00009682613528     11.94221701370240
  H           5.05778407768439     36.08706698343167     11.77928523922546
  N           4.51834994573246     31.16545868534091     11.50392571249862
  C           3.86020898077875     32.30736895888386     11.71296617246814
  H           2.78710085013319     32.20479563894408     11.85190120018519
  N           4.33752553411022     33.54142281507453     11.77680314835390
  C           5.65360803223274     33.56864577280552     11.57091673757284
  C           6.46935342582159     32.46917398221574     11.31650321493586
  C           5.83839553729683     31.22058101108442     11.30387892257590
  N           6.51877846310446     30.07371832452085     11.07808467913429
  H           6.04746566595515     29.21693523928549     11.30969358088223
  H           7.51998354758290     30.10526944699417     11.18093053355858
  N           7.77756987033558     32.85588458138072     11.16004078867616
  C           7.75722883979539     34.15126314045341     11.31732515503982
  H           8.61213686171107     34.80663001204114     11.22643309668607
  N           6.49801596168153     34.64639822136323     11.56917780749080
  O          11.90990289598077     37.05127522518444     12.08469527507317
  H          11.35114446897268     37.27141956577283     12.90536262474418
  O          11.62244405892318     35.69279428613407     10.00020971708062
  P           9.47125858057626     37.82907461089356     15.13818563347623
  C           8.32592600721475     36.06983729301614     16.72692926369746
  H           7.36888795665395     36.46168002098165     16.36401831050717
  H           8.53221486064796     36.53012452612909     17.70035659471390
  O           9.35595306039326     36.34775651098712     15.81765073110370
  C           8.21797509082095     34.57680649638397     16.90995258853736
  H           7.43392999036250     34.39396983644355     17.66066417828361
  O           7.84753835374039     33.93958490203128     15.68399114768954
  C           9.50068418933413     33.87674183596042     17.36593324186288
  H          10.36438951766038     34.36457290258340     16.90940730776300
  O           9.68621786592248     33.87429049048328     18.75334898021872
  H           9.16858949305111     33.12511821311541     19.07678303885667
  C           9.30209847694498     32.47845717691688     16.78562628687718
  H          10.22552688638715     31.91786405433032     16.64952439742808
  O           8.47970142299632     31.71916118440870     17.66275446939352
  H           7.55912444221160     31.90533989711619     17.45529986289264
  C           8.60129860375593     32.76927989086283     15.46400440582761
  H           7.94100051309382     31.94072930652761     15.18749322402581
  N          10.73804508264455     30.46132795334460     11.45145736302971
  C           9.90451826289813     30.02474230836249     12.39121953634252
  H           9.61425875232344     28.97910255966464     12.30106772178991
  N           9.38092666745076     30.68051614886739     13.42254732693739
  C           9.81831780972639     31.93960208684452     13.45577903421434
  C          10.69898416896107     32.53292739526276     12.56576993584699
  C          11.14273538049805     31.74042036455958     11.49879597526638
  N          11.95705135226938     32.21957585053502     10.55787480202303
  H          12.20257568315202     31.63107309575692      9.78346971818307
  H          12.15996490945500     33.20648826079047     10.51765400856847
  N          10.93447001813998     33.84147646047212     12.89741092708681
  C          10.21947840041998     34.04656478907192     13.96501856192140
  H          10.15074398467094     34.97708002719959     14.50758273649832
  N           9.50604322279204     32.92917609226679     14.35535277470042
  O           9.40865401068681     38.88004816742738     16.16078593823091
  O          10.57001690427261     37.67231389052697     14.14723387696218
