163
Coordinates from ORCA-job /data/Seafile/amp/protonated/frames/frame02/amp_prot02 E -13464.964072395562
  Si          3.49880941427524     33.89262625899479      7.79519890792286
  Si          3.46833119999320     30.78371362702457      7.78395911947704
  O           2.27992930727805     34.77835815167742      8.40809756103611
  O           2.21873006635633     29.97317430047921      8.43362695212885
  O           3.45857601487736     32.33558992312037      8.31234205633770
  O           3.51582162366513     33.90158948764606      6.15748942821070
  O           3.45279595588480     30.84102403607526      6.15307342921628
  Si          6.14470891390512     26.13746370772981      7.78335044098424
  Si          8.82004037398898     24.54545136775426      7.79361565547827
  O           4.78602252940467     25.52038394220790      8.43088855587522
  O           7.48059450111477     25.34693703767241      8.30611499305650
  O           8.76125993750517     23.04642152830049      8.42898194565418
  O           6.12066308627383     26.12887350948386      6.14674346643327
  O           8.78062295432434     24.54589110930189      6.15777854569184
  Si          6.14285768684180     29.22489795829095      7.65224874469238
  Si          6.15932677131918     35.44372682970717      7.69500870328219
  Si          8.89332184796127     33.86836104658241      7.64217731756315
  Si          8.89235211455428     30.80034061401077      7.61686051823684
  O           4.87815853958646     30.06948617468469      8.28877361008439
  O           4.89025151820297     34.61149529173713      8.30155939393464
  O           7.55200402230208     34.68172039684127      8.08720969809187
  O           7.50874673197003     30.03681753542367      8.02036240136048
  O           6.21906861781417     27.71487203625139      8.25647940806970
  O           8.83551562642037     32.32947496264492      8.20301359511589
  O           5.88819682026984     29.17578724608690      6.04133904082652
  O           6.00293531190106     35.57719531487801      6.07421701132104
  O           9.03175272946143     33.83219911562851      6.01247701465636
  O           9.02508291746208     30.92191403155114      5.99206165267403
  Si          6.19053623875062     38.54219166388725      7.78593201472247
  Si          8.90684417555089     40.06407646712286      7.80121480412870
  O           4.92674970621115     39.34827165194613      8.42175651533891
  O           7.55930605120416     39.28157695703056      8.31722627334754
  O           6.21215287279792     36.97170158347105      8.28060070354715
  O           9.00394069809183     41.55463628334719      8.44518304995562
  O           6.22278560450200     38.58394381625660      6.15181534127258
  O           8.92445305318915     40.08123080445282      6.16426798331207
  Si         11.50868808433744     26.07108422730989      7.69575124583467
  Si         14.19056451825036     24.53882484544850      7.78864114452414
  O          10.16046331533221     25.36023692108046      8.29109176032025
  O          12.86793372318914     25.38357481213442      8.28447556373756
  O          14.02454972093868     23.03975636672172      8.40076839431615
  O          11.45397185121623     25.86379894394035      6.07338136022202
  O          14.18891921983463     24.54248907127942      6.15052853432731
  Si         11.52621984761629     29.22982073908850      7.64038584068543
  Si         11.57483330159738     35.37409993616824      7.63855577664547
  Si         14.22216518263057     33.81776897962833      7.65408439911167
  Si         14.19815544657408     30.74801337183678      7.65063409336422
  O          10.17684570523170     29.97525450217064      8.20306466896429
  O          10.20948197070736     34.66848643224977      8.19758843540016
  O          12.91950464972792     34.63629678612849      8.21868025239082
  O          12.88360962946044     29.94536055213787      8.20873053955564
  O          11.48128323682856     27.66103022083027      8.07339363108702
  O          14.25619148955379     32.28130961612658      8.22642339958424
  O          11.49328668679159     29.38388459417168      6.01093580107023
  O          11.62499160754865     35.21976988048685      6.01036448492465
  O          14.11018590428018     33.70472077204774      6.02522055665534
  O          14.05113016599971     30.79854365289539      6.02142152433226
  Si         11.58849929997663     38.53220454803066      7.69721918332990
  Si         14.27413231080935     40.06385857046354      7.80479303550161
  O          10.23495641529035     39.22639019379972      8.29511457827333
  O          12.94532860651189     39.22526242339573      8.29016217966879
  O          11.60306380188329     36.94238826889959      8.07719952321227
  O          14.22738770644488     41.55724558699113      8.45233838708464
  O          11.63377714455809     38.74465375814280      6.07654948412107
  O          14.34478794625273     40.06345595768929      6.16927006560122
  Si         16.90330781997121     26.06108483300300      7.80569170427751
  O          15.55060526463437     25.28432285386173      8.31699212225043
  O          18.20316577106792     25.32387136114009      8.45325400580542
  O          16.87714480253038     26.01491639645968      6.16987663718484
  Si         16.92441630222677     29.15263812228823      7.70708601584219
  Si         16.96094913786219     35.39256798356410      7.69709104645928
  Si         19.63005285686758     33.82817006130565      7.79342832254635
  Si         19.59007111606650     30.71078668482113      7.80408008039141
  O          15.53851189227206     29.93234137864495      8.08550180183736
  O          15.59798701324175     34.57581966865658      8.08584554760796
  O          18.25418747592312     34.58424424803467      8.28886619129113
  O          18.20211736039792     29.97916903914005      8.30188181652086
  O          16.85169457702339     27.62945539649513      8.29886064867582
  O          19.60324526881278     32.26957917866838      8.30882866666457
  O          17.08542814093268     29.00700578160236      6.08554789376229
  O          17.16144192860029     35.44303506073170      6.07411203520286
  O          19.65249957244804     33.79435913371970      6.15808970610913
  O          19.58591619228894     30.67611786009401      6.16613791315003
  Si         16.94929037450917     38.48214146612542      7.78747084927998
  O          15.62755654783254     39.29246160003737      8.32152450768285
  O          18.33417315703090     39.08229990626035      8.39633223993519
  O          16.87667911216479     36.91473210181842      8.28315372701138
  O          16.93715173656634     38.48069323199413      6.14986220830983
  O          20.83263416122161     29.87893649481014      8.44698596782857
  O          20.95584413832054     34.52933429236003      8.43056344066512
  H           4.07465750389128     24.98677209531555      8.03659118422407
  H           1.41040896638560     29.60201496456990      8.03674925673296
  H           1.41040901696223     35.00798500258153      8.03674926511807
  H           4.07465745818367     39.62322799181617      8.03659117354185
  H           8.94818084667858     22.17325470650489      8.03830168939520
  H           8.94818083091592     42.43674542800966      8.03830165319605
  H          14.27776173479002     22.17320375234703      8.03828215149547
  H          14.27776172417992     42.43679615335618      8.03828219548874
  H          18.96055658132828     24.87622777604290      8.03640577919064
  H          18.96055646344073     39.73377214083482      8.03640580853348
  H          21.62471722579705     29.49141993214240      8.03658341038854
  H          21.62471723873225     35.11858007764342      8.03658341050305
  H          13.34953834757748     34.17318916910704      5.64634455367016
  H          10.83371139945036     34.81003760969837      5.62742547831029
  H           9.02281714430085     32.93986251671842      5.63197834092458
  H           9.78703932003058     30.44880454987844      5.62077430302459
  H          12.28169421123492     29.81094455719731      5.63986418210928
  H          14.07369741066083     31.69504218526184      5.65073490118603
  H          13.53031419774378     39.78507663393148      5.72768053504609
  H          10.81930261979932     39.09335956222536      5.68817677567310
  H           8.16439193669760     39.65691463457584      5.74353786118425
  H           6.10398201142002     37.72573897650236      5.72087629776674
  H           5.29192257738803     35.04568227538980      5.68831924144368
  H           3.50870368266567     33.02653566431715      5.74555780091655
  H           4.11276448140405     30.28332613166427      5.71587598322893
  H           5.99138370187715     28.30475054936814      5.63338293678136
  H           6.87090195508916     25.68123331314669      5.73248760522377
  H           9.58686059334124     24.87875429814771      5.73755576980789
  H          12.26610116400312     25.51837920292428      5.67757455134953
  H          14.94972753164264     24.98436121133037      5.74865935577894
  H          17.02075578579727     26.87071303560358      5.74117252128260
  H          17.79554974532274     29.53996213140881      5.70041692757696
  H          19.62430177904370     31.54255902313447      5.73956433809543
  H          18.95648943571699     34.31868601893964      5.73658458006698
  H          17.04108314131166     36.31416177139255      5.67189326216531
  H          16.17481326696270     38.92759106191241      5.75546765134129
  P          12.00200964563844     29.49462536313206     12.24258614574204
  O          11.77004170222441     30.81223745789376     11.57556240666078
  O          12.72373366933921     28.40959952079102     11.52437063801467
  O          12.75365371731112     29.69965474581517     13.65447988869830
  O          10.58150256196031     28.94203362314138     12.81002101855236
  C           9.48136484160462     28.83114788227510     11.92920961004534
  C           8.22150667860358     29.16141354849093     12.69630318655448
  O           8.26231984415288     30.51932836288339     13.17765171205864
  C           6.96291997237003     29.05736164814304     11.85958582998516
  O           5.86967017196852     28.74009072734415     12.68922881227561
  C           6.81878053160184     30.48258651646423     11.32499828336384
  O           5.49820466421850     30.84107283483562     11.03014977274708
  C           7.34089798815651     31.31156904298926     12.49680016919231
  N           7.99324823690271     32.54391658101531     12.07872141331859
  C           9.30954905254313     32.71643711383243     11.73148850402134
  N           9.57724375120238     33.94165796931231     11.35297204842032
  C           8.38266277032246     34.59804537870338     11.44466393199396
  C           8.02125724436586     35.91628145674668     11.13452755609795
  N           8.82950730801680     36.83566813231195     10.65465107901900
  N           6.70989451672324     36.19010483739648     11.36418186026689
  C           5.81192938704003     35.28503478574999     11.83554337395303
  N           6.09189416583771     34.05235623940950     12.11452223595809
  C           7.38333410297913     33.74426429377548     11.90177730086124
  H          12.43556419625742     30.48651084221348     14.11189625653506
  H           9.59848405955521     29.50734297092194     11.07599152540335
  H           9.40767265098862     27.80653852133538     11.54811663245129
  H           8.15217039236563     28.51338454752795     13.57313446530809
  H           7.06907251499975     28.32710744006614     11.04960320800827
  H           5.09174517056376     29.14698077262474     12.28231446753059
  H           7.47441345235071     30.62142845966944     10.46281620025880
  H           5.30883877912842     30.62212492024749     10.10555786618438
  H           6.50866772603078     31.60985194454437     13.14234210871090
  H          10.03815266501979     31.91133179420597     11.78134793422740
  H           9.79175385882667     36.60115883253928     10.47202218840774
  H           8.50639613346501     37.75326783137145     10.39066043138149
  H           4.80695264024589     35.66710618463717     11.96477289238589
  H           6.36406002409565     37.12405382485763     11.18156864908619
