161
9 Eopt=-24.3620050639 (Eh) Einter=-37.060972 (kcal/mol)
Si 3.55619766705608153501 33.84476481045825124738 7.82276524372043446931
Si 3.55590001547412715155 30.76676508459876657753 7.82284241136589741927
O  2.14725454993240205681 34.47991494497106401695 8.40973941861626528294
O  2.14683428054132718898 30.13191620395403447219 8.40984838572303772253
O  3.71004415080966420959 32.30576470551612544568 8.41280059834918425565
O  3.55520872023673817353 33.84672308189369260845 6.16676505766046201273
O  3.55491067773244839856 30.76472348172867299354 6.16684233563799821809
Si 6.21945406524696320361 26.15150757769704270572 7.82297474415939664283
Si 8.88330559734024660656 24.61424949223817648658 7.82302992215013848210
O  4.81038867021772809096 25.51665835281210092944 8.40998093180562733551
O  7.47536340996277548498 25.24940100204951676233 8.41000095787676649195
O  9.03815409323698482069 23.07524917839650413498 8.41306823982620244351
O  6.21946451174230574566 26.14946623544996384680 6.16697466418308071212
O  8.88331658996539985651 24.61620880853948634126 6.16702970698045582765
Si 6.21975210585822413378 29.22950761648010598037 7.82289769435904602801
Si 6.22034599421454004187 35.38150731656644154555 7.82274353193231064552
Si 8.88419652038358975688 33.84424972550883836675 7.82279962573362119826
Si 8.88389965887175137027 30.76624993872274771434 7.82287683020915203258
O  4.81080995990634896486 29.86465890936632305852 8.40986885371114212262
O  4.81128221704665115510 34.74665707059190822292 8.40974684541341765964
O  7.47625489407692267463 34.47940095775983593285 8.40977143893577938627
O  7.47583497542904140687 30.13140038047060187409 8.40988028302701984273
O  6.37359869904906339855 27.69050760065450589309 8.41293293668641872785
O  9.03904345968087774565 32.30524955795792863000 8.41283537326212993435
O  6.21976171759250995308 29.23146536187257282791 6.16689757920734837882
O  6.22035598602755346320 35.37946608125159286828 6.16674343195586516231
O  8.88420902467004758307 33.84620768733977769216 6.16679960898049905893
O  8.88391109848129900683 30.76420880244936029158 6.16687669112206560129
Si 6.22064295679125311977 38.45950713849308044701 7.82266561983258679192
Si 8.88479259751977323845 39.99625028644140911638 7.82264481788524790318
O  4.81170038394865162701 39.09465711517529484809 8.40964058654963331207
O  7.47672759942556908186 39.36139890764957272040 8.40964774911725854167
O  6.37449078809046376648 36.92050712456570948916 8.41270201699648190186
O  9.03993763419240359269 41.53524932917007106425 8.41260591625506748414
O  6.22065461407887720924 38.46146495550273414210 6.16666576875339256247
O  8.88480283991957797696 39.99420781320210949161 6.16664429194566565684
Si 11.54845370160886730559 26.15099291142572113245 7.82300879888879396873
Si 14.21330526348756961852 24.61373490666316143916 7.82306421401092855206
O  10.13938938440111314776 25.51614257445237399224 8.41001148305104173630
O  12.80436303866123992634 25.24888646069769748692 8.41003516775738901856
O  14.36715359939056213534 23.07473481853754293525 8.41310266693505504065
O  11.54846451976587218269 26.14895025698584163365 6.16700862825870466111
O  14.21231656326609460450 24.61569407259243291719 6.16706398133577415877
Si 11.54875103419069404254 29.22899165496995976810 7.82293188397004968238
Al 11.54934671753985320208 35.38099263886038414739 7.82277821673686357684
Si 14.21419945150499941633 33.84373350520853307444 7.82283347699185949153
Si 14.21390005307550907787 30.76573422565438065135 7.82291093781580570976
O  10.13980930569959681975 29.86414374943978700117 8.40990321159651799121
O  10.14027545827356746599 34.74614003501306314092 8.40978434279339381874
O  12.80526157895943661913 34.47888199244638940399 8.40980740760309686266
O  12.80483491717812327693 30.13088460209359453756 8.40991367692972069392
O  11.70259819427828240634 27.68999220053067489289 8.41296795214670467544
O  14.36804480251454663176 32.30473397325393136725 8.41286910652496899843
O  11.54876227807032762485 29.23095212552557953245 6.16693178731472446685
O  11.54935700435783019202 35.37895047693844219339 6.16677008560555428573
O  14.21320607814434566762 33.84569312029407228692 6.16683313179230019330
O  14.21290952551630049072 30.76369424365482529993 6.16691075663661436579
Si 11.54964456896145819087 38.45899387838175442766 7.82270084093497430899
Si 14.21479218910873143500 39.99573487523146297917 7.82267895400996415844
O  10.14070153389095985119 39.09414274345940043531 8.40967205026579023297
O  12.80572693360739222612 39.36088572721160261381 8.40968181543566117853
O  11.70349143911997913392 36.91999915621492789342 8.41274014193306918230
O  14.36893711367035919579 41.53473463752120409254 8.41264013671374577541
O  11.54965426591785693233 38.46095082652682606295 6.16670005325954129205
O  14.21380226639944588385 39.99369279589895853633 6.16667876375244716769
Si 16.87745381697553881395 26.15047732958757720212 7.82304286397644244033
O  15.46838908286630598354 25.51562780162574384235 8.41004557317432066554
O  18.13336279655807459221 25.24836995756017543613 8.41007257665861551743
O  16.87746411782650568512 26.14843624027615831551 6.16704280174640828704
Si 16.87775070783360931159 29.22847724000337166217 7.82296576385774855567
Si 16.87834547654337313816 35.38047674853688562280 7.82281213702193678472
Si 19.54219744430114147349 33.84321961431573555501 7.82286714404759386809
Si 19.54189950136838049843 30.76521980994555960365 7.82294427333556452453
O  15.46880920961511307610 29.86362845929628662134 8.40993783842727360422
O  15.46928163749193885224 34.74562672622534620359 8.40981642121426631320
O  18.13425455423335108662 34.47837076694039382119 8.40983831534735593038
O  18.13383423086283130488 30.13037016192837924677 8.40994738875213343476
O  17.03159769471334428204 27.68947748647205742145 8.41300115817771043680
O  19.69704338964875134366 32.30421966005826561741 8.41290264749924254772
O  16.87776254772620987410 29.23043568590652796502 6.16696569035935926451
O  16.87835705479450254529 35.37843618723208294341 6.16681177302221605885
O  19.54220752940774019635 33.84517822947048415472 6.16686698972524993678
O  19.54190985278269110381 30.76317829541482140598 6.16694427276408063676
Si 16.87864347761777139567 38.45847686485020489044 7.82273406294604001232
O  15.46970132965910948997 39.09362834655904350711 8.40970509584113479207
O  18.13472645928644055857 39.36037132985594411139 8.40971883853611679172
O  17.03248975787303010065 36.91947683147692771399 8.41276963816947542796
O  16.87865374506788640474 38.46043546022718828681 6.16673407336836731929
O  20.79780841281553804833 29.86311235463863766881 8.40997401385486575975
O  20.79828023630079769646 34.74511437864205731785 8.40985153742683522182
H  4.07465921064755498548 24.98677282563426160777 8.03659008118043161062
H  1.41041111666676854952 29.60201527428230861005 8.03674833467700189260
H  1.41041109345782089690 35.00798478939735502991 8.03674832978503772551
H  4.07465939833405599302 39.62322748180169895704 8.03659024219143347523
H  8.94818059693665368570 22.17325672304699679671 8.03830059702355192996
H  8.94818053722154260754 42.43674330196613908583 8.03830070437530075367
H  14.27776119757829142998 22.17320591181780997658 8.03828114497415313622
H  14.27776131571219764282 42.43679403462496679822 8.03828123045815168268
H  18.96055519547100232103 24.87622946646626331813 8.03640487321645302643
H  18.96055519152952939521 39.73377070852339443263 8.03640484232482954496
H  21.62471577957391843938 29.49142129028868453133 8.03658235239985607734
H  21.62471576637085846073 35.11857873984990874305 8.03658237267043418228
H  13.39922798167036255279 34.28531318058931276482 5.85463133449971273592
H  10.85602901433579248192 34.89218107358665577067 5.71721185464959535949
H  8.79316643450390955650 32.97374045946524745432 5.76219921706601923006
H  9.66358060806385310570 30.35160625322266625403 5.76895564074257727327
H  12.30629911840969903380 29.68608898932127004855 5.77123876978673333582
H  14.17430184393154135591 31.65300411648590639402 5.78286314639323784093
H  13.45700777982505513819 39.52750410197950969859 5.78093082302961569496
H  10.82185059019430539706 38.95872246549002682059 5.76976906312869086690
H  8.14980720525787027952 39.50860981344578704011 5.76627383679125493643
H  6.23194650680662931563 37.58116375064609826495 5.76471299804135739464
H  5.44704833734827964520 34.95093692357992409825 5.77257525211030131373
H  3.60664878312751824296 32.96826865644331405747 5.76388719037990426841
H  4.32819340037723865322 30.34484003362265269743 5.76402049960848117394
H  6.20754674561247998810 28.34935758845449527144 5.76818364273311789958
H  7.00943373693936511160 25.75772100001148601223 5.76748923825192782999
H  9.64047173242779287250 25.06526936761378010488 5.76511837429213613859
H  12.31477188180777737614 25.70825727547768480008 5.77188270544540316109
H  14.95394077694241374843 25.09100736352655758310 5.76597674171622820438
H  16.85170390971209641862 27.02666225625382168118 5.76146808145013977764
H  17.64768486566296701312 29.66420746860022461533 5.77142425642913714512
H  19.48180932773873053065 31.64168787893305534453 5.76490014222897340090
H  18.77140887910983479969 34.27358448225359666139 5.76790928174132666584
H  16.89481945503492354987 36.26079528339037238993 5.76914694997073240756
H  16.09152610732993693432 38.86028579633995860831 5.76951247068464301293
P  13.16762300159570742153 33.78238568441837230694 11.38651912527737408709
O  10.78146747671227778653 32.09356432594578478756 13.62057906029519216418
O  10.91243740088358116225 29.20297217878151485593 12.03198663401204981938
O  9.01671478307494211890 30.65042211856409792858 10.94032070820074409312
O  13.00518951210777807148 33.33002347560265121729 12.92605032314858348741
O  7.32394990418151436984 32.91109422937993400637 11.61804212453897733326
O  12.96404524792229473462 35.27652000217024408357 11.26281465444609075632
O  12.23503745789618157858 32.95128847369516478238 10.53466929054526168841
O  14.69953352638976262767 33.42784348955976980733 11.04454872968579337567
N  9.43190131366134210111 33.57529282090320066345 12.21319564629975218395
N  7.97997530559067147493 35.01140871505531038110 11.02565200527367927918
N  8.72154223076829993033 37.06408122659747306216 10.15342075212240224857
C  11.32073411251970362912 30.53593066082385831805 11.82794168055476191626
C  10.12839308254420878086 31.40097349152107852888 11.37722756322903983062
C  11.80938564791550682287 31.20112503856895358467 13.15330637196240104458
C  9.74103146492705818105 32.21254328128633659389 12.63380209169307200057
C  13.16848754033919277617 31.94809640830804653433 13.07615369670415006453
C  10.44542260164105940135 34.47151498771294342305 12.02466624738933909100
C  8.17639254844087659535 33.78580365003622887343 11.63413212181830402869
C  10.24076044292129239466 35.64385872047181891276 11.36987268480257995407
C  8.97345495510026580632 35.94366191975262836422 10.87085285712177729067
H  12.11717716740749395399 30.53640089080283814837 11.06624867747908425031
H  10.42679517766591423822 32.07838141434928047602 10.55946252548734598520
H  11.86118400750033607949 30.39794612018495811867 13.90466927693219645334
H  8.83884572125312395485 31.78436531896592498470 13.09004933803659831426
H  13.80759742043094107089 31.56811669318186019950 12.26093261822493474256
H  13.72909516255092299275 31.82168505389001822437 14.01765400069531430916
H  10.25554403461175212442 28.97819241043789517676 11.33753348558691520509
H  8.24312150054871750626 31.25730365085171769124 10.97479633473716020831
H  11.45284961463083028832 34.16037420497613652515 12.30529899116245218238
H  11.07637526806739636243 36.27645955387556142568 11.11984002321552722492
H  9.41456903301744318924 37.67531758971364297395 9.73288767261673193332
H  7.86111932411775526930 37.10493864860740842460 9.61792985379712384031
H  14.98577479054393890578 33.85947124436960109506 10.21383936225730337810
H  7.12721558683799827350 35.11573192316159719439 10.48271156153247929410
