162
Coordinates from ORCA-job /data/Seafile/amp/al_surf/frames/frame16/amp_al_frame16 E -13417.649115632585
  Si          3.45450451899012     33.84839094582292      7.81934655536480
  Si          3.47795355494237     30.74475707115053      7.83120242155555
  O           2.22728439548775     34.70255377057188      8.45964208260113
  O           2.23320026572168     29.90364138479100      8.45837594280003
  O           3.42985113063252     32.29760109887555      8.34608211324639
  O           3.43812264519736     33.84914019242577      6.18025839252879
  O           3.46897728106351     30.80485883080559      6.19662962342042
  Si          6.15252091430979     26.09581386973709      7.81389967835060
  Si          8.84374147486459     24.53420004037918      7.78826384739850
  O           4.86049097820170     25.35678692135954      8.46992279377332
  O           7.51659170210346     25.34312588540360      8.30812723278171
  O           8.79893277007180     23.04428383919617      8.44579285247316
  O           6.10570946699840     26.13561505685238      6.17693006645338
  O           8.79016031389670     24.50491275675655      6.15396551539587
  Si          6.12241497414154     29.17743925480045      7.72105936747484
  Si          6.10918886116577     35.40011974239120      7.67504395906224
  Si          8.86214589678326     33.83473111012613      7.62265038343773
  Si          8.85866548636139     30.74214176145068      7.62505668305344
  O           4.87985403368860     30.04613624742824      8.34699198160103
  O           4.83375550024718     34.59102850170881      8.30119573473186
  O           7.47490751624047     34.60917376227773      8.04663915941692
  O           7.50624972231405     29.95304012812932      8.08371175918524
  O           6.16787313829083     27.66046813387682      8.31807402278860
  O           8.77171429071598     32.27443745176588      8.16073271247574
  O           5.86882901746332     29.11947385860642      6.10619950200693
  O           5.90972926301161     35.52864024136782      6.05181899147840
  O           8.96136846968201     33.77078070157887      5.98368848716635
  O           8.96570554575792     30.79382092808828      5.99228875608697
  Si          6.13316551432306     38.49108760415662      7.69736208751740
  Si          8.86254419663173     40.10306102061513      7.70367103312088
  O           4.93567310538169     39.35102850573856      8.40356179547942
  O           7.54983027634515     39.21166557987033      8.09769273930905
  O           6.17904859054447     36.93609828606930      8.24112491720358
  O           8.60997501569160     41.58129712444620      8.35028268917334
  O           5.95825230023768     38.46521550183939      6.07577799930477
  O           9.09426930963603     40.13801727673075      6.08123766626751
  Si         11.52153357131041     26.07299594661012      7.66701902399561
  Si         14.18851203021086     24.52929864832317      7.78138708099806
  O          10.18157249844135     25.35792812018007      8.26820691312280
  O          12.87745895313251     25.39057053828556      8.27413809202989
  O          14.00426452728345     23.03468167984450      8.39577205550620
  O          11.47580641151358     25.85313274340803      6.04706005696160
  O          14.19996922996324     24.52723426493852      6.14432038197145
  Si         11.53299060631111     29.23954632072601      7.65835688526569
  Al         11.61197902790631     35.39922258432409      7.72435749623363
  Si         14.27990203643659     33.79624236007163      7.78350328418941
  Si         14.21031136524836     30.74603878243044      7.69007978870536
  O          10.17158543313559     29.95881469754280      8.21451621355200
  O          10.11970262129836     34.61273787651550      8.23045236622703
  O          13.05963762241839     34.61966236164655      8.44844758462047
  O          12.88151152648781     29.95714100265340      8.23425225702840
  O          11.49871772616059     27.65739059378265      8.04375225654769
  O          14.34168874924556     32.23858278505718      8.33354660480443
  O          11.51680335572968     29.41325206155637      6.02689393655883
  O          11.84137067294993     35.11089908565999      5.99555777359151
  O          14.07052809256761     33.70823602998672      6.16037267447993
  O          14.04535987906132     30.88326656685673      6.06546137495535
  Si         11.60516549165243     38.65350999245748      7.73042152041725
  Si         14.33734819312540     40.08333425096234      7.81918683355007
  O          10.23746176315782     39.41301693328182      8.25938388403085
  O          12.94202964693996     39.40783511009680      8.34418529818512
  O          11.60561567262086     37.10766590269842      8.12464583879439
  O          14.55656836561721     41.58629027750928      8.41407938652785
  O          11.70450476989803     38.89264721880097      6.10033405361713
  O          14.35476586400564     40.04180929017672      6.18059931362322
  Si         16.90587977562289     26.02912122978808      7.80648806686618
  O          15.54385280813199     25.27250111865472      8.32222783818575
  O          18.17348184842639     25.25019317951856      8.46418159080498
  O          16.88875813696928     25.99180873744498      6.17188808750734
  Si         16.92273207654297     29.11245830135968      7.71891725760480
  Si         17.03722758137729     35.35095079916740      7.73085863654780
  Si         19.68584382687846     33.77097119244350      7.80402948685330
  Si         19.57661014162179     30.66765840291028      7.81910500434842
  O          15.52290190152004     29.86221227308090      8.06454616094840
  O          15.72021301082474     34.49467054655587      8.14056197552268
  O          18.35723563531159     34.58251004642472      8.32119578146821
  O          18.17984613766092     29.96228759245430      8.32390647876100
  O          16.87118073406857     27.58931628738963      8.31513397866157
  O          19.63278928471940     32.21981707597881      8.33845428777875
  O          17.11200075165697     28.95501682033848      6.09949191524360
  O          17.22665402044574     35.39655463464439      6.10368659273502
  O          19.66223180060440     33.71681414611876      6.16744063688505
  O          19.56797024505685     30.65724800768561      6.18024595467135
  Si         16.97314972350603     38.44311322215739      7.80245497520548
  O          15.63436095472729     39.21743099077220      8.33927491437059
  O          18.35031041551692     39.07196798357354      8.40413895944557
  O          16.93619448191776     36.87781806770540      8.30327329253249
  O          16.95865314994644     38.44085644952355      6.16391759931479
  O          20.78541001212766     29.77072236090287      8.43735536709927
  O          21.06313620010717     34.40949078454893      8.39472312053355
  H           4.07465742907459     24.98677204343270      8.03659115589228
  H           1.41040897194241     29.60201497251061      8.03674925784889
  H           1.41040881900766     35.00798499391039      8.03674925651748
  H           4.07465743558814     39.62322797374394      8.03659115963180
  H           8.94818084657132     22.17325471076014      8.03830169382722
  H           8.94818091156886     42.43674520624439      8.03830169622447
  H          14.27776171269311     22.17320372253402      8.03828217721248
  H          14.27776172246394     42.43679625381820      8.03828218489338
  H          18.96055658555452     24.87622776381010      8.03640578630313
  H          18.96055669896351     39.73377232942705      8.03640577136136
  H          21.62471722664648     29.49141993474289      8.03658341177110
  H          21.62471724132139     35.11858008289465      8.03658341073450
  H          13.23304012618359     34.19179947497945      5.90667936550692
  H          11.07552544702654     34.71451840325866      5.56767499351860
  H           8.93887704786274     32.87190216218117      5.62645746103075
  H           9.75957408478884     30.36002261243802      5.64056337397089
  H          12.29004509633458     29.88644528641460      5.67965301234727
  H          14.02833425368960     31.81607852957137      5.77851349095399
  H          13.52076626226762     39.71538484878545      5.80347687957757
  H          10.91219465508356     39.29454296561532      5.71519876297289
  H           8.34720961607770     40.33629773429115      5.50977447098547
  H           5.90540709646121     37.57201860536023      5.70425606055556
  H           5.19234727831551     34.98736555704765      5.69193239535078
  H           3.43772026590047     32.96840761525443      5.77946837918079
  H           4.12844309073399     30.23797780854007      5.76977068059076
  H           5.97720124636403     28.24318679065833      5.70995852062068
  H           6.81352814704693     25.65128071727672      5.73249272449237
  H           9.58692087643250     24.83817775197321      5.71790988050513
  H          12.28941726519139     25.50608103008936      5.65614113448412
  H          14.95810753658969     24.97509489596147      5.74390740076855
  H          17.02685539746158     26.85369470384213      5.75197656518687
  H          17.82263493628590     29.49277179075525      5.72166168859496
  H          19.57962114105703     31.53468092965822      5.77257966168303
  H          18.96357603340484     34.25229327829473      5.76243399279566
  H          17.10913900094750     36.26793402033894      5.70127174018619
  H          16.18627182622082     38.87293991558289      5.77235997823789
  P           6.44210911364408     31.69514359219657     12.16133146487042
  O           6.10773737855281     32.87846541691130     13.00149537782894
  O           6.06549401213576     30.31452498821688     12.57066726392358
  O           5.85086281489584     32.03128852824538     10.69080447510670
  O           8.04614647880152     31.64054137882243     11.90742551898106
  C           8.70395683633111     32.79309741128231     11.41379838603626
  C           9.64693370933970     33.39572046971550     12.43461054648535
  O          10.53699696222140     32.41243400391333     12.98702158351531
  C          10.54617990166935     34.42031436824934     11.77840236073042
  O          11.03128797872019     35.33183737700504     12.73707482879564
  C          11.69301422969983     33.54116537787031     11.26891764046941
  O          12.89472436379261     34.24415283299755     11.13821472729019
  C          11.78933923037135     32.47659786445656     12.36752113741432
  N          12.13630774865903     31.15055930682120     11.88907394445541
  C          11.27034059443525     30.16434155646138     11.49899736826976
  N          11.87081612269763     29.05402134070851     11.15824895555984
  C          13.20849835392059     29.32288132252241     11.32689196710890
  C          14.36895118219256     28.56563528686519     11.10549766717458
  N          14.33563827960352     27.30243586987311     10.65627980442464
  N          15.55462308677868     29.12903356743067     11.37917292013505
  C          15.58361762641506     30.38295673603098     11.83016316175898
  N          14.56619628447015     31.20379325360309     12.05556857717687
  C          13.39539488804618     30.62210204032901     11.78608690234072
  H           5.81157213711803     31.25577198033390     10.11800042225841
  H           9.25252597654788     32.49511055855945     10.51863269302452
  H           7.98724134466141     33.56500151143859     11.11784543403256
  H           9.08528013924817     33.81662977343299     13.27054749200860
  H          10.04614177886101     34.94030863800045     10.95395318551934
  H          11.91158343088286     35.59361666316453     12.43015571188177
  H          11.40899398502733     33.07081435612391     10.32365688791847
  H          13.00329315463637     34.47123021671111     10.19033283727318
  H          12.56844923932724     32.75930223675135     13.08235145665041
  H          10.20215748421817     30.32404195212809     11.50783758581557
  H          13.48114491835578     26.93619812781315     10.27226901681000
  H          15.19624533629420     26.88251609853068     10.34805533945208
  H          16.57357881162682     30.78365346854654     12.03204753775860
