162
1 Eopt=-407.0811036493 (Eh) Einter=15.819873 (kcal/mol)
Si 3.55619756323103963780 33.84476442121334827107 7.82276357761318408279
Si 3.55590021571598136063 30.76676464288571821726 7.82284079897651718483
O  2.14725491653310562867 34.47991502640837069293 8.40973852792102505305
O  2.14683493700542449290 30.13191591084193987626 8.40984764381888538765
O  3.71004511381172275009 32.30576445459119128145 8.41280327324772336794
O  3.55520841221880434802 33.84672284639601258505 6.16676352310802755596
O  3.55491063274755081380 30.76472336597771572997 6.16684084249477670880
Si 6.21945436181961142097 26.15150720681872442697 7.82297308210480490942
Si 8.88330592000535901320 24.61424962845338626494 7.82302826736371148542
O  4.81038912206752478085 25.51665837023805138983 8.40997994543699078918
O  7.47536352625558198071 25.24940041636919119128 8.41000351891631225953
O  9.03815422917379507339 23.07524948021131550036 8.41306749322769853450
O  6.21946467044595063811 26.14946602775760098325 6.16697313187370887988
O  8.88331682769084451934 24.61620855624127912620 6.16702822548646878431
Si 6.21975164967721738662 29.22950713174627779267 7.82289629687523646595
Si 6.22034608831662172435 35.38150697516567078083 7.82274214675785994899
Si 8.88419746636727047928 33.84424972063034431358 7.82279779454970203290
Si 8.88390006238560303586 30.76624971132127939200 7.82287495107368702207
O  4.81080926595523639122 29.86465800558978500590 8.40987141436167640052
O  4.81128092475527502359 34.74665785954127272817 8.40974902699917770121
O  7.47625509141408883806 34.47940028409871615622 8.40977289092294277850
O  7.47583500737529238478 30.13140044127310801514 8.40988179585287198847
O  6.37359925274058269906 27.69050700921717478309 8.41293572131228017952
O  9.03904507372163124046 32.30524945305430861708 8.41283743633867153733
O  6.21976243120263916353 29.23146574696141186678 6.16689624686946835652
O  6.22035653195159188300 35.37946533641872548515 6.16674219939019785386
O  8.88420832265726190258 33.84620806139351856245 6.16679781058514997483
O  8.88391051320003022340 30.76420830085433166801 6.16687499303125363781
Si 6.22064343097991034881 38.45950676442060967020 7.82266469101484318571
Si 8.88479195783394182229 39.99624949686398878157 7.82264304955448253054
O  4.81170078787863797487 39.09465713678407894349 8.40963963307916451129
O  7.47672682278586719917 39.36140026350414444778 8.40965003242462216804
O  6.37449095968243728549 36.92050681341582674122 8.41270448545011362285
O  9.03993734299872109261 41.53524934083764463821 8.41260523460330134071
O  6.22065423063105082946 38.46146494106271518376 6.16666464794373858638
O  8.88480247302993753067 39.99420773047992128113 6.16664310189649178540
Si 11.54845427111420974597 26.15099232686298336148 7.82300714557525456172
Si 14.21330584710611688593 24.61373497073233451715 7.82306254413059676267
O  10.13938923514454870656 25.51614301283283836597 8.41001392999658392569
O  12.80436339572373505291 25.24888564285087966255 8.41003767210436059543
O  14.36715410326993591639 23.07473485854067973833 8.41310182045422472186
O  11.54846467997557368790 26.14895111086641321663 6.16700719684940601439
O  14.21231681109878763891 24.61569388559940563255 6.16706248840735860028
Si 11.54875151604893801505 29.22899226512695491920 7.82293042075225031340
Al 11.54934562180856438829 35.38099178736129601930 7.82277638032419186942
Si 14.21419697285922900676 33.84373455032705635404 7.82283203173843677547
Si 14.21389973919719196260 30.76573485969890953129 7.82290909000133360962
O  10.13980914075603756430 29.86414304397520780299 8.40990555026507990988
O  10.14028088591347476211 34.74614306064761137804 8.40978321199426126498
O  12.80525537557308446424 34.47888608627321360700 8.40980699876682535887
O  12.80483482811597717443 30.13088563226144600549 8.40991591698178098113
O  11.70259911439421252055 27.68999213138380000032 8.41296980797526572360
O  14.36804498031014354353 32.30473471601538193454 8.41287138672083933955
O  11.54876229879786819765 29.23095091524631783386 6.16693037070385230436
O  11.54935628418929560723 35.37895059875534542471 6.16677636733310929884
O  14.21320804938559589914 33.84569336993580179751 6.16683181561234405876
O  14.21291024661396207307 30.76369352244657306983 6.16690907210678762596
Si 11.54964334178703744271 38.45899212033650371723 7.82269887260104468396
Si 14.21479182709425614917 39.99573457661179531897 7.82267713251578289402
O  10.14070098920269380471 39.09414297031808160909 8.40967387679639344356
O  12.80572673433473873672 39.36088552584432420645 8.40968416004341889902
O  11.70349090551004955785 36.91999212699509769209 8.41273862746992051598
O  14.36893717937706504983 41.53473451411915107201 8.41263927792481247536
O  11.54965411013297682530 38.46095035005958351348 6.16669881783315343426
O  14.21380227345191116228 39.99369288922190435187 6.16667717640471657603
Si 16.87745391076029832789 26.15047761206794518785 7.82304130670393949032
O  15.46838899908905418101 25.51562837288492957555 8.41004824142861195924
O  18.13336275348894943704 25.24837058588044413909 8.41007176984543924902
O  16.87746415408102151900 26.14843622908742304389 6.16704135705381695232
Si 16.87775123646373032216 29.22847752674726962141 7.82296442378105272297
Si 16.87834567493104387381 35.38047745291719792249 7.82281018918844583965
Si 19.54219697953389811573 33.84322009946178866358 7.82286558094615891434
Si 19.54189956900242464144 30.76522001305401232685 7.82294275929530602554
O  15.46880891395571389069 29.86362830194747886026 8.40993960208856350391
O  15.46928064432007765561 34.74562825324455417331 8.40981725417914383058
O  18.13425470500457237222 34.47837081476627218990 8.40984082975816704675
O  18.13383458359028566065 30.13037082884458683907 8.40994985043308673767
O  17.03159883964763210429 27.68947742858349414519 8.41300386956340418010
O  19.69704456829624916736 32.30421987496436031506 8.41290517079479727158
O  16.87776192783684336973 29.23043613008605845494 6.16696437400926544825
O  16.87835593526737909542 35.37843578175015579745 6.16681025556940465293
O  19.54220750756961066941 33.84517861439596941864 6.16686553336533727077
O  19.54190971074754656911 30.76317845196833289378 6.16694281314478942591
Si 16.87864312752716244859 38.45847737741419791746 7.82273276542534556910
O  15.46970084786536148158 39.09362819470008787448 8.40970792312734793938
O  18.13472631242558819054 39.36037116564237692273 8.40971797474464288769
O  17.03249065856112665074 36.91947735641021210995 8.41277248803784871711
O  16.87865370804762221724 38.46043573955574146339 6.16673271719251925305
O  20.79780833933948258618 29.86311288035371447336 8.40997325089211855698
O  20.79828007484947249850 34.74511392570741463715 8.40985083206875216888
H  4.07465742952310527869 24.98677204197305457001 8.03659115497206499867
H  1.41040896904404533529 29.60201496982126556645 8.03674925624883051967
H  1.41040901697660459035 35.00798498812174130990 8.03674926525807009625
H  4.07465743658510692882 39.62322797131161422612 8.03659115915558430743
H  8.94818084656972700941 22.17325470693279498846 8.03830168930441146813
H  8.94818087936753769895 42.43674530212375373139 8.03830168075429440933
H  14.27776169762998570434 22.17320385309334085377 8.03828218838171082439
H  14.27776172980917479549 42.43679616162312839833 8.03828219219341555402
H  18.96055659970157591943 24.87622775811975728288 8.03640577840324610293
H  18.96055653283776365470 39.73377222819118514963 8.03640577848236326020
H  21.62471723015958247061 29.49141993126645999723 8.03658340870472365225
H  21.62471723319172056677 35.11858007525103175794 8.03658341035940892993
H  13.39922794514172821323 34.28531244844629810586 5.85463177301472725844
H  10.85603170489699031975 34.89218231806314207688 5.71721596566615541946
H  8.79316676532764418539 32.97374190713811969999 5.76219940436941691075
H  9.66357961513761765104 30.35160701118724091430 5.76895568189155927286
H  12.30629749906254488678 29.68608881888947337302 5.77123880456279092499
H  14.17430144484317189324 31.65300279199065514035 5.78286317009084260832
H  13.45700859285383721442 39.52750482802692033601 5.78093078876110944009
H  10.82185198362324740629 38.95872177272508452006 5.76976940829156781376
H  8.14980839602577233904 39.50861002853247327948 5.76627385368954570311
H  6.23194667493782006318 37.58116492168394273676 5.76471310357687194426
H  5.44704955621472208804 34.95093754058317614408 5.77257540880165542774
H  3.60664936226667354191 32.96826993056200194587 5.76388710727962738645
H  4.32819223183254209175 30.34484056096880522091 5.76402041663137421068
H  6.20754699131778764354 28.34935900059774382953 5.76818373916464377515
H  7.00943285736992738322 25.75772182416884348299 5.76748914515735755515
H  9.64047060888404594436 25.06526887692148974907 5.76511829185679669507
H  12.31477063375807645684 25.70825778371157355195 5.77188275797756134011
H  14.95393929814011002577 25.09100721815357104560 5.76597661928061544501
H  16.85170393385222809002 27.02666099241082520166 5.76146800075110565587
H  17.64768340297927906590 29.66420704408709241306 5.77142433816861633034
H  19.48180900484419453278 31.64168672022802653032 5.76490010357471582836
H  18.77140968722721936501 34.27358367842438013895 5.76790924659815829045
H  16.89481965227970050591 36.26079389752277393200 5.76914703450697796683
H  16.09152697015830568716 38.86028470129276257694 5.76951241492647692866
P  5.57289893026570037904 30.75345253010193502519 12.67879510447124147277
O  5.43894538141892081029 31.95023763348349632452 13.54534832372085162433
O  5.22525899021777373576 29.38556459832942380217 13.14470961591054631867
O  4.75531226408688745266 31.06578870191047414551 11.26957363140099666055
O  7.13463127006312802791 30.66361593870178481325 12.06007000021290309633
C  7.57716102567098204190 31.83647874672510980076 11.46169949866832737939
C  8.37118163661834557843 32.74596572714664688419 12.41179314227601793164
O  9.47982329532687550966 32.09637753487817946052 13.04619208262424656652
C  8.99035491700585431829 33.90767939463147939705 11.63020018101379449149
O  9.19772489660418912649 35.04215321879073030686 12.43301934797013430511
C  10.36417213213393395677 33.32325420145391348115 11.20290204064935402073
O  11.34812994326597745953 34.31924173686233103808 11.15416378337408964683
C  10.65977319319974370160 32.31559586418645579897 12.34099019645856110117
N  11.20687511026790161850 31.06202796179577774183 11.86245183780335921142
C  10.53373293020168688372 29.92926387586785352823 11.49664483824140148727
N  11.31074288214745848791 28.94519657050566863177 11.15149880250562652861
C  12.58469503493495977864 29.43439631622666396993 11.28007352620439895929
C  13.86090134410296847989 28.90868673145352474307 11.03991761371257140922
N  14.05814691556491169422 27.63793608567894466432 10.58337481943547331298
N  14.92607553244051921126 29.65416938359699372540 11.33788451894326243519
C  14.73368257884040843919 30.88267705379909955354 11.80021980095290246027
N  13.59958214211433258356 31.50993254161730305896 12.02823754844377468487
C  12.53077941710534659592 30.76495987950320909476 11.74265451905806756372
H  4.85596984648532803419 30.28519007801175888517 10.73198821069212982593
H  8.19862482495697797447 31.56264169317015344518 10.59996063409878885864
H  6.72241548694963420019 32.42160525151568606361 11.10312178124283910563
H  7.70803636549061543803 33.06172847804266012872 13.22058903318519185177
H  8.38662357183881113087 34.17375882539036524577 10.75536007357603196510
H  10.08164934011534974445 35.36436010524136008826 12.17703578465055080926
H  10.27454181127220245173 32.79107625708970630285 10.25627835245458641111
H  11.45012253629152176870 34.62941779313913315264 10.24023982265328314156
H  11.42727812403593290469 32.74132059004956118997 13.00705557172920734388
H  9.46427952233728575493 29.86439831581619941403 11.54744178016723665792
H  13.25794500071203607661 27.23897422579791083308 10.11767581496777701489
H  14.95729642886836074922 27.47269011658977788670 10.15903876238802538978
H  15.63475246574357058194 31.43853346655155434064 12.02544212181126326300
