35
Coordinates from ORCA-job cmp_prot_geom E -1458.086752365256
  P           1.33764779771432     -1.74290680951711      0.82281583575931
  O           0.37983487371428      1.43690227113429     -1.51110221071603
  O           0.63054705322076      4.06206895884436     -0.38811398525955
  O          -1.53199092410015      3.13710712165550      0.88144280907267
  O           1.78814278615967     -0.61600492300194     -0.28206180593647
  O          -2.93929373237128      0.70660615592382      0.83577865293978
  O           1.26058524253783     -3.04952941706448      0.10686839140693
  O           0.15718751193313     -1.20525732110627      1.55587296795947
  O           2.58786479709320     -1.75293051076609      1.84115555585582
  N          -1.42105483691732      0.17401539676823     -0.78906171998992
  N          -2.45731743115001     -1.47600081761562      0.47509326550979
  N          -1.47133929478165     -3.59622692682620      0.51801134393831
  C           0.76769752717067      2.84076389079701      0.28347484224753
  C          -0.59221586696532      2.17838722293655      0.50215215621973
  C           1.43184694702472      1.81806639935467     -0.61598390497188
  C          -0.84993544155328      1.54779820545108     -0.88179720152400
  C           2.01707186008879      0.67372798329738      0.24259056742522
  C          -0.88177218510666     -0.79818712977082     -1.56210082462503
  C          -2.31684437766265     -0.11974915737253      0.20581271896347
  C          -1.03761922370449     -2.10830416381472     -1.28556088704095
  C          -1.66185135506216     -2.42139464662858     -0.06539901753060
  H           1.30525687674781      2.96142791145971      1.23239520082000
  H          -0.49207545349135      1.38190846587425      1.24733644918056
  H           2.19598754354140      2.26900515961215     -1.24805222654788
  H          -1.52780832372690      2.16576275153789     -1.47676747544465
  H           1.59710323958273      0.73354452158059      1.25097490535479
  H           3.09518819665439      0.84336113849820      0.33145767280450
  H          -0.14857531173203      4.49597637453457     -0.02036107158606
  H          -2.34937646037676      2.65598566960066      1.06436693244656
  H          -0.24021238493605     -0.45083490636948     -2.35650268139825
  H          -0.49181578592807     -2.86105749767736     -1.82827465701460
  H          -0.51283081537762     -3.92121298921910      0.32775976685076
  H          -1.72829296196393     -3.66946026934991      1.49066541707061
  H           3.24019513763804     -2.39007174155875      1.53497757861664
  H          -2.87923522391405     -1.63816637120197      1.37864663914343
