163
Coordinates from ORCA-job /data/Seafile/amp/al_surf/protonated_al_surf/frames/frame14/amp_al_frame14 E -13418.101841377447
  Si          3.45328228849182     33.84390997645982      7.82452607647894
  Si          3.47451848896157     30.74332949921525      7.81566003152031
  O           2.20302046286751     34.65861130625603      8.47257905976488
  O           2.21637882469008     29.93743918704176      8.46402795265353
  O           3.46406761253056     32.29281654922221      8.34825410454456
  O           3.43857253535899     33.85484994030339      6.18575092061841
  O           3.42507664394862     30.81786272140715      6.18122198389141
  Si          6.14934235698439     26.09121530970663      7.77493027677805
  Si          8.85561355843990     24.53872927088422      7.75479308416405
  O           4.87330735949227     25.34645709930523      8.45571530501961
  O           7.52190433546715     25.34182059901859      8.25304210587661
  O           8.79794082708662     23.04821685084613      8.44344918103794
  O           6.06965840534518     26.12923122155828      6.13994700330942
  O           8.83019943230332     24.44982963665828      6.12739466292441
  Si          6.12239434315053     29.17327207572781      7.66711326693570
  Si          6.10402160044312     35.40102545935132      7.67874350268477
  Si          8.86400705050687     33.84295978501150      7.64133407362201
  Si          8.85391272136554     30.75368360048157      7.56025051107236
  O           4.86862666630219     30.01731586287037      8.28999701119955
  O           4.82286114072893     34.60394891550313      8.30883672588095
  O           7.46305866266156     34.59839101170959      8.05328744943733
  O           7.51115043769683     29.95056057862793      8.01488424456144
  O           6.17817639479380     27.65666736476598      8.26949244344600
  O           8.77296084716837     32.27007759650873      8.14610596488968
  O           5.87276283285432     29.10967829197716      6.05146994101700
  O           5.90669350708018     35.52402154714938      6.05536872209386
  O           9.00492436413828     33.81893500038942      6.00503439330377
  O           8.94136484004976     30.86046349915479      5.92875531478382
  Si          6.13305853628928     38.49180303655756      7.69604546687338
  Si          8.86452107520185     40.10423288476564      7.70668212191223
  O           4.93406003966206     39.34764573607655      8.40520394587213
  O           7.54898261131087     39.21397315286406      8.09465780496806
  O           6.18423764188894     36.93696576551910      8.24111674326710
  O           8.60612910558460     41.58277546393234      8.34962560976088
  O           5.95139447986521     38.46310133352647      6.07582996476297
  O           9.10882117389380     40.13740986212050      6.08630752452753
  Si         11.52754212113202     26.06778204127982      7.63089588262226
  Si         14.20557213494223     24.52570711334216      7.76129417562808
  O          10.18551417838692     25.36066466711990      8.24475480640345
  O          12.88921728767019     25.39265359969995      8.21393434862956
  O          14.01298388426044     23.03849161881262      8.39189896088992
  O          11.45577254558213     25.82062014653836      6.01146458790399
  O          14.25294483282515     24.49523874833350      6.12518885747442
  Si         11.53540373543372     29.23735169698325      7.53302507016776
  Al         11.60968818784842     35.38676447877735      7.79053073996387
  Si         14.25692803836908     33.79946191184916      7.81681113418773
  Si         14.21636875046806     30.75018690934199      7.66366596228881
  O          10.18082130628598     29.95932544328159      8.10299109031108
  O          10.10222410408553     34.61080619935741      8.30435465693333
  O          13.04506528325310     34.60552551168743      8.49051588638651
  O          12.88163980879409     29.92571827705444      8.14850528446429
  O          11.48888263143848     27.66597639193445      7.94832280038477
  O          14.32641941795617     32.22807460745238      8.33982546790544
  O          11.52997897383760     29.42158422474818      5.90790846242640
  O          11.79757690873502     35.10601562627183      6.05262749287289
  O          14.05389179246569     33.72085875440536      6.18680997030405
  O          14.09224851429409     30.91641577462886      6.03966612049225
  Si         11.60214822634620     38.64195860442040      7.75721378431775
  Si         14.33211257697735     40.08100942522110      7.82836311664908
  O          10.23431729978051     39.41241868735123      8.27137947818493
  O          12.93968786212235     39.40484153551145      8.36115027019390
  O          11.59809067581144     37.10335864863131      8.17681697954379
  O          14.55123843241123     41.58611272663151      8.41804974836880
  O          11.70457332190990     38.85863473141905      6.12360526603335
  O          14.34169803413894     40.03519111099592      6.18979659438086
  Si         16.91050266088645     26.03580554070319      7.81289083307043
  O          15.55289862698953     25.27076581100669      8.31859278189149
  O          18.19101580540392     25.27753816687708      8.47211956395123
  O          16.90144663145901     25.99052617038150      6.17656550239634
  Si         16.92259695580640     29.11800109540809      7.70136131149071
  Si         17.02211114495949     35.34537621491563      7.74056644420194
  Si         19.68064067358039     33.77846056590818      7.80284240364140
  Si         19.58163777908935     30.67336124842592      7.80521430561922
  O          15.52316542256081     29.86447981407956      8.06776372531659
  O          15.70949938051812     34.48986362518817      8.16256269092166
  O          18.34857802029955     34.58121311752650      8.32450423665241
  O          18.18133735495919     29.96885758680922      8.30002744281238
  O          16.87191139586300     27.60104193430666      8.30754269442405
  O          19.63229360628003     32.22413484878074      8.32809889120877
  O          17.09735871629695     28.96236467295570      6.08106069642588
  O          17.20381215646961     35.38803499415535      6.11154791656891
  O          19.65969098282928     33.73606348853359      6.16598596045887
  O          19.58551095599244     30.66377441528042      6.16690726864000
  Si         16.96945262620997     38.44146785122885      7.80607035641874
  O          15.63288000498885     39.21845154051729      8.34548535554706
  O          18.34838916741222     39.07247183862746      8.40328547910941
  O          16.93012397944147     36.87628175764328      8.30746390567420
  O          16.95054098061518     38.43685688409329      6.16752209694615
  O          20.78613772552689     29.77770324218705      8.43367995724645
  O          21.05425069216689     34.41925641555999      8.39960262111314
  H           4.07465738741863     24.98677203340024      8.03659115412210
  H           1.41040894774256     29.60201497568464      8.03674925287756
  H           1.41040910462650     35.00798492607577      8.03674926870264
  H           4.07465742989708     39.62322798126586      8.03659115690946
  H           8.94818085670767     22.17325471835423      8.03830169414011
  H           8.94818087803248     42.43674530021612      8.03830168248782
  H          14.27776170027507     22.17320385000978      8.03828218713970
  H          14.27776173060467     42.43679621250921      8.03828218846172
  H          18.96055658105936     24.87622777688407      8.03640578069900
  H          18.96055652589840     39.73377221502393      8.03640577825659
  H          21.62471720994042     29.49141993353294      8.03658340747419
  H          21.62471723958783     35.11858007715684      8.03658341069571
  H          13.20919038292433     34.19353150323338      5.94237615505686
  H          11.02051836140339     34.70617205919609      5.64727744022425
  H           8.95725353472179     32.93185741414222      5.62066831766855
  H           9.71493916160454     30.42389277563972      5.54150467483636
  H          12.30640423176745     29.89203484430559      5.56589363530178
  H          14.06543884278559     31.85772575829614      5.77774871364520
  H          13.50981892930990     39.69559668889662      5.81925574835562
  H          10.91745219989991     39.26532789790765      5.73292779325269
  H           8.38156028442633     40.38974180909076      5.51062833222838
  H           5.89995344933371     37.56956048809992      5.70518803664869
  H           5.18795189747307     34.98323366617872      5.69704695850299
  H           3.41570045210315     32.97686323826775      5.77925825193441
  H           4.07531764089166     30.25809406322506      5.73310311078918
  H           5.97183897885111     28.22972518859403      5.66113055719909
  H           6.73451755131714     25.61424368396233      5.66740831958474
  H           9.62701036643131     24.79404716210086      5.69734794229898
  H          12.26450071095794     25.47570978508715      5.61085649130057
  H          15.01063863060691     24.95468961655623      5.73690688571127
  H          17.04054312965080     26.84913100387367      5.75100445371809
  H          17.80554165987327     29.49789583071163      5.69640059621735
  H          19.59457423198293     31.54140950189526      5.75983318805461
  H          18.95228742424981     34.26319498677820      5.76536394250779
  H          17.09050430011614     36.26014252159678      5.70984819005220
  H          16.17828011282660     38.87037083273059      5.77745910619345
  P          10.77311677709505     22.49034989206442     11.50249469125868
  O          10.84371401171367     22.09375934638817     12.93665485796499
  O          11.27799388199944     21.59452452433311     10.42385969805668
  O           9.23688623417697     22.89128648482472     11.20845975561265
  O          11.56716977763402     23.89640374352859     11.29467739679805
  C          11.47481693083384     24.89257608446421     12.29535088373369
  C          12.41239708342072     26.01992021621790     11.97598971651818
  O          11.87830687319977     26.85039039613956     10.93850774962234
  C          12.64534865953310     26.97853665663940     13.14136603836423
  O          13.54459756929029     26.51715489050131     14.10422763718945
  C          13.11020446775424     28.23358568435702     12.40782229154872
  O          14.47334530771939     28.04712263836718     12.11212304238087
  C          12.26560897084451     28.17788134109379     11.13115688776276
  N          11.06184002366813     29.00581771619967     11.22895087828348
  C           9.76851908416455     28.59900474180424     11.41971305901299
  N           8.91581892019171     29.59166851715653     11.45846568374054
  C           9.68826264159869     30.70551410779526     11.27730016164308
  C           9.35483134658018     32.06476949912093     11.18486625209352
  N           8.14590467222665     32.56184875399830     11.32825843899951
  N          10.41644218487258     32.86990791152089     10.92055090750634
  C          11.69561677437044     32.43003295551136     10.79136853220589
  N          12.05899167345201     31.19199449598107     10.90857205038701
  C          11.02679166013837     30.36108142238576     11.12957975963663
  H           9.06872128687272     22.92327569420202     10.24724101266116
  H          10.45068648639037     25.27751612952069     12.37069114798948
  H          11.75929729075797     24.47324253535777     13.26570938465402
  H          13.37440734681775     25.60668726584856     11.64811469512446
  H          11.69377714905496     27.18007033688135     13.64199015771187
  H          14.43087309133416     26.64010477005533     13.73754270104299
  H          12.94109463916214     29.15311157824480     12.97137847433380
  H          14.86713044233645     28.89508412975772     11.88328772419581
  H          12.83908167622181     28.54900855967886     10.27902247640438
  H           9.52074174275548     27.55321988399320     11.51306834019359
  H           7.36992004717050     31.93858484051739     11.48286204123527
  H           7.95487867172515     33.54680096499216     11.23295714671509
  H          12.41976028305826     33.20214954749130     10.56110678543831
  H          10.25419787882515     33.85672915764796     10.74916818358963
