126
Coordinates from ORCA-job flower_ring_geom E -11934.541588775595
  Si          3.65239391715132     33.87537390189074      8.30765588017786
  Si          3.78692521607402     30.86628400466770      8.36123416803202
  O           2.32746775536912     34.50576782042633      8.99465510802782
  O           2.59828335539180     30.13422756566586      9.18420436717618
  O           3.80854310618352     32.38537770303404      8.92432597645247
  O           3.58233786614084     33.80142980337933      6.67173046239015
  O           3.50605918481543     30.91616659851985      6.74808256130991
  Si          6.21761723294302     26.31310770806148      7.38553386316138
  Si          8.93764920949084     24.98488469542333      7.32247077866912
  O           4.81760215386832     25.57348042581816      7.72567862713673
  O           7.48686259516965     25.43317314162184      7.88827224355704
  O           9.24082725647739     23.43019305487546      7.67146918729445
  O           6.37940557079417     26.64880220749691      5.79106978807105
  O           8.89693205075655     25.31389849799435      5.71867978688529
  Si          6.28095210644767     29.27388381675529      7.78635532243648
  Si          6.25733957456125     35.28025011836564      7.85248382719854
  Si          8.85202178452112     33.60926199295893      7.70948456757611
  Si          9.06572175333633     30.61475571434156      7.69262076995408
  O           5.22718929369156     30.16161232240086      8.63326254021414
  O           4.94588005112510     34.79182722131608      8.66981358516259
  O           7.46327953928438     34.26383431101010      8.19300207081678
  O           7.77194546559716     29.77228213360734      8.14745764842664
  O           6.15458749053182     27.71485315392986      8.20377189879263
  O           8.94095127214998     32.10936613471057      8.31076987906199
  O           5.91737662693838     29.48637390684803      6.20691891880233
  O           5.94480555467192     35.35993070768643      6.25228954307420
  O           8.97809709253955     33.58574083074360      6.08016865383624
  O           9.15855118843504     30.74217238735111      6.06564479318847
  Si          6.45912089870087     38.24604755102038      7.70387643589943
  Si          8.96293512880753     39.93665273076633      7.56819277214771
  O           5.01237009674509     38.73262582735655      8.25125582350603
  O           7.62801533616675     39.25530545128591      8.19638854723204
  O           6.69116453319422     36.76592781924233      8.33123619467130
  O           9.04465288331459     41.51316059585551      7.92997762424193
  O           6.57732429764736     38.20048847470085      6.07016518017782
  O           9.01271716886081     39.65329197948214      5.95620281426983
  Si         11.62242434208163     26.22861449526287      7.63811766591702
  Si         14.14182063134399     24.67226505286325      8.06386538080087
  O          10.10746317695895     25.83792676765940      8.05791321308349
  O          12.67969395836904     25.28552815705862      8.42507895638576
  O          14.25956793438149     23.16226731834815      8.63971034750236
  O          11.74558986442123     26.01937430362397      6.02488761082772
  O          14.29830069430958     24.77781262692794      6.43606500802467
  Si         11.76705181259966     29.30781677919531      7.67060963682173
  Si         11.33209920629366     35.30068568572673      7.66476267316026
  Si         14.02845287949456     33.98146725676188      7.67305424498224
  Si         14.25465688051313     30.98844174231542      7.71721302985324
  O          10.38153338632004     29.88323895065697      8.28587765560905
  O          10.06550466186695     34.51342957927976      8.29279572175311
  O          12.71127744510933     34.70389012185664      8.27410334237523
  O          13.02613661283809     30.10498496932615      8.30149733145563
  O          11.89584984679808     27.75686294647139      8.08295674408638
  O          14.17981034095294     32.49502342472844      8.30418158559792
  O          11.70916726297218     29.50371493721734      6.04894844789671
  O          11.38036124177754     35.11926514144172      6.04131286842857
  O          13.91673344728694     33.83197566383743      6.04901296212070
  O          14.14251356477403     31.00003979086574      6.08700304736780
  Si         11.51379268561742     38.38518509635488      7.69101103261859
  Si         14.18903187671944     39.73996576314502      7.96211336696652
  O          10.28916876138389     39.28823178046267      8.24489658750478
  O          12.90035230489313     38.84262170063730      8.38736409485102
  O          11.22274541536804     36.84949496347539      8.08958513929320
  O          14.15500695565868     41.19836454406660      8.66957097594421
  O          11.70131070295448     38.58626292257319      6.08015774537764
  O          14.27689529564314     39.81687748937591      6.32811138302603
  Si         16.65486392429555     26.30718692788517      8.33355885659562
  O          15.31621393313109     25.51877507140049      8.79273072916378
  O          17.85320837158764     25.62733959180568      9.18724611774318
  O          16.83209171952576     26.11570564318132      6.71590386120396
  Si         16.82848057472301     29.28428567688991      7.91142536778635
  Si         16.79679187637665     35.35474749305467      7.70965825386845
  Si         19.28297224931028     33.70886137690249      7.75723805725483
  Si         19.46477569937120     30.69118949459005      7.81002494996101
  O          15.63213066573024     30.32190693560339      8.21652048452881
  O          15.31690288214060     34.84509574745291      8.10228988586071
  O          17.87251788855557     34.29999911139131      8.30363899763828
  O          18.20396918008165     29.91946600896088      8.48232004681310
  O          16.50566362095889     27.89187128766070      8.66951860385511
  O          19.53644641290695     32.22192548649463      8.35142731681529
  O          16.96409952787424     28.93999795039467      6.31925098760763
  O          17.03043509352880     35.41564862741429      6.09490503697937
  O          19.23599065297362     33.53346418809714      6.12843935425751
  O          19.26173864105549     30.69719376997845      6.18521524526081
  Si         16.85452007180589     38.34384831756805      7.85018647305754
  O          15.54709363645149     39.04364535434610      8.50316501945988
  O          18.12245109554803     39.22818690243098      8.33580184674672
  O          17.01738508430441     36.81426992123966      8.37842819252741
  O          16.69336780305632     38.25730173464935      6.22192539871367
  O          20.76358502925844     29.84282753230645      8.27536572571497
  O          20.42266087207279     34.73667216684777      8.28025282359481
  H           4.67244743575124     24.69574473329876      7.36070104877166
  H           2.44312325657527     29.19983650193670      9.01833922155540
  H           2.15681245112036     35.44402944184893      8.87203633199767
  H           4.70668833032562     39.61202095293505      8.01104636415712
  H           8.64266822867486     22.76322426344840      7.32163079943161
  H           8.33453569995531     42.08321616359013      7.62114526751146
  H          13.57464493046500     22.53269435079763      8.39653588116178
  H          13.38462028482980     41.75373731820893      8.51714288185112
  H          18.73728313895512     25.99409768514924      9.09364901672253
  H          19.00420377409421     38.87931005354738      8.17590637176481
  H          21.63036568877743     30.17361895417547      8.02228639962849
  H          21.34133986272268     34.54068600848478      8.07467323318680
  H          13.11616192755097     34.22948118066348      5.66771449660964
  H          10.61858146887334     34.64300824697607      5.67148332256233
  H           9.01992282179689     32.69292104870702      5.69894985299351
  H           9.96609766437614     30.35812160579249      5.68454657937666
  H          12.47959921348371     29.96058909985960      5.67349643213160
  H          14.08177505949113     31.89055889662460      5.70219082651155
  H          13.48381191971830     39.49886728451104      5.86820648143372
  H          10.89980017069597     38.86656976670084      5.61212783519670
  H           8.26753339890834     39.12485735948456      5.62541063054551
  H           6.28842781730720     37.36913311197316      5.66681677241744
  H           5.17939190847387     34.83236129238789      5.97380890128138
  H           3.44817117347140     32.90841214315031      6.31703222734177
  H           4.17739063878077     30.46378439897448      6.21202925913443
  H           6.06931812950616     28.70905981793491      5.64812593737567
  H           7.20955403456275     26.33089696414928      5.40070902141132
  H           9.75889460676709     25.46013355625308      5.30562801316236
  H          12.60053250898032     25.66266440960324      5.73766300418977
  H          15.15089528010413     25.13618878775364      6.14203634193918
  H          16.94549155560510     26.94633333138049      6.22615991258052
  H          17.62812436091034     29.46702414711146      5.84854787054284
  H          19.18781162286293     31.58720342698011      5.80223100699031
  H          18.64830090901106     34.15394946407013      5.67251364893714
  H          16.88892479495000     36.29362077525646      5.70762724812507
  H          15.95613111636583     38.77731774021593      5.86466415763822
