163
3 Eopt=-23.7273773533 (Eh) Einter=-32.406886 (kcal/mol)
Si 3.55619755807779380774 33.84476441994177520201 7.82276357975573244374
Si 3.55590021701470426763 30.76676464332235383381 7.82284079797028741865
O  2.14725499618913850952 34.47991502055587886844 8.40973852943757371747
O  2.14683493721135754129 30.13191591090773258088 8.40984764386005956283
O  3.71004511086413391041 32.30576445361504056564 8.41280327275681649724
O  3.55520841119242092532 33.84672284757309057568 6.16676352323737919647
O  3.55491063261168349641 30.76472336593095135981 6.16684084273162191892
Si 6.21945436095362857998 26.15150720563095276816 7.82297308149740366900
Si 8.88330595148729784682 24.61424971208887768626 7.82302827316002513669
O  4.81038912344996383297 25.51665837114789781026 8.40997994578457586101
O  7.47536352324676389713 25.24940040865984869356 8.41000351751636010533
O  9.03815422663729073349 23.07524947345840615753 8.41306749394759378902
O  6.21946467144510783953 26.14946602970319489145 6.16697313191418672318
O  8.88331682484514928433 24.61620855222844284071 6.16702822371062087115
Si 6.21975165485428771461 29.22950712301984665942 7.82289630396519264366
Si 6.22034605385171257552 35.38150691853760321237 7.82274214025699787811
Si 8.88419743343939849467 33.84424956176490439930 7.82279782163261128147
Si 8.88390003611390355331 30.76624961197648744360 7.82287495772029917163
O  4.81080926510404083274 29.86465800378079293864 8.40987141605155130719
O  4.81128092716448119148 34.74665786019649971195 8.40974902172104954445
O  7.47625512960889437863 34.47940039018510560709 8.40977289573711317416
O  7.47583500546148194132 30.13140047310817948301 8.40988177367102274218
O  6.37359925361719081849 27.69050700998106506745 8.41293571879081625298
O  9.03904508442556675618 32.30524950036720355229 8.41283745079704559089
O  6.21976243243051563070 29.23146574729290847472 6.16689624713747441831
O  6.22035654182984121263 35.37946534505504558865 6.16674219947585200430
O  8.88420832159017415108 33.84620808981329531662 6.16679780513063491298
O  8.88391051152461841411 30.76420830455956689775 6.16687498246327514551
Si 6.22064343196366209554 38.45950678143677947673 7.82266470214226217195
Si 8.88479202601824091801 39.99624969845336153185 7.82264316671256043634
O  4.81170078312665161491 39.09465713318990509606 8.40963962562351241559
O  7.47672683436788521050 39.36140022628873680333 8.40965005128461484674
O  6.37449095578848456967 36.92050681736679251799 8.41270449155926236529
O  9.03993735569400769236 41.53524932359250954050 8.41260517269561880482
O  6.22065423087632396459 38.46146494224655754124 6.16666464278510950692
O  8.88480247890881003059 39.99420770181534123822 6.16664308476608535869
Si 11.54845427050641148981 26.15099232888777081030 7.82300714545605480055
Si 14.21330584683499864695 24.61373496966288598742 7.82306254403071310577
O  10.13938923388218427135 25.51614300788847344847 8.41001392929670288368
O  12.80436339891268815450 25.24888564802546397914 8.41003767286093051325
O  14.36715410295957084941 23.07473485791754086449 8.41310182019670627085
O  11.54846468160232042521 26.14895111255030712982 6.16700719706605848813
O  14.21231681098611865366 24.61569388582117667852 6.16706248827833913850
Si 11.54875152974175556153 29.22899224899908787734 7.82293040400739947415
Al 11.54934563566109240185 35.38099237716281919575 7.82277654442087211351
Si 14.21419735550440677230 33.84373479861123712453 7.82283194352479416267
Si 14.21389987613602734484 30.76573481610089544347 7.82290905878892850467
O  10.13980916324814351981 29.86414315632376315079 8.40990558479713712359
O  10.14028090764086442732 34.74614302411621480360 8.40978327928413271763
O  12.80525491262614323773 34.47888540407931401433 8.40980690158486510200
O  12.80483479136262303655 30.13088562213867760420 8.40991593269119164233
O  11.70259910455016161279 27.68999211191193410286 8.41296980419979156807
O  14.36804484833156969614 32.30473478366308626164 8.41287149725326521832
O  11.54876230085980459705 29.23095090390229700006 6.16693036967528307457
O  11.54935630511578992241 35.37895056065979559889 6.16677635318434447242
O  14.21320799640956167309 33.84569330033687606374 6.16683183907555232395
O  14.21291019533026123156 30.76369352795228095943 6.16690907315765635133
Si 11.54964367897218835424 38.45899243416341306556 7.82269913254339055442
Si 14.21479180093056093881 39.99573459263451269408 7.82267704260688656603
O  10.14070072990408633018 39.09414261697148162966 8.40967371985557754499
O  12.80572661217706276204 39.36088558954102012422 8.40968416373801375130
O  11.70349097496081824943 36.91999189990996654842 8.41273837973339766449
O  14.36893718568852307271 41.53473449161932506968 8.41263930353048650090
O  11.54965403578296267995 38.46095025940652334384 6.16669877309711900182
O  14.21380229833566133379 39.99369288635622154970 6.16667720068985669712
Si 16.87745391180097698225 26.15047761170268714181 7.82304130628172789130
O  15.46838899815054446663 25.51562837256682669818 8.41004824146670770801
O  18.13336275184971313479 25.24837058542869527855 8.41007177000995653771
O  16.87746415395104193635 26.14843622891005381348 6.16704135707762102214
Si 16.87775123312400893383 29.22847752771208007516 7.82296442389815727125
Si 16.87834565115066354224 35.38047741579976701587 7.82281020264934046082
Si 19.54219697592096949279 33.84322009581692469737 7.82286558265878273488
Si 19.54189956756876611621 30.76522001554841878601 7.82294276175717318011
O  15.46880889299651329338 29.86362831379666360476 8.40993959706591098779
O  15.46928064853257822620 34.74562827987215740677 8.40981723466078889828
O  18.13425471440746150620 34.47837082299971456223 8.40984082978086533444
O  18.13383458860330321727 30.13037082529229593320 8.40994984728282446440
O  17.03159884164278992102 27.68947742859611693689 8.41300387016415740504
O  19.69704456774500656024 32.30421987412341167101 8.41290516893072748417
O  16.87776192924964391295 29.23043612867016705081 6.16696437393615415345
O  16.87835593830481428768 35.37843578648793396724 6.16681025260950921307
O  19.54220750797183114855 33.84517861428370366639 6.16686553290488603807
O  19.54190971011660238332 30.76317845132498973726 6.16694281268577171318
Si 16.87864312965056257099 38.45847739205790105643 7.82273276932375338788
O  15.46970086572741465147 39.09362815020811154909 8.40970793564629914840
O  18.13472631093036824268 39.36037116786251743861 8.40971797446188773506
O  17.03249066816799839330 36.91947736369578336735 8.41277248719082137995
O  16.87865370558283117930 38.46043574089247130132 6.16673271734617323148
O  20.79780833925329375234 29.86311288148521470021 8.40997325065731260452
O  20.79828007439676440526 34.74511392552298616465 8.40985083184794213196
H  4.07465742950732501271 24.98677204223707093433 8.03659115495362996739
H  1.41040896906484292117 29.60201496978696056317 8.03674925629019121232
H  1.41040900898181753575 35.00798498540314795946 8.03674926203310491246
H  4.07465743843779648614 39.62322797467663804127 8.03659116125623640414
H  8.94818084738680852297 22.17325470687435995387 8.03830168980503501075
H  8.94818087561423602949 42.43674530125274202419 8.03830168722054061448
H  14.27776169775710535248 22.17320385306810948123 8.03828218839304220467
H  14.27776172746563432270 42.43679617087077815540 8.03828218127885563149
H  18.96055658482727679370 24.87622777362255277467 8.03640577885771634215
H  18.96055653289937126260 39.73377222648133511029 8.03640577863583338569
H  21.62471722943568153141 29.49141993086765012322 8.03658340864876485909
H  21.62471723356284414308 35.11858007532801906336 8.03658341035642109773
H  13.39922796397521942424 34.28531246987643754665 5.85463176665002027477
H  10.85603168634951565252 34.89218232850316070426 5.71721595828935669203
H  8.79316677345243391528 32.97374189983416670202 5.76219940776961525586
H  9.66357961509481100393 30.35160701558245577303 5.76895568413265547036
H  12.30629750274418299227 29.68608882956754868587 5.77123880777806164133
H  14.17430146042269356599 31.65300278884773632626 5.78286316856581095180
H  13.45700859098313628692 39.52750482956899702458 5.78093078786303848915
H  10.82185202038457205731 38.95872181354091878802 5.76976940547736649734
H  8.14980839131013645726 39.50861004033855294892 5.76627385144864135214
H  6.23194667461924201035 37.58116491977959583437 5.76471310357530430935
H  5.44704955369887855454 34.95093754329644042400 5.77257540982981787181
H  3.60664936340553943239 32.96826993076568612651 5.76388710719669639104
H  4.32819223146507159328 30.34484056114818528727 5.76402041656076491449
H  6.20754699089973982495 28.34935900003100428535 5.76818373895295266607
H  7.00943285638093893652 25.75772182318257819134 5.76748914509478005641
H  9.64047060879606476647 25.06526887692900018578 5.76511829287502575170
H  12.31477063340105360112 25.70825778281098550337 5.77188275792556204635
H  14.95393929827760004514 25.09100721819623203146 5.76597661936033656360
H  16.85170393376033004529 27.02666099264780186218 5.76146800079598264688
H  17.64768340203996999094 29.66420704498900562385 5.77142433802118581809
H  19.48180900516580749127 31.64168672095669521127 5.76490010356381787915
H  18.77140968704625478836 34.27358367898222724079 5.76790924672903315695
H  16.89481965203180280355 36.26079389492050353283 5.76914703379254234505
H  16.09152696574043517330 38.86028470533697998235 5.76951241600721509428
P  5.96876569641254128840 37.53739105767908768030 12.84449972268373230122
O  6.09238043763536296638 36.96486507895366457888 11.44461257719093794094
O  4.89195637559971707731 38.59464478843212731363 12.93814180914666778222
O  5.65026439460702700757 36.29407028055679518275 13.80144083565167889560
O  7.39827806439245261316 38.15417040438568108129 13.27368113149032069487
C  8.14023769781602624107 38.50166681641277222070 12.14308593795654900305
C  9.58227046307800023328 38.84446835882459225786 12.53155311668539440006
O  10.14712749292943705370 37.84765592758898833381 13.38493404887401894143
C  10.51290698507436438547 38.94123945465511127395 11.30191782816534740164
O  11.47438509150804009096 39.95206163742205518474 11.47693624765369513341
C  11.20057812458857959825 37.54837757790085106535 11.23335079409656600546
O  12.59378125587448948863 37.71705393881593693095 11.09328232236620515039
C  10.83358654171714263725 36.87552114907393985277 12.58619963374459516103
N  10.01997616199521168312 35.65968244916343365958 12.42381297546001306387
C  8.71062085746931202834 35.49912460272886960411 12.84043821513651728594
N  8.23455965137170053936 34.32909489982334605429 12.52259758005016898608
C  9.24318673729747253276 33.66884942439457972796 11.89222640820041121401
C  9.23374440933274698295 32.43761649073515229702 11.20989494084825466302
N  8.09276650998122626390 31.71073059491415335742 11.06284577026907101072
N  10.40800257391191507850 32.14020268965817450635 10.58789441315193791127
C  11.49804131844904020454 32.97839887035678430038 10.62072896722239967460
N  11.54773351798202973839 34.13310170606521865011 11.20730848045451466533
C  10.39319464512597157579 34.47763944454381146443 11.82393733839953497977
H  5.23123226820712705631 35.60058557048544969348 13.26313610886882443651
H  8.12810690597600249419 37.64001334162219336577 11.45419547353290212754
H  7.63379504883001036575 39.34000493770371065239 11.63597996597240680217
H  9.60851085184188846711 39.78232657264150162746 13.10527198870537546327
H  9.94431899969912080905 39.18255210510434238813 10.39439259548693073043
H  12.15800931253702366064 39.61923104704720088876 12.09925069344562942319
H  10.83181790185964032958 36.92071537632101296822 10.40529022467685749120
H  12.76992926205542566720 38.22975082031233284852 10.26768610026569028548
H  11.75410529152967598066 36.60740992489900236251 13.12047304669992975334
H  8.11243587978569458130 36.26982523193470342449 13.30415532386525612196
H  7.21692264363585600506 32.09552558283490242275 11.38120180426958683029
H  7.94621030721539245434 31.11182288832999986994 10.25156797771981231904
H  12.37453799346065963505 32.68391069124677983382 10.06169988221305899856
H  10.38877180810909450770 31.35517273552638428669 9.91972574425627584560
