163
Coordinates from ORCA-job gmp_frame16_dry E -13539.468045554571
  Si          3.54908265051250     33.96918474142234      7.85465129967802
  Si          3.40962977208016     30.90145857710610      7.95643809965144
  O           2.34829840797965     34.99969121864067      8.27108670277959
  O           1.92245133393229     30.34882402874616      8.37406494558414
  O           3.38677398394902     32.47333705436441      8.46203663511059
  O           3.69630913782787     33.83493242448875      6.21975658237541
  O           3.65206535428307     30.93723407288929      6.33301486107869
  Si          6.18727622352134     26.07766715116152      7.90599844621839
  Si          8.88464910182417     24.54665666729262      7.89867740401663
  O           4.93185207464707     25.16887441214303      8.43787592587308
  O           7.54824963634760     25.32076566304915      8.39288554671192
  O           8.86487159303305     23.02248257792094      8.49239748214623
  O           6.22634284417104     26.16017735783831      6.25698304476969
  O           8.86170068277410     24.54405045370384      6.24875762404619
  Si          6.05305484618740     29.24593935950878      8.26705731914355
  Si          6.19055071164390     35.52184342963805      7.79948371309697
  Si          8.92502156460185     33.89733484787021      7.75100795716057
  Si          8.84026827833967     30.82625605572772      7.76686198634957
  O           4.63239800843557     30.08736759691812      8.63734416842357
  O           4.91979133855098     34.69980181525772      8.39321439746015
  O           7.59011340122935     34.75525085760083      8.12991678021455
  O           7.47786578392205     30.11567583177515      8.17995281821673
  O           6.07240149887544     27.59889848395981      8.43463037308054
  O           8.84821209076837     32.38386330165476      8.34208548933531
  O           5.72307818938650     29.26518217324472      6.58150931355723
  O           5.98539982880400     35.69768152206237      6.17669800888086
  O           9.11823710949847     33.80223612430743      6.12195303397118
  O           9.01361596100448     31.01308046283802      6.13449500236472
  Si          6.24035815449441     38.60275008401493      7.85250047025934
  Si          8.96684384489386     40.06719030271264      7.84872118716493
  O           4.96683280831968     39.47435989334226      8.38368765708204
  O           7.57672444518314     39.39540228851959      8.37522183544693
  O           6.24893478677851     37.05512354580399      8.37779118337126
  O           9.20632476570046     41.58171695513640      8.40155718345364
  O           6.33691344678872     38.56951637742588      6.20959640172484
  O           8.95059270946337     40.00877514241446      6.20273394808539
  Si         11.54835540335468     26.07771576114661      7.75845714663244
  Si         14.21661739226200     24.54154379490939      7.80540768899116
  O          10.23873967219632     25.34075853647539      8.36756786292069
  O          12.95614445968388     25.44406838349693      8.29426407040122
  O          13.98575390771434     23.03085232265598      8.37297687622551
  O          11.49324679078681     25.79012977795777      6.13133854067791
  O          14.21418954723838     24.55215868034121      6.15097622433975
  Si         11.49357340094976     29.26365944424431      7.68893954978728
  Si         11.60300257814946     35.38527187794397      7.71699192446232
  Si         14.24121586561115     33.82810630345626      7.71376149768316
  Si         14.17031723390374     30.76916179636138      7.68277210709502
  O          10.17991338204927     30.02971091635546      8.28256108313315
  O          10.23999861750446     34.71098572560560      8.31067524846065
  O          12.98159276899961     34.70469589549649      8.26031235352649
  O          12.87384469397199     29.96808751400614      8.24281546175696
  O          11.49507929155613     27.68531699431151      8.00955302573443
  O          14.28120671414905     32.29559012079110      8.25411647939643
  O          11.44362493480616     29.52736390705451      6.06171628589488
  O          11.60027701558294     35.15902890352900      6.08868169617711
  O          14.09601007541624     33.73739637214294      6.07620954873857
  O          13.99109032669193     30.86541702368291      6.05007351431150
  Si         11.64269834717959     38.56543699797529      7.76912137224814
  Si         14.33622049990680     40.05577795434082      7.87330418111382
  O          10.27093654301762     39.21948075044926      8.35390155306095
  O          12.99086921821845     39.27087831731332      8.37391097019422
  O          11.66015740942911     36.97425804095297      8.07401596847149
  O          14.42095789045650     41.57666823840453      8.45569238179883
  O          11.71047673799753     38.87457154429119      6.15331715248678
  O          14.36433016879996     40.00684853767451      6.22865945024817
  Si         16.92247302428722     26.07839510268694      7.81008155292826
  O          15.65868030035324     25.16789498948636      8.25597052111187
  O          18.33897585550824     25.51854744599281      8.40182398938795
  O          16.88409035662098     26.06750651340847      6.16052296213045
  Si         16.90918952284160     29.15973685400946      7.71803441500771
  Si         17.01550985784771     35.36627069181529      7.78025914165567
  Si         19.65116570267071     33.78040733606264      7.87912574524680
  Si         19.57025707963340     30.69179968743610      7.86990670916644
  O          15.53886181587023     29.96178147414093      8.04152688706576
  O          15.65017649454974     34.55688383509194      8.10514247655064
  O          18.30579376567148     34.56333232847962      8.38713788902743
  O          18.17821275262600     29.98790390058696      8.37268427832261
  O          16.81696246667333     27.64533904677762      8.28676368847648
  O          19.64365044794831     32.23420456839933      8.41443806591055
  O          17.18478690066097     29.02809152691650      6.10631210899110
  O          17.30375298739688     35.44634866551659      6.16173627720844
  O          19.59972986506669     33.70921669765922      6.23601237845022
  O          19.54681126068469     30.74966479634937      6.22603306668885
  Si         16.97362427799426     38.43906382567492      7.84203382312401
  O          15.68394188279995     39.28082862629508      8.38282351529573
  O          18.40060841019195     39.02290677185680      8.37291765953387
  O          16.91843172889422     36.88918801975832      8.35405424525378
  O          16.89487641031256     38.42019221599296      6.19768460668116
  O          20.79519180010646     29.78291561627575      8.43749721970712
  O          21.02879542222488     34.46187068679860      8.42505344862623
  H           4.07465741453797     24.98677203945152      8.03659115926145
  H           1.41040896353111     29.60201495527751      8.03674925516395
  H           1.41040892489905     35.00798500976709      8.03674927331616
  H           4.07465742526663     39.62322794615569      8.03659115515522
  H           8.94818089576735     22.17325474154417      8.03830170416359
  H           8.94818094310990     42.43674513632043      8.03830170195571
  H          14.27776161716715     22.17320394398465      8.03828220543283
  H          14.27776172987095     42.43679629404995      8.03828219163979
  H          18.96055651987329     24.87622789169130      8.03640580119196
  H          18.96055646923815     39.73377215931524      8.03640580155577
  H          21.62471748514314     29.49141980359021      8.03658337227967
  H          21.62471720545061     35.11858010541922      8.03658340083765
  H          13.31664419909457     34.21785228972843      5.75116000903254
  H          10.78060766725571     34.73220745486761      5.78098645861633
  H           9.05584283897814     32.87496357817459      5.81915546082658
  H           9.76651937656520     30.50377034899633      5.79044957252204
  H          12.26520478650754     29.90839797008803      5.71701252897333
  H          14.06533188503958     31.77532617106922      5.72184886487854
  H          13.52317915877521     39.69923730685601      5.85369004139356
  H          10.86462006052860     39.15328568527259      5.77590524591452
  H           8.15684908078467     39.57339689154141      5.85594058653138
  H           6.19083714801060     37.67967872023266      5.84881276819412
  H           5.32922125559940     35.08591644329869      5.80930802910250
  H           3.72709183959079     32.90165590938560      5.94123884872916
  H           4.41022841548523     30.33224127569519      6.13611132777889
  H           5.96557544273991     28.44309034141346      6.14376146256215
  H           6.95947188811696     25.65743293861008      5.87995790667751
  H           9.68503729470608     24.89250055440528      5.87423430389880
  H          12.32345046697621     25.44123393884837      5.78052680599734
  H          14.99379863705508     24.99265527980366      5.78782253094866
  H          17.07296535261799     26.93200521470740      5.77124454103394
  H          17.87902878954813     29.61297642717873      5.77334504756978
  H          19.57358752292032     31.65635996627293      5.88406574578171
  H          18.90377445284063     34.27123299503116      5.85907884177539
  H          17.11276317099323     36.30905736365638      5.77024721105368
  H          16.12483181554151     38.89764877101084      5.85481637143268
  P           7.41297983463407     28.57428507544351     11.25823409767157
  O          10.55712064176999     30.90620178373879     12.84694855070644
  O          12.39775470810928     33.08853312777197     10.75312359123564
  O          10.54098076510973     33.84194903032527     12.54032782528241
  O           7.87067491422032     29.90458964399730     12.06733101798416
  O           8.51111259967170     28.12543441070056     10.38695480714292
  O           6.28653245703756     29.34627767770926     10.18593909965120
  O          15.37681935055262     26.58831904532585     10.82658566026320
  O           6.56690127718358     27.77851483251934     12.15274100053593
  N          12.27508756992258     29.88212761659434     11.63456875295897
  N          12.46761061172086     27.72044862113022     11.11161596764638
  N          14.58955750045451     30.56696275167002     11.56612633681527
  N          15.99489686541136     28.75793145888766     11.08547567282786
  N          16.87029706503105     30.89614566230918     11.33951081941528
  C          11.37898690368364     32.17576019695810     11.01708020621780
  C          10.13774741546547     32.83435761622805     11.62193447503857
  C          11.72869575304268     31.13798805368952     12.10539311291558
  C           9.46545820840059     31.66539783609738     12.30571086488096
  C           8.60529834208187     30.86761435891136     11.35585037507296
  C          13.60880246692965     29.64108503894563     11.48180248912051
  C          11.63151488505187     28.68177813980932     11.38552290295644
  C          13.71156505902847     28.29393463787456     11.17004738491878
  C          15.01497623585105     27.73260139260463     11.00292812744826
  C          15.76917059706173     30.07550479675538     11.32768922005098
  H          11.13280566300280     31.66541944592889     10.08457507771918
  H           9.51530445088866     33.32142063070353     10.87362374094690
  H          12.50701546386486     31.56582820171096     12.74778462045861
  H           8.85359317108666     31.98502802843769     13.15397207695910
  H           9.22911765814419     30.37891343458415     10.60096845746107
  H           7.91990908998331     31.55391592048056     10.84309966499162
  H          12.29350420779215     33.79238051160467     11.40716151342285
  H          10.73249887468266     33.41382529951763     13.38112806326095
  H          10.55377936823415     28.57928367784144     11.40170021719993
  H          16.94025100658316     28.42389967036290     10.97017556351080
  H          17.56939534736592     30.68250563058711     10.64251058279544
  H          16.59876961724503     31.86752880845814     11.32718217017224
  H           5.42301329397429     29.32885489678917     10.61411558233438
