163
Coordinates from ORCA-job gmp_frame16 E -13539.719206671340
  Si          3.50477950704271     33.90058273195482      7.79607161074519
  Si          3.46175668963038     30.79373072403213      7.81585603340636
  O           2.29046185202911     34.80292653081948      8.39688432114619
  O           2.17316385284841     30.03425270470902      8.45945973039383
  O           3.46244254582759     32.35230739735108      8.33150345483133
  O           3.52128711824868     33.88995415856555      6.15790299207625
  O           3.43688428425963     30.84485607857030      6.17989360050057
  Si          6.14700654078383     26.14015804348805      7.79861870805486
  Si          8.82132513122979     24.54474226078417      7.79636058160807
  O           4.79674599012560     25.49718232825910      8.44186237736977
  O           7.48754452425074     25.35046601072411      8.31334825645759
  O           8.75669992210597     23.04482404620152      8.42993944558427
  O           6.12473999302010     26.14153733702368      6.16099152657998
  O           8.77769010022321     24.54434660566157      6.16001171563501
  Si          6.12781111519872     29.23507546703209      7.70544368355591
  Si          6.17366188644633     35.44823212069939      7.70307504467713
  Si          8.90651400822611     33.86282301755504      7.65921702468440
  Si          8.87487226308688     30.79045079049213      7.65544183729716
  O           4.84586940866531     30.05358802885640      8.30815507844806
  O           4.89637365015346     34.62148033839967      8.29771017582234
  O           7.56159151893750     34.67459113384484      8.09125686055462
  O           7.49457262562736     30.04586313794453      8.08890385248222
  O           6.20986360391440     27.71169820410528      8.28183698057054
  O           8.85159790590576     32.32689727173905      8.23015711090759
  O           5.91476241162349     29.19151765141125      6.08335767824186
  O           6.02253879016086     35.58470600372230      6.07989541278142
  O           9.05720717264108     33.81351437365738      6.03026885654048
  O           8.99439424671945     30.90263350839555      6.02774549366211
  Si          6.19197694037263     38.54372572131355      7.78986527183469
  Si          8.91067648766127     40.06823593625469      7.79509878846274
  O           4.91988491627474     39.33703647028086      8.42844060395787
  O           7.55353570615222     39.30386609908759      8.30352799169155
  O           6.23136181075081     36.97516105781978      8.28685398081499
  O           9.03040653828851     41.55635406494838      8.44273380151767
  O           6.20963972482097     38.57913366423072      6.15433811811256
  O           8.92978814949805     40.09301193261359      6.15741795592022
  Si         11.51431629712088     26.06922450678416      7.69784633404610
  Si         14.19440255295132     24.53553182904084      7.77732894753810
  O          10.16915743046872     25.35032288974557      8.28717462814985
  O          12.87586734402403     25.38194646814709      8.27930413214496
  O          14.03052765518563     23.04079066615571      8.40101406631603
  O          11.46013476247742     25.87711460465428      6.07349683956986
  O          14.17713936545578     24.53122223463632      6.13856283993654
  Si         11.52220333069812     29.22548871716572      7.66015915101187
  Si         11.57969045301577     35.37592003010168      7.64799502987238
  Si         14.22879637096433     33.82041004384918      7.65726818685474
  Si         14.18273588617567     30.75042162202908      7.66446832678725
  O          10.16581131756089     29.95762378917149      8.22459273278211
  O          10.21783498769732     34.66870478354210      8.22237618460203
  O          12.93749351911212     34.65670765463193      8.21483653306961
  O          12.87080614442678     29.95103582112653      8.24167097610086
  O          11.48670835644808     27.65638374532403      8.08910544133388
  O          14.26543959699035     32.28462908655751      8.22573424774117
  O          11.49204031253612     29.38701856508016      6.03264977994820
  O          11.61256592902054     35.20984936177994      6.01993612729506
  O          14.11624745747428     33.70565469332251      6.02739227472878
  O          14.00651082684811     30.79591607534155      6.03649794186737
  Si         11.59365337577638     38.53620423011056      7.69130903858728
  Si         14.28235162557428     40.06367043849230      7.80420155411974
  O          10.23664610724528     39.22485907624786      8.28384350331006
  O          12.94748246990507     39.23425661327236      8.28809968454009
  O          11.61049065903526     36.94791034216764      8.07118684303551
  O          14.26306193005923     41.55679324995822      8.45410747864778
  O          11.64670591742687     38.74917964860322      6.07010158783935
  O          14.34834330905220     40.06754328327325      6.16851573808862
  Si         16.90936329774702     26.06240707931446      7.78465579505916
  O          15.55919155776340     25.27880659692331      8.28766320185391
  O          18.21861418220053     25.35363945215582      8.44818572318904
  O          16.89301994123101     25.97642874247661      6.14753660739928
  Si         16.91563808476695     29.17007033161716      7.67610365155388
  Si         16.97267785354175     35.38531002203871      7.70554561941732
  Si         19.63666572817386     33.81731546512283      7.80690703328972
  Si         19.58694390191690     30.70705536372145      7.80623135638792
  O          15.52628291459198     29.93151928017465      8.07666051500786
  O          15.60917980550269     34.57082939185488      8.09077402446312
  O          18.26355158111184     34.57668179396693      8.30341010639017
  O          18.19019863123611     29.98758918070151      8.29715142278297
  O          16.85120971236657     27.63896477344145      8.23211514092581
  O          19.61361092580159     32.26049805369209      8.32927358430902
  O          17.07967623713437     29.07477824668124      6.05285616146300
  O          17.18103769364926     35.43142990982171      6.08320482621415
  O          19.65003882992631     33.77217975994947      6.17103128851115
  O          19.58863562063558     30.69708044476487      6.16789454518630
  Si         16.95450537532571     38.47527317746663      7.78933710156928
  O          15.62933405773753     39.28043748510780      8.32087303822207
  O          18.33681305727991     39.08132478258045      8.39887149693571
  O          16.88814056782876     36.90853928843745      8.28789753993319
  O          16.94461894584737     38.47058426717966      6.15181969702341
  O          20.81266961819623     29.84402122359167      8.43971393959958
  O          20.96717341702929     34.51853403850164      8.43303732786125
  H           4.07465745246255     24.98677206314882      8.03659116075446
  H           1.41040897005534     29.60201496942560      8.03674925629273
  H           1.41040901267102     35.00798498870979      8.03674927281611
  H           4.07465743927107     39.62322797115424      8.03659115960734
  H           8.94818089187060     22.17325476437908      8.03830170480001
  H           8.94818094134653     42.43674514471942      8.03830169965724
  H          14.27776168937292     22.17320388846705      8.03828219524160
  H          14.27776173040670     42.43679616526157      8.03828219188425
  H          18.96055650122667     24.87622790098309      8.03640580073241
  H          18.96055647997014     39.73377217508048      8.03640579337082
  H          21.62471727259238     29.49141988442589      8.03658338553895
  H          21.62471721260939     35.11858011081200      8.03658340125784
  H          13.35545866664172     34.17585153685268      5.65119002686731
  H          10.82325290455744     34.78292990716339      5.65068599547978
  H           9.03401030607662     32.91797074672129      5.65750908898869
  H           9.75661903624363     30.43285474609523      5.65355887954089
  H          12.27590050656906     29.83134332469389      5.66964064714862
  H          14.04312211205229     31.69094387737486      5.66304281152975
  H          13.53547253144892     39.77704836817793      5.73117259885636
  H          10.83453825278214     39.09994700122159      5.67903040221873
  H           8.17050945888030     39.66854042502743      5.73600831867058
  H           6.09509048432215     37.71595771147194      5.73183774495984
  H           5.32099373965288     35.04463068982078      5.68958732679951
  H           3.51403084559990     33.00648215073154      5.76318901684140
  H           4.11278087447637     30.29867240533645      5.75278202999741
  H           6.03206422399874     28.32140042088396      5.67827675846747
  H           6.86842781639490     25.68380342198427      5.74620376754793
  H           9.58098590672541     24.88072288900491      5.73757970576763
  H          12.27047534379881     25.52727065954064      5.67769623405386
  H          14.94387606919588     24.95670114065756      5.73051259409509
  H          17.05185320664035     26.81438108217047      5.69365474119521
  H          17.80341232101979     29.60471076366142      5.68912453136900
  H          19.61735639782172     31.57304110774664      5.75859380520470
  H          18.95657698908064     34.30106133284573      5.75028701712885
  H          17.05792108840088     36.30010823712154      5.67668423132169
  H          16.18462745766381     38.91847893263895      5.75442239227116
  P           8.19849647448342     27.29638717324374     12.49541705094183
  O          10.74462778754333     30.44788222249690     13.11449673659906
  O          11.84707445428652     32.64615422349080     10.56040559249719
  O           9.91300905386377     33.33415832320546     12.31249089983862
  O           8.44235827769845     28.81880433367094     13.00376962696249
  O           9.14952904786334     26.98300129473448     11.39208442898868
  O           6.73470877649289     27.37589929550895     11.80274528548812
  O          16.10075878036267     26.88139342187844     11.23475370967309
  O           8.14132680047886     26.47373477744630     13.73278852270931
  N          12.54688904402819     29.69950230835653     11.85583318200374
  N          13.09048085742903     27.56010535903880     11.52653225504923
  N          14.71160453216252     30.74694114814193     11.60316947263539
  N          16.39346964156697     29.13930242519651     11.25032705547469
  N          16.90307761616457     31.39346587454800     11.31613866808715
  C          11.08640249122594     31.60279326365902     11.08325760178483
  C           9.76588841648440     32.06406087166955     11.70809322206050
  C          11.76473226883797     30.86005783435008     12.24407847868033
  C           9.46614723117226     30.94204743506053     12.68328258693468
  C           8.63584417456564     29.84647635627474     12.05295258398950
  C          13.89518920665134     29.68013497999147     11.63880155009056
  C          12.11537150410632     28.39635266001986     11.76089968475378
  C          14.21863621474496     28.34441151581625     11.44910487682811
  C          15.58907673432813     27.99173317040313     11.29944734436761
  C          15.96618970711831     30.42813176446372     11.38256660340314
  H          10.88128169460150     30.89460601899421     10.28018978048019
  H           8.98726351993663     32.17609912292504     10.95323513963564
  H          12.46082393113640     31.53537194865826     12.75280610464246
  H           8.95320042978005     31.31719630713780     13.57280193571201
  H           9.13201808875583     29.44923503964594     11.16138342059614
  H           7.67109525758032     30.26907112749373     11.74996113086344
  H          11.61494826214920     33.43664514897898     11.06905635028433
  H          10.34365006895475     33.24295567515126     13.17062767365532
  H          11.07391710424737     28.12145963107170     11.86623661345371
  H          17.38376812966359     28.96496062404947     11.14361006710442
  H          17.78934654001296     31.19660030281580     10.88118656446689
  H          16.56333107677080     32.33728451596944     11.22949162092427
  H           6.03617165141151     27.43943684008676     12.46407842041558
