195
Coordinates from ORCA-job amp_dimer_frame13
  Si          3.82464627466538     33.61412814140999      6.85938654041729
  Si          4.21003686055059     30.62960571003739      7.13960165540386
  O           2.26370210479020     34.03440631653709      7.00340283159513
  O           2.96450552578870     29.79445464120340      7.76680076242687
  O           3.95261008687319     32.16301876497958      7.56863398235337
  O           4.36212897691167     33.54884669154661      5.31841611576490
  O           4.27965002584415     30.58497179005328      5.50665046355059
  Si          6.27177595934054     26.05374839197906      8.02497827576445
  Si          8.91297417790764     24.63481473764457      8.22095866225441
  O           4.84873817982240     25.68026456622031      8.70194586464452
  O           7.48814551540967     25.22946659093211      8.72079455483628
  O           9.30696981880032     23.31315532379356      9.07352430027649
  O           6.28780732661613     25.77900152428715      6.40946378967696
  O           8.73945840910346     24.36376590246343      6.61427246214972
  Si          6.66590508736840     28.94649650880695      7.34287601778819
  Si          6.23898045340823     35.29237147569367      7.31159534183143
  Si          8.75039104794981     33.52065924114326      7.02854217325520
  Si          9.28010126626663     30.54908594115301      7.08398060390261
  O           5.62506242327685     30.11546335911989      7.76403393039454
  O           4.75499400962998     34.71891871115962      7.60459901173623
  O           7.26871175760999     34.05173993738443      7.37044602049817
  O           8.16758768325401     29.48407458203955      7.56395822678277
  O           6.45703435700936     27.64579506254022      8.28534489208655
  O           8.86515927949182     32.01807831624154      7.60658533640234
  O           6.37363866221896     28.57578488195032      5.77901471086349
  O           6.32765082847761     36.11484660036903      5.90588064627836
  O           9.05893693405124     33.54955074935954      5.42422010802846
  O           9.36881879579797     30.64534229196263      5.45305755036092
  Si          6.58536802282883     37.97334687594570      8.62482060730158
  Si          9.14510674193613     39.32585318995108      9.49335518324201
  O           5.13057501231113     38.31888903691983      9.25425573543917
  O           7.76532053648686     38.47759301489850      9.61586390441053
  O           6.62514213429441     36.36258784794463      8.45989936901167
  O           9.26308648602216     40.42532651158574     10.67848707801806
  O           6.87443162212554     38.70009913606900      7.18320544560501
  O           9.23981003329360     40.00593065232425      8.00658245217279
  Si         11.50273491199820     26.07744351178037      7.79575625489926
  Si         14.11387794442269     24.64852012942723      8.23645715267814
  O          10.08761813239630     25.71572356200627      8.49002169431592
  O          12.71515651061649     25.37906142961834      8.61596671680057
  O          14.26470626899487     23.27808146057333      9.09048250472097
  O          11.44857188232197     25.51381223999305      6.26373689978869
  O          14.09366669306711     24.41090524561084      6.61541610725607
  Si         11.89860370336900     29.12471539637755      7.21081025367296
  Si         11.26159686626184     35.12173114509005      7.36791326079422
  Si         13.88314987960893     33.68400308727843      7.21780387081042
  Si         14.41406191069026     30.72762829670240      7.07810229398654
  O          10.70071379603472     30.09900059321095      7.70914384777831
  O           9.82086308334174     34.49671200962580      7.75208837248727
  O          12.44310837566298     34.10254268832861      7.81340108626419
  O          13.31396957209332     29.72566897979922      7.72078871915407
  O          11.68191035266578     27.67443945594600      7.85797931804395
  O          14.28318150063645     32.20303071825433      7.72790837644394
  O          11.85999480546474     29.03081563676546      5.57964118708168
  O          11.36607241145259     35.37497566146586      5.75808863085098
  O          13.85782139260560     33.61499656717562      5.58241312654951
  O          14.15881225803328     30.78548749181121      5.46472954355208
  Si         11.70517637074775     37.94871776115304      8.79311894483889
  Si         14.30476922620652     38.84623706272053     10.02371614956085
  O          10.42351443343103     38.34839942163447      9.69981820227933
  O          13.03174766930733     37.88023022542404      9.71738797044732
  O          11.46237601211381     36.50548822436650      8.14436601336082
  O          14.19051416874438     39.55095789001734     11.47830318772316
  O          11.98271480329439     39.08770135158048      7.65524748190519
  O          14.46392174472370     39.91765990059259      8.79497099429766
  Si         16.71628118783681     26.13163818190105      7.92925340562536
  O          15.37692822390679     25.57414783043807      8.65091280526126
  O          17.94734201600012     25.44177666550472      8.72786362736151
  O          16.67630702108852     25.70165722495563      6.35008439740403
  Si         16.94546098652730     29.00643307703051      7.04357181192457
  Si         16.46471187430375     35.28199822904443      7.41211624073231
  Si         18.62905980304405     33.54971968491986      6.18276289306474
  Si         19.29700579654355     30.58638762625899      6.20703031785002
  O          15.87843862067907     30.15691310415465      7.43507677095082
  O          14.97744079848679     34.73943772071329      7.75923290984769
  O          17.41504060434743     33.99845133211014      7.15335940271612
  O          18.43053879170454     29.63417816054253      7.20158318738099
  O          16.76444978596070     27.75252947095165      8.04553777476131
  O          19.21887887541830     32.13232542760696      6.69902278270174
  O          16.70332545291494     28.43060400738813      5.53343920204184
  O          16.45446892139169     36.21676555664251      6.08310912191853
  O          18.10886211815327     33.23304394858469      4.66394378751538
  O          18.66402771425736     30.46062327303029      4.70282330002316
  Si         16.92996598348413     37.67806465238824      9.13723755290454
  O          15.65551330396124     37.95558482524453     10.10090919702624
  O          18.24182066864131     38.06120886001543     10.00957435943502
  O          16.99838049445636     36.11368623973928      8.70150791204691
  O          16.77487934606281     38.54266831483467      7.75338509666816
  O          20.80662316822454     30.00803728251822      6.31104464522999
  O          19.73449060870555     34.73434637318004      6.27175512104492
  H           4.57995028222516     24.75694519755526      8.70028811996261
  H           2.97938310402692     28.83599926729950      7.68853324077796
  H           2.01113037085195     34.91384137624198      6.70778022960492
  H           4.94070946087091     39.23863284113170      9.46289514141695
  H           8.71256875981984     22.55792856252798      9.04148356047261
  H           8.56039077001596     41.07743603312423     10.75634967199322
  H          13.51180422915586     22.68050063704357      9.11490045769763
  H          13.47967034567891     40.18051813560837     11.62746524547991
  H          18.84155846263350     25.68366689983943      8.46969746702107
  H          19.10510367088486     37.84350188876771      9.64628948271310
  H          21.49567844354840     30.45393059106210      5.80996491313425
  H          20.53234530200591     34.65168278111221      5.74094120461291
  H          13.21236398216113     34.19111897235334      5.15174801116748
  H          10.70743512856549     34.88956203970869      5.23937871980600
  H           9.17506169543847     32.67626707630300      5.01993094479087
  H          10.07278873048444     30.11648151137549      5.05128430397246
  H          12.55746097645621     29.54682866351628      5.14515200216445
  H          14.04791169601919     31.68230219852083      5.10958175779887
  H          13.70744060303446     39.94778578200422      8.18761758075137
  H          11.19982135817306     39.58564010513967      7.37565575200341
  H           8.54107003747076     39.71836175353100      7.39549013328634
  H           6.67085617493933     38.16712271197910      6.40217731677466
  H           5.94853710349614     35.70312386419974      5.12232828415410
  H           4.38307216336980     32.66583733189192      4.92520423288301
  H           4.87719814372090     29.91593216183777      5.14346316055608
  H           6.34141184402033     27.62321829703317      5.59472550754186
  H           7.05852796050610     25.26493279253758      6.11398754319935
  H           9.54288469841626     24.48633001870547      6.08900610638936
  H          12.27735122194150     25.11457756844058      5.95827061143569
  H          14.90549249777839     24.68104785884826      6.15910936678393
  H          16.69255306751431     26.44769101188027      5.72921931645961
  H          17.14652965853200     28.92875684426821      4.83212718657861
  H          18.35401784579317     31.30168519658700      4.33091896110315
  H          17.70029617150514     33.93786374465301      4.15248318379838
  H          16.50258543995165     37.16634588957549      6.27076307126691
  H          16.10250778459317     39.24102717396099      7.80599213944536
  O          11.21121217788507     26.95705153881364     11.65604239800661
  P          10.89558957519401     28.40896465934431     11.60831551716096
  C           9.83942964115286     28.09187583267731     13.98975090308395
  H          10.47551596495075     27.24910250622572     14.27558718756834
  H           8.93248778213642     27.68750364774704     13.52364632369095
  O          10.53702704512356     28.94118467532965     13.10540157252487
  C           9.41797474115791     28.84447344080996     15.22258280818795
  H           8.95096600293698     28.12466582570181     15.90465625107379
  O          10.55393789676925     29.43324588857928     15.87216441713981
  C           8.45326936368882     30.00284994678246     15.02506465116766
  H           8.74274504620905     30.59975798277072     14.15438368853893
  O           7.14188972225779     29.51100076476696     14.82692132333734
  C           8.71186611981131     30.81886314666715     16.29641355128965
  H           8.39370164278204     31.85857088879960     16.19770893243824
  O           8.18417220736038     30.21508501250519     17.44421266923029
  H           7.20225980537243     30.26407106187488     17.33704245429857
  C          10.22690957050928     30.70119233558763     16.36577351341131
  H          10.58377378140274     30.80453827810251     17.39288753312319
  N          10.87229912986544     35.73016516106584     15.50723039644348
  C          10.22533328972694     35.07311914017094     16.47100383651155
  H           9.72069135092187     35.69661630915680     17.20421031008017
  N          10.10770806452443     33.76277747374961     16.64191661710120
  C          10.77214060594826     33.08182324412020     15.70543858346078
  C          11.52035516294308     33.62928393548428     14.66800431368256
  C          11.52553884208697     35.02955920515979     14.56992828880377
  N          12.17485866099706     35.68398166391022     13.58895676600830
  H          11.97082426074260     36.66549270919585     13.48473155209766
  H          12.36496092281205     35.17478064685749     12.73740224690106
  N          12.09388545311859     32.63860864550828     13.90815943806068
  C          11.68475529311786     31.52557114761435     14.45995242282804
  H          11.90908781592381     30.52945750885747     14.11460818557621
  N          10.87476449220272     31.72494602655069     15.54567722858291
  O           9.51698312748970     28.59738658974034     10.82047907846973
  H           9.31174019270675     29.56772830808853     10.70682329404624
  O          11.91601368785253     29.38113157272349     11.10308587784909
  P           5.82061682954415     30.35792490002759     15.18123025134111
  C           5.29611820392227     32.81947581509677     14.53893001739101
  H           5.72197375965669     33.70865429419695     15.00913415728756
  H           4.40143307102777     32.53611757480233     15.10168309613067
  O           6.27221633353037     31.78574183555840     14.58188591909688
  C           4.88665136442502     33.13464313194712     13.12533583781328
  H           3.97568583618060     33.74401894496408     13.16186570946406
  O           5.91538291881148     33.86218974252161     12.44933543155835
  C           4.65396335133000     31.91984745350517     12.23800642961768
  H           5.49187021281851     31.23207072748033     12.38708777476529
  O           3.44707606291419     31.25451415074175     12.45565764571349
  H           3.65735642951811     30.61785950311098     13.17167476842425
  C           4.79654519695820     32.53907238580889     10.85727445532929
  H           4.98196610827944     31.80700463830498     10.06785458290471
  O           3.70267550580528     33.36286257751871     10.53341669286248
  H           2.92081107680051     32.80188144783924     10.48518174019663
  C           5.99030456194808     33.45358721036577     11.09823934663865
  H           5.95671505357725     34.33841289413890     10.46117307245611
  N          11.01105649092801     34.21527433296870     10.89492701999855
  C           9.98110828499250     35.04590812351627     11.02674572799391
  H          10.23858361488652     36.09351581663712     11.14491972760388
  N           8.68558941265590     34.76112422799638     11.03821643310629
  C           8.47564889146967     33.45250206212104     10.90054130100381
  C           9.44307572507015     32.46645347462821     10.76857430768949
  C          10.78513292175221     32.89647416990730     10.74258968592505
  N          11.81700765628295     32.07888423058004     10.55279761319774
  H          12.73334055262933     32.48508518288323     10.65252409901601
  H          11.73510781359939     31.06265801111050     10.69756462545438
  N           8.83868059390736     31.23196741797803     10.66221598344417
  C           7.55725087600846     31.47057651584549     10.72893861451331
  H           6.79469059503392     30.70989840179269     10.67060175475836
  N           7.26634810034665     32.79893488729965     10.86332914023425
  O           5.66410050615091     30.47031672053505     16.66752143724586
  O           4.68855495714329     29.77599253326047     14.40229051728133
