34
Coordinates from ORCA-job cmp_geom E -1457.698923553004
  P           3.32440306343579     -1.60640381743660      0.22408105910267
  O           0.38575982132128      1.10689374996167     -1.25747158481775
  O           0.51091721155028      3.94400944928002     -0.49147308610697
  O          -1.61999483041376      3.08229630374138      0.83299453218620
  O           2.69329737481167     -0.27065828332474     -0.45590227422550
  O          -3.30922610743671      1.03314387758332      0.32851156107206
  O           3.71883459860671     -2.47123830658181     -0.92006202946249
  O           2.42572606254339     -2.09914726075555      1.30316528163466
  O           4.64081361475378     -1.03215453452927      0.97906733987934
  N          -1.42809170097313     -0.04826127423290     -0.31466964623807
  N          -3.33088951604425     -1.23355016325678      0.41244570103857
  N          -3.29454719621975     -3.51080845965101      0.51562987356657
  C           0.71437685380832      2.80647154370340      0.31493997948151
  C          -0.61722473503645      2.12931526635410      0.62323866693033
  C           1.42360068596756      1.73597913572307     -0.49029207143293
  C          -0.84711565679809      1.26653971458444     -0.63179841096709
  C           2.15744270633630      0.73762270822995      0.37716585636716
  C          -0.73908285598321     -1.19700825254443     -0.47645824820584
  C          -2.73857300957014     -0.05693080899826      0.15884103630397
  C          -1.30871657760298     -2.39030532592360     -0.19861875946962
  C          -2.65890187169366     -2.36828044562976      0.24786258031003
  H           1.26092696317797      3.06515378013338      1.22851216407858
  H          -0.50171903450440      1.47333666044444      1.49402577040869
  H           2.11627756466300      2.17831811429970     -1.20897286683879
  H          -1.55037113739476      1.76269745400285     -1.30688094755212
  H           1.48794476018051      0.29097748759176      1.11959234033204
  H           2.95776196812306      1.26122725614320      0.91249471594294
  H          -0.35148885200202      4.30276822381383     -0.23824640660465
  H          -2.45281535319364      2.58488076291524      0.70747008952084
  H           0.27513831359351     -1.09325005117438     -0.83710293431488
  H          -0.76260272690387     -3.31431152984626     -0.32194231779521
  H          -2.83217880078015     -4.39766148186626      0.42009067477610
  H          -4.24695957340229     -3.48843418220700      0.83841000457689
  H           5.33358797308016     -0.80348731054714      0.34888235652276
