160
Coordinates from ORCA-job cmp_al_frame14_dry E -13344.981373908160
  Si          3.48892561157384     33.89576216096489      7.88042757354346
  Si          3.44327649578359     30.80953365749947      7.93448783830699
  O           2.26506481373518     34.82400314303176      8.44107041305019
  O           2.09466784158714     30.08730236036713      8.51397222291211
  O           3.40933356923886     32.36098030719921      8.43840600535770
  O           3.47149004702962     33.81437253100485      6.23594871036700
  O           3.46151758910776     30.84053395986515      6.28772912336581
  Si          6.11355146293738     26.18955866102134      7.87776070337056
  Si          8.73571138108762     24.55627206714111      7.87609875556150
  O           4.66839628475246     25.64546434241484      8.41295865824531
  O           7.37426930729067     25.30229821434154      8.40579257849387
  O           8.58782605759625     23.00535330230854      8.37748844129363
  O           6.18158516743268     26.20471367175728      6.23118621130815
  O           8.72034115850520     24.67412795941777      6.23203961997278
  Si          6.09551163791852     29.25931200014758      7.83586218660441
  Si          6.14581531570358     35.45653158101388      7.79746716267482
  Si          8.90317740697356     33.88200648128097      7.75284809643319
  Si          8.86589689045221     30.80944103702799      7.78911258001482
  O           4.79729823560581     30.05465472629715      8.44373211208704
  O           4.85880436022935     34.61627818857708      8.36232875614265
  O           7.50102819276351     34.67099910140644      8.14193501557515
  O           7.45455902331870     30.06146864924677      8.16034475393723
  O           6.19875355589394     27.73238436529275      8.39941431389917
  O           8.79044584698614     32.33437577272239      8.33740309423197
  O           5.78243135462609     29.17746984453019      6.21808612174150
  O           5.92168986352646     35.67618602932826      6.17662147699840
  O           8.94727208310051     33.75051507728917      6.11270878262797
  O           9.03298976610365     30.86126418650504      6.15563217347028
  Si          6.18625615370233     38.53098841199326      7.88029467737940
  Si          8.85789646150508     40.08157897576615      7.85562696033083
  O           4.92764644302999     39.41729603794029      8.44620505837915
  O           7.56141558559166     39.23935072885734      8.39090820443202
  O           6.14322124964642     36.98072956974872      8.39224268131481
  O           8.61576237235271     41.60910972871795      8.40034608428038
  O           6.20277620194688     38.52823332751782      6.23375218811518
  O           8.86169243450280     40.00272723774782      6.20816180285768
  Si         11.42141753588159     26.05689735938763      7.82503267159377
  Si         14.08308864791641     24.53818979187282      7.82566433475478
  O          10.06883458431829     25.32287480363254      8.41121150738844
  O          12.75595016175000     25.31684177155666      8.38396554224479
  O          13.78472538150862     22.97942286169290      8.22647881320843
  O          11.34422291422793     25.78258817147089      6.19809811099003
  O          14.08002812416780     24.73447621514931      6.18331352225397
  Si         11.48661433987733     29.23395732970233      7.81555467872228
  Al         11.66904596116453     35.43209450720271      7.77610080154451
  Si         14.28674080581711     33.77631031079090      7.83599102554540
  Si         14.16931662981205     30.70947442859461      7.81612187949803
  O          10.12682277874225     29.96193513182690      8.38880272571656
  O          10.16228425080305     34.67044006335994      8.31423184671612
  O          13.10892309946385     34.66335559167101      8.45841212062667
  O          12.83290501384445     29.93840892064069      8.37606163183624
  O          11.37291188111479     27.64137599985321      8.13781812070278
  O          14.34264152452063     32.22081348885906      8.39137865059875
  O          11.46417555789456     29.46668786345658      6.18156685530234
  O          11.83004669546310     35.11351570308842      6.04405922636931
  O          14.05751712778548     33.62564847535574      6.20787477394395
  O          13.92329891547514     30.83990222246978      6.18819655785364
  Si         11.64605138057239     38.71607853028416      7.80507353679998
  Si         14.40267033948088     40.08075129433291      7.86988844004599
  O          10.28333382179856     39.48840466644330      8.35359071316319
  O          12.99039758894501     39.47581441994748      8.40429326787961
  O          11.62943118108114     37.16742966838840      8.11481146573964
  O          14.66991076932904     41.62155063573301      8.37630481186526
  O          11.74366869995723     39.09160759260163      6.19008267977007
  O          14.40677489868160     39.98553077213617      6.22459701490684
  Si         16.83149213910052     25.94547614031478      7.90952788776882
  O          15.49444477037936     25.12187313495951      8.35897330358819
  O          18.09849294757766     25.04945624985753      8.43783023846074
  O          16.77013937004703     25.98196825944698      6.25297061309689
  Si         16.87474361918852     29.03672451201444      7.84573782823193
  Si         17.08391017375540     35.30445199080604      7.79527570296024
  Si         19.71090150990954     33.70936958651505      7.85353588693953
  Si         19.53622109138124     30.61736196079042      7.83254046815789
  O          15.48983356116380     29.82093655982889      8.12945076127744
  O          15.76778223730975     34.44410243032105      8.11402664616966
  O          18.42130475985648     34.55800416879970      8.37998527859302
  O          18.15023122848700     29.93739465794777      8.34040041899970
  O          16.89074173033572     27.49934294843432      8.38312228984899
  O          19.69693505218661     32.15925747128716      8.37239549376990
  O          17.07237516968303     28.84066461943624      6.20881733063596
  O          17.37572105483243     35.39963894770233      6.16981022199998
  O          19.61832599150567     33.65504521066082      6.20674404998292
  O          19.49427210257680     30.70558463813586      6.18587883050116
  Si         16.99827925222828     38.39600614243488      7.84444933051851
  O          15.70814571561945     39.24246227770186      8.39169393444167
  O          18.42947920767633     38.99876525886854      8.36937883568705
  O          16.96427817545525     36.84637093345977      8.34074127037614
  O          16.91950043516739     38.41707164776287      6.19889772788932
  O          20.71818006896040     29.61497234338657      8.33642771984474
  O          21.14540027773252     34.33562267583621      8.34514007788387
  H           4.07465743386002     24.98677205285692      8.03659115276911
  H           1.41040896886988     29.60201497633030      8.03674925505441
  H           1.41040896736819     35.00798498014431      8.03674926006724
  H           4.07465744483429     39.62322797225050      8.03659116165463
  H           8.94818086088276     22.17325475490215      8.03830169394026
  H           8.94818087359924     42.43674520821951      8.03830168451174
  H          14.27776168517055     22.17320382229127      8.03828220396889
  H          14.27776176225748     42.43679621318558      8.03828218821305
  H          18.96055652673101     24.87622769354478      8.03640575690285
  H          18.96055653531313     39.73377222437778      8.03640577923688
  H          21.62471721793098     29.49141993136211      8.03658340786460
  H          21.62471725133309     35.11858008755648      8.03658340955766
  H          13.25023659951381     34.14305997100516      5.94546405703577
  H          11.02629268804638     34.76956415018842      5.64572750182106
  H           8.97021409194602     32.82992951795157      5.81386858789937
  H           9.84448955706963     30.40225787121255      5.86836098238806
  H          12.27568394259237     29.92807204969786      5.89279446943814
  H          13.96896813133106     31.78052443872325      5.91769565481730
  H          13.54255469360688     39.69129186335636      5.88490841731677
  H          10.88822836481608     39.22302140137477      5.76657144581473
  H           8.05916547675970     39.59550375217706      5.85464826764674
  H           6.10652054916403     37.63137715133660      5.87366235194380
  H           5.32835955114347     35.03910381439657      5.76405269566429
  H           3.47950833254575     32.90033744815450      5.91485512983936
  H           4.17573538792087     30.28821265133463      5.92641125116717
  H           5.99561915884640     28.32079784702113      5.82494556156728
  H           6.97146180269808     25.74921465286988      5.89870032238980
  H           9.56783247192532     25.01469910312034      5.89388571460710
  H          12.19861760830623     25.51595043554700      5.82598972896158
  H          14.89514267284988     25.16865090677554      5.88374954433849
  H          16.91566937473983     26.88497041140103      5.92318692037157
  H          17.69142007046394     29.46805964829453      5.81688297407592
  H          19.49759480893816     31.62229608092807      5.87101397599814
  H          18.90853730579979     34.22713819744298      5.86846160408826
  H          17.13701019276628     36.24739487651635      5.77640357919914
  H          16.11953074716454     38.86198328617200      5.87881511555048
  P          14.52104112114543     26.75534280954845     11.39132547196319
  O          16.84865764177866     29.07306832039054     10.82333359359784
  O          19.84457525321560     29.34154288032077     11.78686515529819
  O          18.53333383128820     31.14884061061209     13.16252021175614
  O          16.10865319095711     26.38392213495383     11.14878809735185
  O          16.95446253018734     32.90426928782860     12.01923649063146
  O          14.00862438443951     27.50601164261807     10.21042222958215
  O          14.39360721314622     27.29684523077054     12.76683407245939
  O          13.90363480547568     25.25016059070845     11.30672460508337
  N          15.78698040826705     31.03622251983780     11.48002500242138
  N          14.73464797929454     33.14094962134227     11.59887753711391
  N          12.49082886292675     33.32894497731422     11.22880215194724
  C          18.64521387834899     28.88083038939787     12.35948116079458
  C          17.75816460627146     30.07356401041696     12.71923821071264
  C          17.79181363378984     28.12671763403022     11.34869341316692
  C          17.06023109903797     30.32810052541287     11.38318191363629
  C          17.06550541587001     26.95754471063169     11.99185085223657
  C          14.60174659788418     30.40909492405046     11.32071010827837
  C          15.85534209729965     32.41555985287950     11.71998522166020
  C          13.45466478273353     31.12895603205359     11.32048799510314
  C          13.58019396062262     32.53590517100248     11.38587945062015
  H          18.85677569109648     28.25555206499218     13.23751857784719
  H          17.00347632569105     29.77189613089508     13.45735576006486
  H          18.41198925569892     27.78542026185047     10.51673646579065
  H          17.70827990415199     30.94756787860815     10.75103274508439
  H          16.58480323592188     27.27790378738554     12.92264666500774
  H          17.82121258642515     26.19601418897337     12.22819736590254
  H          19.94725157143536     30.23913199252580     12.14200057723542
  H          18.07255695747844     31.95272634272454     12.80862853937092
  H          14.61067985852083     29.33868840584503     11.14232409200650
  H          12.50714156797168     30.63396909069745     11.16941760108315
  H          11.70495091385663     32.92740242063580     10.74481648487535
  H          12.70895127976634     34.27213723933529     10.94508322270837
  H          13.27232755420320     25.26353782288239     10.58050228376789
