160
Coordinates from ORCA-job /data/Seafile/cmp/al_surf/frames/frame14/cmp_al_frame14 E -13345.322025283243
  Si          3.45741404743990     33.84688905717509      7.83523007387147
  Si          3.47482438563695     30.74539782697130      7.83570999656462
  O           2.20729926316643     34.66970312439044      8.47343582432439
  O           2.20630518213575     29.94797789896366      8.47344680547404
  O           3.46248047096176     32.29682301578412      8.36282360203529
  O           3.44995673166322     33.85149933252090      6.19625336511127
  O           3.44452229568624     30.81295038429057      6.20029284151587
  Si          6.16008318865373     26.08910231868441      7.81543778096681
  Si          8.85439663743092     24.53446894821126      7.80323129292858
  O           4.86707252196630     25.34664163367695      8.46687621103073
  O           7.52228239866137     25.33685743758975      8.31872290647159
  O           8.81915488610208     23.04264480887851      8.45583865027830
  O           6.12287208307383     26.12360558306797      6.17818453160634
  O           8.80573329510194     24.51188065495849      6.16868646871200
  Si          6.12657357252387     29.17469213243594      7.72767833236747
  Si          6.11088249650424     35.40353096259468      7.70504542196618
  Si          8.86100266765505     33.83351099370918      7.69183968461048
  Si          8.85746831394965     30.75540403185134      7.68900127405777
  O           4.85899693522134     30.01370964091474      8.32853044962620
  O           4.82512050391154     34.60533011482938      8.32545395394314
  O           7.46962352197738     34.61239516716068      8.10077076867681
  O           7.50395505737103     29.95344944067400      8.11617878683927
  O           6.17442368953708     27.65322834424988      8.31748529449903
  O           8.76885077205864     32.27836339045609      8.25756014243638
  O           5.90966176293329     29.12332660183815      6.10648006034434
  O           5.92738641013096     35.51963274047271      6.07921541603374
  O           8.95102345993606     33.74455784020649      6.05315824977932
  O           8.97660896876329     30.84128421344800      6.05714248648620
  Si          6.13350719032051     38.49381115511250      7.70600015700249
  Si          8.85983086558027     40.10733494248212      7.70309298884295
  O           4.93713367624601     39.36010551058877      8.40618825094747
  O           7.55067172203043     39.21386922729243      8.10353130219652
  O           6.17728001461783     36.94320056947646      8.26008534900751
  O           8.60170991640821     41.58475372618440      8.34895418232497
  O           5.95761501926400     38.45843008224961      6.08489939416472
  O           9.08512774875537     40.14067803786737      6.07959632430699
  Si         11.52827278545596     26.08253535242433      7.70324898638529
  Si         14.18978226818040     24.53103112768030      7.78940402440195
  O          10.18908207292057     25.35968554017806      8.29237414061719
  O          12.88605055991119     25.39638879304607      8.32591873899712
  O          13.98287519584698     23.03288338207983      8.38207985539134
  O          11.51164550627431     25.86577142704030      6.08518701106222
  O          14.16075633414777     24.56765605380739      6.15301215667061
  Si         11.52578273557489     29.24316839293098      7.67948328080737
  Al         11.61145758660747     35.39602039309499      7.73762007197157
  Si         14.26933229992196     33.81140763579058      7.77377000068031
  Si         14.19509953658749     30.75411740115101      7.68196669142586
  O          10.17326368694108     29.95970703914433      8.26349777439194
  O          10.11929991246877     34.62018171669342      8.28473375835883
  O          13.06445290335403     34.64406743719886      8.41672672972120
  O          12.87851075199473     29.95308390194289      8.25371528596956
  O          11.49671336133853     27.66495143623451      8.08728770261910
  O          14.33948779681156     32.24677909148863      8.30751302554465
  O          11.49185091895258     29.41342582548083      6.05056444137830
  O          11.78233942409730     35.10734109634007      5.99831480048077
  O          14.06715932740687     33.70878686558324      6.14139149828970
  O          13.98836723623049     30.88232527495926      6.05962276016286
  Si         11.60281162775996     38.65880241126936      7.72524311985391
  Si         14.33853817489384     40.08373213993647      7.81458410964489
  O          10.23910418545561     39.42606987227298      8.25583254296671
  O          12.94257559959960     39.40992804544844      8.33889001266845
  O          11.59324886035678     37.11520282738944      8.11928761058524
  O          14.56049564597829     41.58607583970232      8.41062242661198
  O          11.70358516588639     38.90349803100160      6.09545554644397
  O          14.35575272759851     40.04408719722159      6.17583637714442
  Si         16.90657485454279     26.02980666256166      7.81380487986145
  O          15.55477291438866     25.24908861157001      8.32056500931429
  O          18.18924040241920     25.27389437649803      8.47225925154083
  O          16.88930807253793     25.98474839004162      6.17759604290575
  Si         16.91299009250204     29.11349021798248      7.72176550029488
  Si         17.04221680862910     35.34959849093539      7.72321832232267
  Si         19.68766618260663     33.76865484663004      7.81061394621242
  Si         19.57654812552784     30.66969396968755      7.81546570691455
  O          15.51107957840098     29.87178100069968      8.03648895444281
  O          15.72670851670659     34.49118416222220      8.11576635392906
  O          18.36125606585015     34.58481777277813      8.32343959227297
  O          18.17639222218075     29.96800328208474      8.30550404736679
  O          16.85688509029364     27.58937876935885      8.30826376762623
  O          19.63343713162719     32.21893476194938      8.34803528946252
  O          17.10860122661817     28.94566354039856      6.10003800311217
  O          17.25135137558601     35.40183194415614      6.09726196632900
  O          19.66404926466302     33.71005102303815      6.17318708033105
  O          19.58286350038656     30.67598056671680      6.17655564588453
  Si         16.97478389124692     38.44240871839826      7.79901709386488
  O          15.63483742930686     39.21634904913699      8.33377020075128
  O          18.35015116628857     39.07246371205699      8.40459900591394
  O          16.93778333525477     36.87715600533530      8.29700994707795
  O          16.96542039766889     38.44506244484747      6.16036430547322
  O          20.78138299702071     29.76560777548152      8.43162141990274
  O          21.06734787053447     34.40722343458927      8.39712602323859
  H           4.07465743185984     24.98677204462287      8.03659115318524
  H           1.41040897013143     29.60201497419497      8.03674925504791
  H           1.41040896175761     35.00798498279124      8.03674925989909
  H           4.07465744170919     39.62322797307729      8.03659116166148
  H           8.94818085434854     22.17325475711587      8.03830169395674
  H           8.94818087375759     42.43674520952418      8.03830168462836
  H          14.27776167886394     22.17320383437701      8.03828220290549
  H          14.27776176225870     42.43679621444254      8.03828218821636
  H          18.96055653998753     24.87622769289170      8.03640575772534
  H          18.96055653972171     39.73377222861347      8.03640577925290
  H          21.62471723291752     29.49141992853355      8.03658340820601
  H          21.62471724083704     35.11858007683705      8.03658340905641
  H          13.22696851572992     34.18098391230166      5.89322039200403
  H          11.00556578931910     34.69850929812787      5.60302879458629
  H           8.94762222280792     32.83714421202417      5.71396863204167
  H           9.76021499151569     30.39585879528698      5.69660313098349
  H          12.26304555913651     29.88954686218579      5.69903863800344
  H          13.98646369480791     31.81683637654098      5.77450580612788
  H          13.52024603717267     39.72073053320668      5.79922885564240
  H          10.90908213440905     39.30036720748128      5.70968166262453
  H           8.33279558994686     40.32595545430716      5.51065265689956
  H           5.91480614568912     37.56302568091280      5.71765497445813
  H           5.21264818016138     34.97668437662236      5.71664725056945
  H           3.43615136280938     32.97132099445941      5.79412784921429
  H           4.10761148950681     30.25940267359988      5.76336757961933
  H           6.02456546936978     28.24852187466607      5.70954019033948
  H           6.83614043625872     25.64063401934682      5.74084379980107
  H           9.60576518440490     24.83473496387754      5.73180143581663
  H          12.33051855215819     25.50807080166281      5.71118264945246
  H          14.92261955533818     25.00372011348301      5.74589842640796
  H          17.03229623874849     26.84781303165000      5.76098429049681
  H          17.81010532493008     29.49176541393766      5.71888219574114
  H          19.58588033008638     31.55939232892101      5.78103516832100
  H          18.96927530498003     34.25127780597866      5.76860201717245
  H          17.13683124331649     36.27433645246145      5.69701878099228
  H          16.19195371066656     38.87392516057981      5.76764455484606
  P          13.79123931674181     26.62996733434053     12.05391630551827
  O          16.39175585527863     29.29105577223905     10.86143714654428
  O          19.32439848538271     29.32316858247205     11.69069800224990
  O          18.36378907156657     31.57843484392575     12.70222299557926
  O          15.38421900346551     26.73324045060662     11.73569737795987
  O          16.63981009702171     33.24572083397345     11.50960772289882
  O          13.09196026227003     27.80327090966058     11.44826742311343
  O          13.59965514705488     26.31286041437648     13.49625163839515
  O          13.45883925361782     25.30425623326737     11.20113611342948
  N          15.39966331022385     31.35473625990533     11.35865921062592
  N          14.38489091436611     33.47634340591554     11.51403317599247
  N          12.11150922369901     33.66093276084176     11.58776741498659
  C          18.14070999933323     29.19169552989918     12.44425874743434
  C          17.43740176677960     30.53878687161364     12.55678756714276
  C          17.12794090139002     28.36275276614212     11.67259069853015
  C          16.65557009956169     30.60418704233351     11.23942974368322
  C          16.18863272537696     27.56827995082288     12.55037280082182
  C          14.19659943758217     30.74377760338191     11.39409804922509
  C          15.50281703088653     32.74022124286212     11.46230355427487
  C          13.06031044816357     31.47014101165631     11.48876361147497
  C          13.19598096242463     32.88236939342169     11.52260753726436
  H          18.35430107612126     28.75917126207642     13.42768048689632
  H          16.72572926834193     30.50965518295978     13.39142215785597
  H          17.64347759782666     27.68064424968344     10.99245383287871
  H          17.24802740129225     31.11418953010236     10.47382104573562
  H          15.57468451278334     28.24374107381786     13.15536519004555
  H          16.77835708561463     26.94601429910972     13.23155929788044
  H          19.62993681516217     30.23118424642819     11.83451721651928
  H          17.92757635193588     32.36041608394635     12.29725273775654
  H          14.18359702582627     29.66125999018633     11.33246488016979
  H          12.09259467975372     30.98935333937172     11.50346637117179
  H          11.19269177002550     33.26558893859470     11.48949399016682
  H          12.21665452183580     34.65681239886200     11.49103471451770
  H          13.18002528132417     25.51856837111152     10.29877324418140
