162
2 Eopt=-407.5149564149 (Eh) Einter=-7.132627 (kcal/mol)
Si 3.55624976525632696678 33.84481349681072970270 7.82283060999360646548
Si 3.55593594194055384605 30.76681384031892818598 7.82283164997123225959
O  2.14730567171894115575 34.47995715565507168776 8.40980822523595072937
O  2.14686237745491226292 30.13195800346561625815 8.40980962981389801314
O  3.71008473881020961471 32.30579811571641357659 8.41283332430060326601
O  3.55527639238766024476 33.84681298636772339705 6.16683050302403223952
O  3.55496208830994131489 30.76481344362103698131 6.16683146902346468465
Si 6.21946582721107699143 26.15154206313341944679 7.82287394779791078747
Si 8.88330933198099259585 24.61427032053314789550 7.82291547915416707326
O  4.81039181750665534310 25.51668624030246945722 8.40985212256841307976
O  7.47536478994383468688 25.24941401748001723604 8.40989360420471143698
O  9.03814359906961684032 23.07525462512260006065 8.41291817136291797397
O  6.21949137646459604412 26.14954190954154356064 6.16687394242676489853
O  8.88333528419542872712 24.61627018110797138206 6.16691554811387732116
Si 6.21977957305042572500 29.22954212073642210612 7.82287343030075899009
Si 6.22040692490122193448 35.38154178302914942833 7.82287168457656800769
Si 8.88425011216166993222 33.84427027752686711892 7.82291383941870943630
Si 8.88393629959985275946 30.76627045291791517911 7.82291461905280627320
O  4.81083521946485070941 29.86468575156134974691 8.40985127403891397080
O  4.81133302428915232696 34.74668571943686146142 8.40984986957412594677
O  7.47630572916442304177 34.47941393230186690744 8.40989155147200584395
O  7.47586242895516317475 30.13141395299360425497 8.40989282321376130369
O  6.37361359293422768957 27.69052641596638864030 8.41287611977064742064
O  9.03908398472512786270 32.30525461711584966906 8.41291662724957767239
O  6.21980563212188108935 29.23154159989096001482 6.16687340180819631996
O  6.22043261218829446335 35.37954120147920633599 6.16687164056749548280
O  8.88427615192275510481 33.84626968160425519727 6.16691374042044948567
O  8.88396188390842844740 30.76426989637123554644 6.16691460988034023671
Si 6.22072075280896630289 38.45954160479988104271 7.82287044133274367397
Si 8.88487749765144485536 39.99627009492456153339 7.82291135253966185559
O  4.81177610471581562734 39.09468497615745263829 8.40984815267589880250
O  7.47680356670406975894 39.36141385641545298313 8.40988966430820994447
O  6.37455462801569971987 36.92052623272937239562 8.41287351717264009210
O  9.04002569356974206016 41.53525449279167958139 8.41291308199446241645
O  6.22074678609436659826 38.46154080414893883244 6.16687044008590135036
O  8.88490322635051477107 39.99426934446928783018 6.16691135396273715230
Si 11.54846569448714355133 26.15099868613458511390 7.82295698616065759978
Si 14.21330911964952292692 24.61372706443452784697 7.82299880193809116236
O  10.13939194520580677761 25.51614234768723932234 8.40993507801156425785
O  12.80436467935738242829 25.24887074470461101328 8.40997671122761758511
O  14.36714370460587630873 23.07471155896752179615 8.41300136512908913744
O  11.54849139360626786299 26.14899848533731585576 6.16695698377581802418
O  14.21233530837742797814 24.61572701657227923988 6.16699877906574656095
Si 11.54877949164399275617 29.22899877718441530305 7.82295652098513905059
Si 11.54940671273887531356 35.38099856768113227190 7.82295477802265182277
Si 14.21424991891879408001 33.84372686420347520198 7.82299679222739552387
Si 14.21393599831278109491 30.76572701163883394315 7.82299767506920584736
O  10.13983500663164605271 29.86414223964516168053 8.40993437692627487934
O  10.14033293390030010528 34.74614231059280200498 8.40993306530208784011
O  12.80530559037824644975 34.47887069293188488928 8.40997470243167377646
O  12.80486223177010352003 30.13087063402728205119 8.40997591783357911766
O  11.70261345913273132169 27.68998302993479043721 8.41295918545338672345
O  14.36808381000540180139 32.30471137502620848636 8.41299967722324559816
O  11.54880547907901799931 29.23099825676422369725 6.16695650151815932816
O  11.54943234627077508492 35.37899792364565598746 6.16695480765250358957
O  14.21327586980924628790 33.84572642301930045505 6.16699678867765221923
O  14.21296159431606476176 30.76372663487516945224 6.16699767076373106534
Si 11.54972066153096932339 38.45899842330811679858 7.82295359007005774998
Si 14.21487736321165584741 39.99572668105665229632 7.82299441666377948223
O  10.14077630305088639773 39.09414231260527827772 8.40993138160268571824
O  12.80580347555577525043 39.36087061016424826221 8.40997276940037785664
O  11.70355452171532739669 36.91998300166067537020 8.41295663704518226211
O  14.36902550975857195681 41.53471112716853497204 8.41299610069993697437
O  11.54974665184742832480 38.46099771277399526070 6.16695359182712721235
O  14.21390301139586043178 39.99372599735684019606 6.16699440372666973786
Si 16.87746539881422336293 26.15045546632851625191 7.82304011512064789713
O  15.46839169308174177786 25.51559922089898080344 8.41001837066169244395
O  18.13336401839488942755 25.24832717934950565564 8.41005977564212692243
O  16.87749085119207137495 26.14845510312971299527 6.16704011563697296339
Si 16.87777918305119939646 29.22845538565534795339 7.82303948281293060063
Si 16.87840650322536362182 35.38045526444089716733 7.82303765205919177106
Si 19.54224960112047781990 33.84318370397262043525 7.82307943841286412834
Si 19.54193572688925684133 30.76518362631488656689 7.82308037183359861189
O  15.46883485706807981330 29.86359914088336608984 8.41001744976603404780
O  15.46933269441091773899 34.74559913144697986809 8.41001601656770958471
O  18.13430534008983840977 34.47832742255250337848 8.41005747995296992769
O  18.13386196456738375105 30.13032742323068191581 8.41005878981420984530
O  17.03161313629045281459 27.68943984273371228255 8.41304221850880828981
O  19.69708354192544064176 32.30416803748421017417 8.41308232700274594151
O  16.87780510970914349400 29.23045500109845917791 6.16703947905777027927
O  16.87843199480386502387 35.37845465782581300118 6.16703765303959627886
O  19.54227535981175023494 33.84518324052866233842 6.16707943895715882121
O  19.54196110421010601499 30.76318307949068042717 6.16708037343735959723
Si 16.87872042438505459927 38.45845522737970156868 7.82303645987041562648
O  15.46977615195501698508 39.09359903599573726751 8.41001439894092328586
O  18.13480302895472107139 39.36032777518014569296 8.41005555181184583091
O  17.03255432202972841083 36.91943977559215994688 8.41303947267376983632
O  16.87874623730649759068 38.46045460971977547615 6.16703645978158654373
O  20.79783428544873657984 29.86305522788129707124 8.41010005811170380241
O  20.79833211797613401473 34.74505628357657371907 8.41009857319311748824
H  4.07465744744193614224 24.98677204879621172040 8.03659115586674488441
H  1.41040895535598842514 29.60201498195186786688 8.03674925400773432216
H  1.41040899374038630754 35.00798495725993575434 8.03674925571510634370
H  4.07465743682062697673 39.62322797223353632035 8.03659115985183092334
H  8.94818101052671721618 22.17325472591947743695 8.03830161993021086175
H  8.94818087847187904060 42.43674530329037253296 8.03830168070778583456
H  14.27776170340745665044 22.17320384734188110087 8.03828218519210579984
H  14.27776173663309222661 42.43679617065749454241 8.03828218736688882018
H  18.96055658442586278056 24.87622777370325621860 8.03640577879169626385
H  18.96055653554937947547 39.73377222680755949114 8.03640577820287482780
H  21.62471723048024685454 29.49141993178673004650 8.03658340889848332722
H  21.62471723467449180589 35.11858007489843203075 8.03658341023158229177
H  13.43954240793147292266 34.27033906307815414038 5.76911863059744334237
H  10.79702478237696361418 34.91824968124627304178 5.76839602420960506635
H  8.90770701644674822717 32.96594596998454562709 5.76499475768948865806
H  9.65945432969839323789 30.34299409857214158137 5.76888004971324619419
H  12.30259136517801010768 29.68912270232344852161 5.76803922778411060079
H  14.18560353493650794121 31.64418152268655859416 5.76552258499025160887
H  13.46208429075994494895 39.53603768270581042543 5.76468154377160413304
H  10.78553467853494751694 38.90473306642681450285 5.77122838965844309200
H  8.14831461436779491692 39.50994490511769186014 5.76699955036133360409
H  6.23317386307889975683 37.58286576013109936412 5.76180503558003120901
H  5.45415702293879700591 34.93908512021273793380 5.77152547814741723187
H  3.60566384265746719961 32.96814933703832650735 5.76410508659614428950
H  4.32812544172124180619 30.34544673792240132570 5.76331957033420305692
H  6.21212641883355143335 28.34933202215146508252 5.76816828917363810802
H  7.00946743890459789128 25.75759721892288922618 5.76754704213982272165
H  9.64012207599296822025 25.06582757924035931296 5.76488469589919194647
H  12.31500792427217305658 25.70853944654779610346 5.77192568332285738109
H  14.95343799201109291630 25.09203406430048488573 5.76610003244062419014
H  16.85241664032116304384 27.02653749650422554396 5.76116217511047778999
H  17.64630213462789498635 29.66655897690045406989 5.77122747368296984405
H  19.48194550111165312956 31.64158903778152520658 5.76482831987153154785
H  18.77355784224303647534 34.27390176181940972810 5.76498788531208550268
H  16.88031298491520715288 36.26100719838333930056 5.76894103312133310624
H  16.09309773711095203907 38.86024083763603442776 5.76722976406363407875
P  4.97566998182636233139 32.55584516915904202961 12.49217904114167865259
O  5.46075310380771838936 33.65228886874781721872 13.36844601263122100931
O  4.02715265902295627143 31.51318689319151999939 12.94908080646713344208
O  4.40115268496289768763 33.24971986385921240981 11.10670547906106619962
O  6.30415473758772471058 31.73615961030699494927 11.83859318937733640098
C  7.23419676396179234246 32.56998462036521857499 11.23792758652075463033
C  8.16546833497782564848 33.24267140736895242981 12.25464925879364486150
O  8.95647484925440373615 32.33049006827907589923 13.03083486408320368355
C  9.20637901900514066256 34.12520346926262249099 11.56064099196201055975
O  9.67254752859255440001 35.17326349924273642955 12.37025550350611879935
C  10.34087829030715610656 33.10175807596971253588 11.26198868126184038374
O  11.62527389389041587719 33.65296837418900111061 11.36354841925201242248
C  10.14720497522210429509 32.04481793583558157934 12.37326620728961401596
N  10.16403934502692152364 30.67796829289662952078 11.88708331611854518428
C  9.11422795325324841542 29.80890049230229266186 11.74103453949831887826
N  9.47714331314005775653 28.59491177574364328962 11.45488346918684996467
C  10.84669470129675161729 28.63246813533172741018 11.39732945204128888861
C  11.84240515956892458860 27.66529843255950282810 11.20342256329922037139
N  11.56317074592859128757 26.33678410610714593076 11.08492693705724541076
N  13.11978853259502031392 28.04822473637477386887 11.23812743788058199357
C  13.40065747025275300075 29.32319813466989089079 11.47025027544021114068
N  12.56955851238129362457 30.31479548323290273970 11.71643875413143831565
C  11.29061076984469025319 29.94252061848774459918 11.66411067720773431233
H  4.01988290761044808619 32.53832565997129933066 10.59967833121549318776
H  7.80726389736151737964 31.97244809018878441975 10.51770516172264002819
H  6.72466268383599619085 33.37735003086825713581 10.69684780519954969691
H  7.51807604691447384226 33.76326858040883394096 12.96857445733081704020
H  8.82391396402433514368 34.58856887860606832419 10.65269451821266599723
H  9.93655065161955342035 34.78999104604424985610 13.21543987128454133995
H  10.18286787809487137224 32.63827603994300829982 10.28505480186335852011
H  11.76434039443677370684 34.25424444661963008230 10.62431394359657588211
H  10.98947688429003477495 32.11974790549409419782 13.08031725850687720936
H  8.09648135252545131380 30.11364439855908514687 11.89390202076914349050
H  10.62756402597740645888 26.13292203791938561608 10.77101944905371233574
H  12.30001137706466707300 25.78650840782098185855 10.67316772175580474880
H  14.45331906009246125677 29.57315088392633484204 11.47771898927330269657
