163
Coordinates from ORCA-job /data/Seafile/gmp/frames/frame15/dry/gmp_frame15_dry E -13539.466987179558
  Si          3.56109712830858     33.97715961669918      7.87008659830852
  Si          3.43168316760489     30.88329106926441      7.86633516934216
  O           2.31652227087258     34.92153577120354      8.35981521258628
  O           2.06228839982427     30.19237785705345      8.43992646054347
  O           3.41071778399793     32.42886727202272      8.37218480848421
  O           3.64427475639485     33.91723038977884      6.21873802221819
  O           3.46371267874130     30.92861783271680      6.21922552229374
  Si          6.11775194250557     26.19017805625543      7.82337248236917
  Si          8.76197528994281     24.55588814515452      7.83624632469940
  O           4.72347543970766     25.59013137482831      8.41981575712452
  O           7.42412003301730     25.34145206869489      8.33879629831108
  O           8.67002921296300     23.02634183052937      8.40454348307813
  O           6.13504942484875     26.14457994848550      6.17566005884915
  O           8.75778989130259     24.59861588195552      6.19111240330148
  Si          6.05943436273863     29.27761040156579      7.70407967316226
  Si          6.19756937688202     35.55495523520059      7.82570127954751
  Si          8.93534885973507     33.95686456005230      7.76083871590682
  Si          8.84112154171916     30.87087519153369      7.69709026211768
  O           4.75764783616673     30.03320994191936      8.34577729089702
  O           4.89599714944678     34.75636613586597      8.37411113186667
  O           7.62166934699933     34.82884074275974      8.11377202473448
  O           7.45570788316951     30.05591526952514      7.90465602422965
  O           6.20201730470087     27.74883669671953      8.28184102542315
  O           8.89959141995071     32.40365154334292      8.21314022136937
  O           5.69927291377321     29.15568962720352      6.09588864994062
  O           6.00496606673614     35.72602122174062      6.19046507710987
  O           9.18420827958399     33.93200318121671      6.11954845793402
  O           9.08287528897792     31.02412457323591      6.06280497279957
  Si          6.26274552634637     38.63469951856875      7.85233993691696
  Si          9.00772223962889     40.05892255886908      7.83340594386274
  O           4.99478647719086     39.54818597897616      8.33178972903580
  O           7.59838562445017     39.44263970721692      8.35923412594985
  O           6.23642042400475     37.09583624105826      8.38780226281559
  O           9.33214990280640     41.58918910733917      8.29455013683995
  O           6.38359205818595     38.56704515591350      6.20669833146508
  O           8.99943144363549     39.93383053497067      6.18506219141928
  Si         11.45308159573599     26.06477004768053      7.76120470372776
  Si         14.13637951182317     24.54486991275390      7.83082041241301
  O          10.11545665156949     25.33456975267415      8.34377167013653
  O          12.82589344565636     25.37994812980941      8.32946150487815
  O          13.93191926934279     23.01598805533295      8.36157952452505
  O          11.40316352480755     25.80632446487378      6.13632591301005
  O          14.17612957043267     24.61725538428800      6.18619779950960
  Si         11.46419740775515     29.23849988441828      7.71571386670217
  Si         11.64560050183494     35.37376329716108      7.78701858201433
  Si         14.24525778894851     33.77137632687806      7.79565262248887
  Si         14.15836157157440     30.71320412945309      7.77014241478832
  O          10.11637561720326     29.96750401437675      8.24466956213622
  O          10.26078235657418     34.74848977099082      8.34601081805274
  O          12.99235247270844     34.62968212875716      8.36965170527714
  O          12.83430023779233     29.93032306965348      8.32040652018264
  O          11.43812846372483     27.65242586193457      8.10728474970379
  O          14.28268167861434     32.23375182915564      8.36769498726880
  O          11.51634886621548     29.40432138665312      6.08358799800055
  O          11.69538654108839     35.11028056634067      6.16048457096117
  O          14.07285597745224     33.64709650593804      6.16582003618605
  O          14.00079586949805     30.82583591930753      6.13996000233228
  Si         11.68339106031326     38.55596399985999      7.77108217863640
  Si         14.37833343401981     40.05361446473380      7.82157378018239
  O          10.31277045153207     39.19828882866757      8.33096618675119
  O          13.02968321433105     39.30934409581319      8.36886545397463
  O          11.77816087480962     36.96992928241697      8.09365802624674
  O          14.56241166043284     41.57521380226504      8.37279369015648
  O          11.76838832908880     38.84113277330462      6.14957254901173
  O          14.39026185223761     39.95081561811341      6.18356397793276
  Si         16.86318604662411     26.01302873865541      7.87705945255903
  O          15.51709446907404     25.23333588162049      8.37615571860182
  O          18.14521950027268     25.18593835870750      8.45497042132597
  O          16.81739686366115     26.02912041449758      6.23219963588994
  Si         16.88958215499813     29.09440460904558      7.80187799906934
  Si         17.01861095058058     35.32176467822094      7.79449280282427
  Si         19.66602078727930     33.74574267753196      7.85433447253952
  Si         19.54482720548963     30.65088274658601      7.84963091230853
  O          15.49415931300848     29.85407397277827      8.14432380007542
  O          15.66255160015578     34.50427093115806      8.15787291221720
  O          18.32639125872952     34.53186648277671      8.37721242886381
  O          18.15498288101446     29.95948314373211      8.36568315556310
  O          16.85545417561060     27.56978968425389      8.38939170884162
  O          19.67017470902665     32.19480996295069      8.37683299260806
  O          17.09012213317982     28.91193646433444      6.17844973641073
  O          17.26306918356938     35.39485472802811      6.16996770047679
  O          19.59007772121687     33.68293022553542      6.21164811139115
  O          19.48519663344130     30.70252134326613      6.20487850251747
  Si         16.99008507070637     38.39914239266842      7.82473620292879
  O          15.69948822573517     39.24375905443908      8.36821181893121
  O          18.42344327257395     38.98620226584172      8.33384066281670
  O          16.92655242727706     36.85294789578369      8.36006280427338
  O          16.89188857112845     38.35524559792160      6.18348730232086
  O          20.74429941603745     29.68553279305388      8.38383160368926
  O          21.05370406188497     34.41835961370337      8.38672669561204
  H           4.07465729735760     24.98677196532425      8.03659113996492
  H           1.41040892623057     29.60201496083635      8.03674924263017
  H           1.41040934519172     35.00798484393174      8.03674929426110
  H           4.07465743046311     39.62322798091719      8.03659115400463
  H           8.94818083842588     22.17325479799145      8.03830169219048
  H           8.94818087268948     42.43674530982960      8.03830168043352
  H          14.27776169885477     22.17320387948617      8.03828218821968
  H          14.27776171864408     42.43679619477206      8.03828217987411
  H          18.96055651547569     24.87622781372418      8.03640578737564
  H          18.96055653516492     39.73377222700351      8.03640577784538
  H          21.62471719521371     29.49141994556197      8.03658340790240
  H          21.62471721977290     35.11858007058991      8.03658341194914
  H          13.28429157486450     34.13709882537101      5.85981979907193
  H          10.84743917955057     34.73110730534808      5.85162169004576
  H           9.11771570580481     33.02464450737923      5.77919330864198
  H           9.79150462696370     30.46253671039443      5.72262232034966
  H          12.32649483520749     29.83766245273456      5.77237568013860
  H          14.03963145440623     31.74769111022147      5.82953933788745
  H          13.54096388229575     39.62654798674080      5.83398859348982
  H          10.91932973959164     39.13242473739693      5.78252546152675
  H           8.19871428306114     39.48970337390858      5.86258141524058
  H           6.23655251665792     37.66448470710072      5.87542247495063
  H           5.30961465527441     35.15280374810682      5.83773940460147
  H           3.61398465022159     33.00954116345974      5.88397711951802
  H           4.13651552404318     30.33627157984969      5.84707145256565
  H           5.87827304065453     28.28498265879903      5.72089879455600
  H           6.90347454270144     25.67729845910642      5.82070011968341
  H           9.58465609181922     24.94668499337014      5.82387127109222
  H          12.24580202637035     25.52683193747364      5.75600500767982
  H          14.97629558614928     25.04514336126434      5.84870639569239
  H          16.94966889629726     26.91759702682926      5.86517540900625
  H          17.75376362369212     29.50279422907302      5.79749984067338
  H          19.52009990664590     31.60664928681673      5.85853888052433
  H          18.88603366558187     34.24274623604239      5.84752285819359
  H          17.07262060879010     36.25943211539050      5.78113522384761
  H          16.12004472233387     38.82989691300562      5.83849504318720
  P           6.73506120790886     31.86833273459369     10.82513123092560
  O          10.30635046867869     32.58819933737805     10.86018979801409
  O          11.83678434548908     33.22941947411438     14.03163509405044
  O          12.54049354578622     31.10669498153660     12.49112893585313
  O           8.09641759185407     30.95749760615259     10.55645277306860
  O           7.00656084442301     32.72950331598302     12.00208318965178
  O           5.68256026181686     30.72198120776408     11.29857503347634
  O           9.82154378232595     39.31869384081380     11.40845404056762
  O           6.32571325958998     32.36611108133331      9.49202274082738
  N          10.30728441324665     34.75643806171831     11.70367413619373
  N           8.77271805679496     36.37322026301243     11.73169166812622
  N          12.31000843452134     36.03020373716520     11.28915378826138
  N          11.84370102489127     38.31667051701640     11.13653069916981
  N          14.02500360871242     37.53084436268677     10.90850919800896
  C          10.90303211968113     32.76157361671847     13.10842640222727
  C          11.14373939367471     31.31914737387423     12.66265783589991
  C          10.93384074053884     33.47047836082570     11.75335263495799
  C          10.34388019894205     31.25507340904073     11.37439334075775
  C           8.94634409035373     30.71384786914602     11.63689009377077
  C          10.98019739411463     35.92192859008900     11.50037770533653
  C           8.96814531739720     35.08797013067537     11.83023846023317
  C          10.01693068948932     36.91874182476533     11.52763669668573
  C          10.43759911281859     38.27418146507019     11.37078132399509
  C          12.69496400318237     37.25679376201616     11.10562349038806
  H           9.90512605322229     32.86368822012857     13.54266683202417
  H          10.80255190659003     30.59174684937809     13.40172794709905
  H          11.97855362749223     33.65671760532813     11.46814550383697
  H          10.84413234667853     30.62883991511295     10.62787519638850
  H           8.53707756355015     31.17668686411538     12.54037815528637
  H           9.03450914146795     29.63171024809336     11.80520723232674
  H          12.67960462664435     32.83614190368671     13.77073549940793
  H          12.76066127718410     31.24411470813349     11.56557747461255
  H           8.20367190664798     34.32008020238206     11.95118627443080
  H          12.21029189736888     39.25148798145090     11.03893055898782
  H          14.22971694481171     38.27218802679074     10.25700656484381
  H          14.55222410189793     36.69260073977447     10.71931079006423
  H           5.21149206865896     30.41670319987689     10.51633019300884
