163
Coordinates from ORCA-job gmp_frame15 E -13539.721436809808
  Si          3.50667989338331     33.90307633355449      7.79973931806662
  Si          3.46049344532685     30.79375022730272      7.80236091575198
  O           2.28196539952532     34.78662034482200      8.40761871054795
  O           2.16636844797752     30.05047909678824      8.45444337141497
  O           3.47799265543600     32.35047812760146      8.32240994846946
  O           3.52440780293437     33.90585406229616      6.16115756804191
  O           3.42187092241499     30.84882664161192      6.16649189342954
  Si          6.14858318198513     26.13440841809451      7.79527724071364
  Si          8.82980146172564     24.54719485411256      7.79342841569638
  O           4.80158284347581     25.48930043201460      8.44259523771259
  O           7.48968115615112     25.34372881667346      8.30797331132720
  O           8.78798406571809     23.04946881146205      8.43403430378662
  O           6.12143299960955     26.13456935104206      6.15769666915593
  O           8.78650798746836     24.54071147598734      6.15776794726144
  Si          6.12805665119222     29.22399434912017      7.68447645509475
  Si          6.16604490418795     35.46527940110325      7.71232743252674
  Si          8.89280665202469     33.87707158699607      7.64765003320339
  Si          8.86794984030326     30.79911328145261      7.63617708801771
  O           4.83953380270183     30.03735404402512      8.27830058652602
  O           4.89123565233134     34.63385294214185      8.30557602859286
  O           7.55676409144020     34.69611898430455      8.09298070561066
  O           7.49236130421239     30.03876426934288      8.06019395244748
  O           6.21435721590441     27.70535538385981      8.28006330156637
  O           8.82143618218754     32.33816563833563      8.18920985804339
  O           5.91532426779610     29.16203631752433      6.06321589381897
  O           6.00963203569650     35.60637105072669      6.08931610525588
  O           9.04261536858182     33.85229407853679      6.01627590075085
  O           8.99094098008599     30.90796656805559      6.00645759490390
  Si          6.19886402279976     38.55788813421132      7.79629802407752
  Si          8.92327339505050     40.06696451040596      7.79394999434820
  O           4.93319289426428     39.37093060254585      8.42280686498655
  O           7.56308277224519     39.31281285533187      8.31141159889002
  O           6.22253079183177     36.99121499877432      8.29958606318601
  O           9.06878442885606     41.55644358054533      8.43411820005816
  O           6.22455438778525     38.58284623753914      6.16015050361703
  O           8.92931875009016     40.08936386324140      6.15638441088415
  Si         11.51676820334287     26.08185108144356      7.69493559626156
  Si         14.19404739973078     24.53843066076302      7.78591754299182
  O          10.16763757151183     25.37055260776532      8.28543241643716
  O          12.87367626734635     25.38729074650235      8.28015723309220
  O          14.02232322893273     23.04014221963091      8.39818389905578
  O          11.46126553740889     25.88828004139788      6.07134556542981
  O          14.19724863695594     24.54236060284456      6.14818927861413
  Si         11.52410838944034     29.24036282294522      7.65199253527424
  Si         11.57088194615263     35.37247095261107      7.64093220163077
  Si         14.22546039270951     33.81520305664515      7.64430237670411
  Si         14.19379315645667     30.75018647400652      7.67024278783085
  O          10.16372452573153     29.96718849316706      8.19868930376061
  O          10.21106672697520     34.66798914722837      8.21875064378308
  O          12.91438792951549     34.61743822877222      8.19131333203044
  O          12.87052005909294     29.96909003334315      8.26598052589863
  O          11.49773919504980     27.67084320682550      8.08553309939740
  O          14.26861126338102     32.28405097982518      8.23457444227226
  O          11.52732611185352     29.39869991692795      6.02714692852040
  O          11.59578854373925     35.22651148614584      6.01135183221356
  O          14.11936296324051     33.68010152671670      6.01575744317238
  O          14.02615317342151     30.78498812094699      6.04425673755739
  Si         11.60675449185508     38.52723144533329      7.69798960241355
  Si         14.28822891002956     40.06296138467471      7.81244459319657
  O          10.24486059868774     39.21437055647830      8.27709827483238
  O          12.95555363364583     39.23411170294410      8.29827865978961
  O          11.62823619502622     36.93976930481830      8.07959051400001
  O          14.27800520275602     41.55751430790325      8.45620038519050
  O          11.67396451959814     38.73748060732289      6.07639714216958
  O          14.36083888417861     40.05678321284018      6.17737012976346
  Si         16.90490528058677     26.06130005251448      7.80812817065481
  O          15.55458710878795     25.28050479399548      8.31847657955182
  O          18.20830682342507     25.33042831910500      8.45500211469809
  O          16.87824110682410     26.01727682428405      6.17231891455444
  Si         16.91665679622148     29.15227172454787      7.71530690087725
  Si         16.96717529621788     35.38591817305004      7.68218223107456
  Si         19.63570949019930     33.81921433224867      7.78832679856128
  Si         19.58484351382840     30.70345340467532      7.80422749390683
  O          15.52622826955565     29.92368069782366      8.10136367023778
  O          15.59821514581849     34.58094134492977      8.07175846317666
  O          18.25525194799231     34.57231400554228      8.27545305702417
  O          18.19205292598787     29.98343481540146      8.30725124940091
  O          16.84956349297550     27.62863928597759      8.30443021532106
  O          19.61211859394271     32.26223887322131      8.30892890490911
  O          17.06945334482530     29.01364615429053      6.09282788596003
  O          17.17131639691988     35.44036305224804      6.06106821838221
  O          19.66306648760593     33.77724618057331      6.15312476077562
  O          19.57527086128445     30.67112061860367      6.16632150776337
  Si         16.95518025137936     38.47604994017562      7.78611458004713
  O          15.63284015463620     39.27628674813111      8.34165437575887
  O          18.34179457872423     39.07281704083480      8.39182658835724
  O          16.88741807850795     36.90621854107950      8.27764896728847
  O          16.92722495848935     38.48663268746338      6.15067850476304
  O          20.81698072019109     29.85208001640657      8.44117333606671
  O          20.95594169419933     34.52753220440118      8.42815282614651
  H           4.07465742650590     24.98677204763640      8.03659115500023
  H           1.41040891921241     29.60201495223095      8.03674924273532
  H           1.41040917473183     35.00798486308614      8.03674927930592
  H           4.07465743063518     39.62322797797163      8.03659115449391
  H           8.94818083578042     22.17325479398251      8.03830169198725
  H           8.94818087456910     42.43674531338119      8.03830168078634
  H          14.27776169954536     22.17320386442649      8.03828218694129
  H          14.27776173609305     42.43679616671893      8.03828218776242
  H          18.96055651129305     24.87622777995266      8.03640577958668
  H          18.96055653762808     39.73377222492083      8.03640577710076
  H          21.62471722344549     29.49141993138921      8.03658340911785
  H          21.62471722404459     35.11858007427149      8.03658341183321
  H          13.36327517502369     34.14881691756900      5.62948153625941
  H          10.80359363863021     34.80325448984379      5.64331095639316
  H           9.01478464039221     32.96145649130775      5.63394308847973
  H           9.75136424116800     30.44000287073498      5.62986011303494
  H          12.31656533790391     29.83775710850722      5.66947938507365
  H          14.04892637032689     31.67914891468422      5.66566509806804
  H          13.55165390565991     39.75414230424716      5.74037508631469
  H          10.86424104176653     39.08012318112531      5.67429994300266
  H           8.17158549299774     39.65348497085581      5.74341346236515
  H           6.10505000726626     37.71675024703044      5.74425018149740
  H           5.30534736498983     35.06783300973883      5.70135579120320
  H           3.50967337820961     33.02643536757984      5.75819052450530
  H           4.08963950568736     30.30006532849738      5.73121821863923
  H           6.02696161826797     28.28585659040294      5.66948418561956
  H           6.86278930062737     25.67623010649845      5.73969084523387
  H           9.58790002844632     24.87846577762755      5.73302413226243
  H          12.27265088078785     25.54667923212476      5.67127766646326
  H          14.95905828713265     24.98504091638880      5.74896925914065
  H          17.01875071904571     26.87349063693296      5.74359719425803
  H          17.77977019391346     29.54576121160715      5.70662948309401
  H          19.61346728897919     31.53876370942349      5.74172293411904
  H          18.97523007301170     34.30647238067098      5.72492671865011
  H          17.03630980122929     36.30665308637906      5.65381973467792
  H          16.15918057423730     38.93369035965010      5.76623699372322
  P           7.13045730649118     31.69570596835851     12.09924993583542
  O          11.05238566749380     32.05086229137400     10.62863133815570
  O          13.85352585477560     32.36201085907375     12.75994086511037
  O          13.19006334828408     30.08658357300423     11.47049559851467
  O           8.51519168410434     31.17416785086682     11.42792709345806
  O           7.43791244049246     32.69403834480087     13.16021815463454
  O           6.58960701187738     30.37661624070144     12.87210781387252
  O          10.60606502938345     38.69124912258904     11.78234617807073
  O           6.23618294586206     32.02865597569064     10.95814075985172
  N          11.37352171311917     34.18336745452317     11.48615426936805
  N           9.78422476416246     35.70573400093924     11.85965235716301
  N          13.28949979864628     35.61953055146179     11.15455594129777
  N          12.68242244478941     37.88664414165775     11.31514550075804
  N          14.86682194045173     37.27283591930510     10.87106115239970
  C          12.49681484904105     32.16336102322473     12.49863885430617
  C          12.14086380106847     30.70193858280452     12.19453737304918
  C          11.99073936529201     32.89258177290048     11.23850702764621
  C          10.86794054879503     30.84971759029424     11.38827309830513
  C           9.62846492000969     30.90521934449969     12.25513768632013
  C          11.98954816606685     35.39925258242292     11.40702793036530
  C          10.04985474811700     34.43190083773482     11.76206857985312
  C          10.98824035563165     36.33271000065625     11.63777726449907
  C          11.32416869885986     37.71359558459355     11.60346601395553
  C          13.59374350938339     36.89436088593332     11.10144358237294
  H          11.93377510171287     32.50938699210170     13.36823296818720
  H          11.99742302730907     30.12452679289784     13.10889205000813
  H          12.82926796599710     33.08328879277940     10.56313544710293
  H          10.75131118288197     30.03948544575227     10.66651986195366
  H           9.71730480256422     31.67423400072649     13.02933867778757
  H           9.51189156598744     29.93584083395719     12.75315285145633
  H          14.33080645229225     31.73788760914292     12.19348852007727
  H          13.03444308661984     30.18606316878955     10.52259612447579
  H           9.32834524902033     33.63667576591715     11.87347028901763
  H          12.99038789399661     38.84874282290856     11.26832865227738
  H          15.04979139891210     38.20475045616406     10.53552881789594
  H          15.47915600610883     36.55724897234145     10.51547563504843
  H           6.24089478127854     29.72733115590741     12.25028776300007
