160
1 Eopt=-403.6014252847 (Eh) Einter=-10.186766 (kcal/mol)
Si 3.55625019823114474349 33.84481352212799265544 7.82283052327132999437
Si 3.55593639322919496948 30.76681374891154874263 7.82283149591816595603
O  2.14730563616527980741 34.47995711993574019516 8.40980825164390921600
O  2.14686231983826303349 30.13195801644652149776 8.40980966037892940790
O  3.71008409433013586209 32.30579811983943017140 8.41283350943990093640
O  3.55527628730882216956 33.84681297575706082625 6.16683050728387716077
O  3.55496202329869515069 30.76481349824114985836 6.16683148089431742989
Si 6.21946585174229582549 26.15154206426582561562 7.82287394176332728790
Si 8.88330921161383280094 24.61427034351552833868 7.82291553876074008400
O  4.81039181920234870660 25.51668623371529065480 8.40985212646699054062
O  7.47536479416608656834 25.24941400859288265224 8.40989357721097441356
O  9.03814384326070907605 23.07525463771693097215 8.41291806435672206987
O  6.21949137422323694580 26.14954191196736132952 6.16687394249357367926
O  8.88333533058324142928 24.61627017865473021629 6.16691554259015806139
Si 6.21977960257484419060 29.22954199104399819475 7.82287340479187598419
Si 6.22040692406386774849 35.38154178386175630067 7.82287165078936830298
Si 8.88425012881799247566 33.84427022614998747940 7.82291376074479138936
Si 8.88393625257759467218 30.76627028779022055005 7.82291460061055055064
O  4.81083522066112756477 29.86468585857987179111 8.40985130310475526016
O  4.81133299313076712167 34.74668571276610862242 8.40984984574068761276
O  7.47630574209399423324 34.47941394163679262874 8.40989159524170659665
O  7.47586239152141551756 30.13141403776861437791 8.40989279764387731575
O  6.37361355221355729839 27.69052643020556558895 8.41287612244300220254
O  9.03908399857895261675 32.30525463169097122318 8.41291665791280784958
O  6.21980562007777226796 29.23154162435404046505 6.16687340502203440451
O  6.22043261196091989973 35.37954121077747515756 6.16687165171777351702
O  8.88427616461793689950 33.84626969430273391026 6.16691376461553986132
O  8.88396189858865348299 30.76426993610715854288 6.16691461285613051757
Si 6.22072074864351520773 38.45954160512049213594 7.82287044049176749638
Si 8.88487749800878034989 39.99627009479613093390 7.82291135286792016501
O  4.81177610574462732984 39.09468497610745174597 8.40984815249768224987
O  7.47680356750227925744 39.36141385652971536047 8.40988966412088601032
O  6.37455463175939751608 36.92052622847196374778 8.41287352595981197112
O  9.04002569364635277793 41.53525449281906389842 8.41291308192105447006
O  6.22074678692538540759 38.46154080483321990869 6.16687043972923110147
O  8.88490322599915138824 39.99426934457775217879 6.16691135396543010927
Si 11.54846584309488832787 26.15099866808733963808 7.82295698693215157959
Si 14.21330911872360402981 24.61372707700495610084 7.82299880149460413747
O  10.13939193103882985270 25.51614234744300802049 8.40993509094659508207
O  12.80436465317054839375 25.24887073670302228834 8.40997669276790738024
O  14.36714371946173862682 23.07471152229673094780 8.41300136405354948010
O  11.54849137336957198841 26.14899850324731289675 6.16695697494889749635
O  14.21233531128706140123 24.61572701387040140730 6.16699878067044338081
Si 11.54877946251093767671 29.22899874138030895665 7.82295644712021953637
Si 11.54940674363561292637 35.38099853542789219318 7.82295479851383035452
Si 14.21424990890406903077 33.84372683639673340394 7.82299682154223852137
Si 14.21393572756047873895 30.76572674803152906975 7.82299740987269309755
O  10.13983510994841097386 29.86414242268972429883 8.40993442241691724348
O  10.14033289262319748048 34.74614237199673993928 8.40993307022766600767
O  12.80530558643303962185 34.47887067238812619507 8.40997468176407281248
O  12.80486233363426684662 30.13087048581756022259 8.40997599812214424730
O  11.70261327516109517433 27.68998306706112089159 8.41295919056386765078
O  14.36808385436702018012 32.30471141245353550175 8.41299971996473061608
O  11.54880549787294263808 29.23099823420506027105 6.16695650692996899522
O  11.54943233919312106650 35.37899793484989885428 6.16695480271476270673
O  14.21327587118117818932 33.84572642401757036623 6.16699677993719141966
O  14.21296160053967128079 30.76372667694536744420 6.16699772212553831707
Si 11.54972065704561146049 38.45899842484138275722 7.82295359217382291206
Si 14.21487735430983612162 39.99572667035542394842 7.82299441754177049546
O  10.14077630378684524715 39.09414231224365465778 8.40993138107370619139
O  12.80580347711650190945 39.36087061215710036777 8.40997276726004727720
O  11.70355452407241081403 36.91998300191551152238 8.41295663545379746040
O  14.36902552325808635203 41.53471116414143438078 8.41299609778383050696
O  11.54974665248968612730 38.46099771188688976054 6.16695359145004928791
O  14.21390301439362602309 39.99372599911620795865 6.16699440303395540752
Si 16.87746542395309745643 26.15045546680711652243 7.82304009963840396580
O  15.46839169074508113511 25.51559922553042270010 8.41001837214944458765
O  18.13336401926826368936 25.24832718298736722318 8.41005977734829102133
O  16.87749084845746239125 26.14845510066766109958 6.16704011870643853399
Si 16.87777897193592480107 29.22845510831069049118 7.82303924267476347154
Si 16.87840651507990941127 35.38045523140417003560 7.82303766806474509821
Si 19.54224959508003323094 33.84318370140755405373 7.82307944120299847413
Si 19.54193572364734876601 30.76518363541206468881 7.82308036540323747943
O  15.46883517954239373182 29.86359965777087310812 8.41001772209956932613
O  15.46933267226704877828 34.74559917291663424521 8.41001600064184273720
O  18.13430534105943081613 34.47832742732880717540 8.41005747420403082515
O  18.13386200104975642944 30.13032739826493866531 8.41005885827559573897
O  17.03161310493553060041 27.68943984389380830180 8.41304224393576305374
O  19.69708354198618138753 32.30416803996612173933 8.41308232376637477046
O  16.87780516129704011519 29.23045500434229992948 6.16703952205810068676
O  16.87843199391931747755 35.37845466491779689022 6.16703765075481236124
O  19.54227536159681477557 33.84518324273955158787 6.16707943872564445797
O  19.54196108560451605740 30.76318307686922182143 6.16708037039806544755
Si 16.87872042183160914419 38.45845522920166814629 7.82303646150792886260
O  15.46977615225479496530 39.09359903576113737245 8.41001439917910431632
O  18.13480302882792472019 39.36032777485791456229 8.41005555178064412303
O  17.03255432621480736088 36.91943977733104276240 8.41303947234257520904
O  16.87874623739612900408 38.46045460866042731141 6.16703645950347123517
O  20.79783428694147318083 29.86305523668341521670 8.41010006028759171670
O  20.79833211874348819492 34.74505628348721586462 8.41009857344278799474
H  4.07465742956088305959 24.98677204122567019340 8.03659115486473218937
H  1.41040896897737866311 29.60201496924470632166 8.03674925624579294947
H  1.41040900919731981844 35.00798498484397924813 8.03674926222289620625
H  4.07465743671090852018 39.62322797221642645127 8.03659115988568117928
H  8.94818084744487407534 22.17325470590984082264 8.03830168925923693735
H  8.94818087837414566366 42.43674530331330174704 8.03830168073361583936
H  14.27776169714015708223 22.17320385286019757132 8.03828218847732145491
H  14.27776172864653325689 42.43679616363591833306 8.03828219215340489257
H  18.96055658080815931044 24.87622777471446511299 8.03640577803981237537
H  18.96055653563918141913 39.73377222678111309051 8.03640577824930346651
H  21.62471722891071124195 29.49141992827749447770 8.03658340834446960343
H  21.62471723486435593031 35.11858007498948097691 8.03658341026921974048
H  13.43954240863521398808 34.27033906526265383263 5.76911863122576207275
H  10.79702478250311870056 34.91824967524460987534 5.76839602489254765771
H  8.90770700696959494280 32.96594596445793001749 5.76499475618653889342
H  9.65945432212624055524 30.34299408995511981857 5.76888004927336695005
H  12.30259135897466826748 29.68912272470963387150 5.76803922749661346359
H  14.18560356053420079547 31.64418152337187706280 5.76552257831962222667
H  13.46208429048409804807 39.53603768198028234337 5.76468154407267974193
H  10.78553467868654713868 38.90473306688654275831 5.77122838979248786728
H  8.14831461450003047275 39.50994490506838019428 5.76699955035813793813
H  6.23317386269014583888 37.58286575796504536129 5.76180503593789694605
H  5.45415702063239571373 34.93908511501376068509 5.77152547615997679742
H  3.60566386871954946969 32.96814933236836253627 5.76410508782753261414
H  4.32812544121642961414 30.34544671555786976569 5.76331957717474985259
H  6.21212642439644824321 28.34933201805911551219 5.76816829126227759161
H  7.00946743391152349290 25.75759721957326675579 5.76754704172593868350
H  9.64012206855738895683 25.06582757851009546357 5.76488469535756031803
H  12.31500792205120831113 25.70853943649498063451 5.77192568693728258467
H  14.95343798985504690791 25.09203406418124160382 5.76610003210655364114
H  16.85241664133483041610 27.02653750745795946386 5.76116217576079492346
H  17.64630212565520395174 29.66655900631138109702 5.77122746760584792725
H  19.48194552657890099567 31.64158903461128957701 5.76482831456010913485
H  18.77355784229061086421 34.27390176120339049248 5.76498788539269746423
H  16.88031298370191990443 36.26100719748642120521 5.76894103272711511465
H  16.09309773702299395381 38.86024083840531062606 5.76722976418716015701
P  10.86219350303549369130 32.24811978072415286078 10.43990311378486168792
O  14.24542052798673807956 32.52668166799550419910 13.01473766611144355920
O  16.22849279120733712034 34.75255010353406248669 12.64843610063716639047
O  17.34323720887776687505 32.69491845011309294478 11.43828027029170968376
O  11.89894556459450569719 32.84189155051296893362 11.63921853036018561056
O  17.04225084095009989937 29.98213269405659886502 11.70042522772194359959
O  10.32856044009329821165 30.98132218859075592832 10.98816149535377206803
O  11.54228327035206191908 32.35602585521937157864 9.12554657567402216500
O  9.69624894663068381817 33.39975327445402797366 10.64419753809256974364
N  14.84893987325636466323 30.54681821056360746525 11.85671128412174724076
N  15.51323736854780221961 28.39169301916030008215 11.19337495255223657864
N  13.95702309386673434233 26.79667543398831597301 10.70254215780088102861
C  15.38882916285027668835 34.11381721194538130248 11.71355872081639404314
C  15.94346455703090903455 32.72281441776231503127 11.35626748093292626152
C  14.02739754871034172368 33.75581310358935382965 12.32673753114444714640
C  15.28041081188190375428 31.81642033588640572361 12.42228074955548677849
C  12.94852705760651190303 33.65482886674537610361 11.23101983895890576548
C  13.55348157487871318949 30.26022373119935338082 11.63372756544005603985
C  15.87538191538465426333 29.62088194074200231398 11.56077667415050846955
C  13.19667379678530672038 29.02587783641002872059 11.19503426612496177484
C  14.24154278744226509446 28.09083194121618376471 11.00202650319986119598
H  15.27522016982882391289 34.74118498482450689835 10.82374387059869746963
H  15.60025686578912740288 32.42665011971357102993 10.35985942761111466837
H  13.72778828700781161842 34.46654271169839489630 13.10171948585957224509
H  16.02577297196507899457 31.56167743304790107572 13.19758467956071434912
H  13.37864309961949871308 33.23722560283171389983 10.32026980504305413433
H  12.58706054470671986678 34.66327581936801038864 10.99474185674397652690
H  17.11098096636963816763 34.38999258195457997545 12.47322392667158652557
H  17.58361105356985376602 31.74512500112447810352 11.40677502429543466178
H  12.82147837262552769744 31.02944032320011302772 11.83249625626970669146
H  12.16584250293997371273 28.81003092855874214706 10.98239256979489475441
H  13.06882315367463931466 26.62888679212545994801 10.25945613560902458516
H  14.73461227714730981120 26.26122194082361716028 10.34992700595111614348
H  8.96175731510255069168 32.90609371434116781074 10.99609944679025019809
