35
Coordinates from ORCA-job /data/Seafile/cmp/protonated/geom/cmp_prot E -1458.150502840889
  P           3.09165353833153     -1.69243536888669      0.25670189055186
  O           0.35829559838485      1.28109135523547     -1.28384451513097
  O           0.69701313650846      4.10472949646856     -0.21452801277335
  O          -1.68471709752415      3.25091844737663      0.71788280816692
  O           2.48931833645262     -0.32985009726123     -0.40396892915309
  O          -3.33917795224952      0.97396619581832      0.38386378661193
  O           3.43599894208610     -2.55972262282807     -0.90104209859602
  O           2.19465411884415     -2.15706957190843      1.34869945513993
  O           4.43817950296775     -1.16315952259169      0.98799067630103
  N          -1.41203936899339      0.03104078903528     -0.37828662054860
  N          -3.16691453710070     -1.28449137622588      0.37411886848904
  N          -3.06589603552661     -3.58213227934625      0.43052513877961
  C           0.68892854536685      2.85156940278146      0.41814564791390
  C          -0.71739038830804      2.25423086572873      0.58937867542289
  C           1.38421355537400      1.77237451855308     -0.39924258937840
  C          -0.88249810129716      1.39106553303339     -0.68233456277429
  C           1.98183540687463      0.67445542637965      0.45042825311396
  C          -0.70791965943966     -1.09169552443718     -0.63996149189553
  C          -2.68119947631276     -0.01874589239073      0.14089040139803
  C          -1.19720322147414     -2.32831000755205     -0.39166718245614
  C          -2.49525087193906     -2.43545840351666      0.14745797655626
  H           1.16978071795899      2.99712793007434      1.38614258924044
  H          -0.70602257418465      1.59313028775770      1.46430928616756
  H           2.15490755389382      2.20095322678665     -1.04111453006655
  H          -1.59735987141761      1.84547320444597     -1.37292776989961
  H           1.24279669133622      0.24502480176331      1.13540637606591
  H           2.78421794716321      1.11152876675575      1.05546522537399
  H           0.20976933550409      4.05135530662157     -1.04414415806600
  H          -2.53594292824098      2.79094175540277      0.74865729453764
  H           0.27834836367342     -0.93299026170031     -1.05555407813920
  H          -0.61518059619430     -3.21371398724104     -0.59698737963595
  H          -2.56613273499398     -4.44178733785145      0.26768652118031
  H          -3.99560933702454     -3.64158373083467      0.81603990672302
  H           5.13212156654092     -0.97095324187951      0.34693587579596
  H          -4.10487810504034     -1.31175808356680      0.75738726498348
